ITEM: TIMESTEP
0
ITEM: NUMBER OF ATOMS
200
ITEM: BOX BOUNDS pp pp pp
-17.980597440828447 17.980597440828447
-17.980597440828447 17.980597440828447
-17.980597440828447 17.980597440828447
ITEM: ATOMS id type x y z
1 1 11.581 -16.680 -12.238 
2 1 5.209 4.940 -0.125 
3 1 -7.217 12.508 8.475 
4 1 -6.762 -14.997 -16.445 
5 1 -7.091 -5.280 -17.758 
6 1 12.752 -6.475 4.722 
7 1 -4.351 -8.642 -0.899 
8 1 1.406 4.612 0.156 
9 1 9.972 -6.026 7.250 
10 1 17.902 -11.394 -12.401 
11 1 1.167 -2.308 -15.636 
12 1 -4.898 -8.344 17.336 
13 1 12.704 5.253 -10.977 
14 1 11.291 -9.570 6.416 
15 1 -0.188 3.253 -12.109 
16 1 -9.187 -17.374 -6.358 
17 1 -5.637 9.095 7.935 
18 1 15.694 -3.980 4.814 
19 1 -15.066 3.870 10.097 
20 1 5.096 3.683 -12.683 
21 1 15.784 4.596 -8.895 
22 1 -7.763 -15.338 15.890 
23 1 -4.892 1.110 -8.469 
24 1 13.957 1.696 -10.699 
25 1 15.822 -8.337 -11.144 
26 1 -12.902 7.009 10.689 
27 1 -13.960 5.303 1.137 
28 1 4.540 -16.043 16.901 
29 1 -13.700 11.506 15.085 
30 1 -4.444 -13.888 14.515 
31 1 -3.130 -14.837 -10.096 
32 1 -4.250 -14.063 10.775 
33 1 -8.168 -4.617 7.223 
34 1 3.875 -13.237 13.756 
35 1 9.469 4.729 5.670 
36 1 -3.454 1.291 -12.075 
37 1 17.229 -0.485 5.485 
38 1 -12.138 2.204 15.572 
39 1 12.929 -3.620 7.356 
40 1 11.972 -9.118 -11.581 
41 1 4.542 -8.367 17.660 
42 1 1.097 10.006 3.870 
43 1 -5.702 -2.155 -15.885 
44 1 10.261 10.940 6.494 
45 1 -14.397 11.549 5.609 
46 1 9.660 -0.575 -5.467 
47 1 6.412 -9.414 -8.538 
48 1 -16.826 14.484 5.140 
49 1 16.106 0.632 -13.696 
50 1 -0.363 -16.881 -11.795 
51 1 1.611 -10.463 7.176 
52 1 -13.683 -8.810 6.864 
53 1 1.020 -12.991 -16.479 
54 1 13.340 -14.929 -9.372 
55 1 4.712 -2.720 -16.871 
56 1 -4.203 14.661 9.108 
57 1 -0.979 0.785 -14.975 
58 1 7.186 -3.786 -13.995 
59 1 13.396 -9.127 11.725 
60 1 -4.935 -2.497 7.261 
61 1 -17.908 2.978 12.802 
62 1 13.388 -0.999 4.660 
63 1 -2.152 -13.742 17.378 
64 1 -1.981 -10.406 -17.021 
65 1 -16.858 0.765 8.885 
66 1 -7.419 1.292 -3.953 
67 1 4.646 -0.985 -6.128 
68 1 -11.110 -10.909 8.700 
69 1 -0.923 -7.343 0.219 
70 1 -13.455 9.885 -4.624 
71 1 -7.268 -14.810 -4.310 
72 1 17.164 16.413 -8.986 
73 1 -5.323 -12.062 17.723 
74 1 -5.722 17.696 -5.042 
75 1 16.041 4.249 -12.653 
76 1 16.099 12.547 -4.053 
77 1 -14.650 1.223 12.854 
78 1 -1.887 13.892 11.954 
79 1 -13.869 -14.547 3.974 
80 1 17.746 1.682 -10.401 
81 1 -8.479 -9.987 11.299 
82 1 -0.513 0.412 15.628 
83 1 4.996 -9.533 8.738 
84 1 -8.051 7.750 -16.157 
85 1 1.592 15.175 -1.669 
86 1 -5.306 7.418 11.333 
87 1 -5.870 -4.550 4.148 
88 1 6.706 17.603 -0.219 
89 1 8.074 17.057 3.307 
90 1 9.645 -6.028 -11.963 
91 1 5.569 4.805 -9.003 
92 1 11.341 6.519 14.842 
93 1 7.261 -1.130 4.765 
94 1 -13.722 -17.674 -17.690 
95 1 -4.788 9.563 -16.968 
96 1 17.275 -10.897 -8.634 
97 1 -0.381 -12.858 13.215 
98 1 3.219 0.809 -3.047 
99 1 -9.740 1.976 -0.873 
100 1 15.532 7.770 -11.450 
101 1 3.636 4.700 3.313 
102 1 -6.050 -15.696 -7.812 
103 1 2.380 -11.739 10.686 
104 1 -17.776 -16.707 9.730 
105 1 5.563 -16.639 13.297 
106 1 -0.535 -16.549 -7.951 
107 1 12.648 10.990 3.541 
108 1 2.860 16.781 10.537 
109 1 1.992 -5.608 -17.417 
110 1 11.704 1.560 6.843 
111 1 17.069 -14.394 -10.152 
112 1 15.589 -10.268 8.826 
113 1 -14.231 6.188 4.929 
114 1 -2.732 -10.642 15.237 
115 1 11.575 7.377 6.865 
116 1 -3.754 -17.467 8.959 
117 1 15.249 -17.370 -11.524 
118 1 -6.717 4.204 -1.593 
119 1 -12.911 0.897 9.513 
120 1 0.219 6.385 3.368 
121 1 3.108 4.615 -3.234 
122 1 3.097 7.867 1.284 
123 1 -16.377 -8.535 -10.495 
124 1 -0.695 16.207 9.181 
125 1 -10.272 -7.240 9.148 
126 1 -6.432 -10.575 14.481 
127 1 -16.252 6.368 12.510 
128 1 10.659 0.745 -8.988 
129 1 -13.329 7.743 14.395 
130 1 -2.774 -2.898 10.459 
131 1 10.002 9.719 13.328 
132 1 -4.522 11.238 10.922 
133 1 1.433 -14.599 15.957 
134 1 -4.076 -5.264 0.832 
135 1 -0.099 2.649 -2.892 
136 1 -14.529 2.718 6.533 
137 1 16.277 12.198 4.007 
138 1 -11.945 3.387 3.777 
139 1 -8.811 -1.629 -1.923 
140 1 -0.013 10.659 11.679 
141 1 -6.552 -5.479 -4.124 
142 1 -14.417 -2.502 -0.388 
143 1 -2.215 8.633 9.426 
144 1 3.699 6.352 -16.061 
145 1 1.806 -16.251 12.745 
146 1 0.824 -10.844 16.321 
147 1 -13.127 8.472 -0.866 
148 1 2.493 -15.787 -5.787 
149 1 -2.180 8.487 5.636 
150 1 -6.069 16.741 1.734 
151 1 3.979 2.698 -6.314 
152 1 17.466 0.718 15.995 
153 1 -1.668 -11.076 0.403 
154 1 -6.805 -17.343 -1.519 
155 1 6.537 -7.080 -5.501 
156 1 7.170 -13.774 15.468 
157 1 -13.356 15.129 16.225 
158 1 -9.127 6.075 10.807 
159 1 10.664 -9.734 2.712 
160 1 13.396 -7.206 8.436 
161 1 -0.223 -7.134 -8.234 
162 1 9.230 -2.299 -10.978 
163 1 12.913 0.434 -3.751 
164 1 4.125 -12.246 17.394 
165 1 2.443 5.783 -11.059 
166 1 1.898 -2.343 16.579 
167 1 -11.619 4.314 8.340 
168 1 16.604 -1.493 -16.839 
169 1 -7.670 -13.551 12.497 
170 1 10.103 -8.761 9.883 
171 1 4.651 -4.912 15.973 
172 1 9.723 0.234 -1.613 
173 1 1.965 0.937 -17.429 
174 1 6.345 -14.558 -0.369 
175 1 14.490 -11.787 -10.949 
176 1 2.507 17.821 -9.555 
177 1 -0.027 -0.256 10.552 
178 1 1.319 -16.784 -16.982 
179 1 11.033 -12.928 -11.730 
180 1 -11.868 3.691 12.104 
181 1 -0.236 -2.731 13.431 
182 1 -8.176 9.766 10.852 
183 1 13.369 10.064 15.056 
184 1 10.268 -0.561 2.386 
185 1 0.902 0.589 -6.068 
186 1 14.154 -14.301 -13.625 
187 1 0.725 4.101 -15.660 
188 1 -2.954 4.054 -14.672 
189 1 1.568 -9.268 -16.250 
190 1 8.715 14.439 0.606 
191 1 14.738 -0.380 8.257 
192 1 -16.867 9.599 14.306 
193 1 -14.206 -12.611 7.252 
194 1 -10.634 17.818 15.824 
195 1 9.463 8.939 9.647 
196 1 7.596 2.105 -7.127 
197 1 -4.704 2.392 5.099 
198 1 3.532 -4.943 -14.051 
199 1 -10.309 -16.145 -16.994 
200 1 4.710 14.712 -10.079 
ITEM: TIMESTEP
1000
ITEM: NUMBER OF ATOMS
200
ITEM: BOX BOUNDS pp pp pp
-17.980597440828447 17.980597440828447
-17.980597440828447 17.980597440828447
-17.980597440828447 17.980597440828447
ITEM: ATOMS id type x y z
1 1 11.888 -17.226 -13.385 
2 1 5.929 5.597 -0.883 
3 1 -6.959 12.973 8.431 
4 1 -6.053 -15.306 -15.892 
5 1 -7.463 -5.489 -16.869 
6 1 13.169 -5.716 4.670 
7 1 -4.561 -8.338 -0.993 
8 1 1.338 4.370 0.218 
9 1 10.584 -6.883 6.667 
10 1 -17.877 -10.679 -11.997 
11 1 1.260 -1.907 -16.339 
12 1 -5.114 -7.357 16.895 
13 1 12.882 5.062 -11.239 
14 1 11.551 -9.851 5.673 
15 1 -0.435 3.364 -12.274 
16 1 -8.936 17.814 -6.673 
17 1 -6.367 9.328 6.284 
18 1 15.924 -3.157 3.555 
19 1 -15.638 4.001 10.414 
20 1 4.663 3.404 -12.160 
21 1 15.470 4.251 -8.422 
22 1 -7.707 -15.133 15.932 
23 1 -4.445 0.374 -8.320 
24 1 14.294 0.448 -11.372 
25 1 15.679 -8.320 -11.118 
26 1 -13.057 6.749 10.129 
27 1 -14.354 4.804 0.979 
28 1 4.052 -15.756 17.003 
29 1 -13.943 10.931 14.568 
30 1 -4.647 -13.801 14.083 
31 1 -3.135 -15.872 -10.528 
32 1 -5.348 -13.852 9.711 
33 1 -7.902 -4.747 7.016 
34 1 4.094 -13.401 13.721 
35 1 8.811 3.723 5.316 
36 1 -2.760 0.879 -11.663 
37 1 17.953 -0.377 4.617 
38 1 -12.709 3.061 15.689 
39 1 14.433 -4.508 7.519 
40 1 12.169 -9.008 -12.446 
41 1 4.911 -8.691 17.190 
42 1 -0.154 10.061 2.969 
43 1 -6.306 -1.963 -16.131 
44 1 11.273 11.263 7.225 
45 1 -13.865 12.522 6.217 
46 1 10.119 -1.030 -5.381 
47 1 6.225 -9.642 -8.449 
48 1 -16.719 15.276 5.142 
49 1 17.300 -0.587 -13.912 
50 1 -0.416 -16.533 -12.656 
51 1 1.248 -10.710 5.895 
52 1 -14.106 -8.795 6.855 
53 1 0.217 -12.719 -16.606 
54 1 13.323 -14.739 -8.764 
55 1 5.709 -1.540 -17.070 
56 1 -3.495 14.825 9.333 
57 1 -1.108 1.040 -14.821 
58 1 6.943 -3.397 -12.301 
59 1 13.439 -9.264 12.024 
60 1 -5.610 -2.204 7.718 
61 1 17.056 2.805 12.816 
62 1 12.789 -1.388 5.073 
63 1 -2.279 -13.576 16.886 
64 1 -2.744 -9.629 -17.362 
65 1 -17.316 1.084 8.096 
66 1 -7.473 2.090 -3.836 
67 1 5.827 -1.338 -6.132 
68 1 -10.530 -10.940 7.731 
69 1 0.184 -6.938 -0.342 
70 1 -12.876 11.266 -3.739 
71 1 -7.520 -14.289 -4.059 
72 1 16.973 16.012 -9.773 
73 1 -6.571 -11.766 -17.488 
74 1 -5.406 16.515 -5.162 
75 1 16.288 4.369 -12.681 
76 1 16.284 12.869 -5.351 
77 1 -14.781 1.528 13.247 
78 1 -2.114 14.648 12.118 
79 1 -14.726 -14.981 3.894 
80 1 17.517 2.513 -10.127 
81 1 -8.365 -9.659 11.345 
82 1 -0.446 1.091 14.773 
83 1 4.795 -9.449 7.676 
84 1 -8.037 7.663 -16.312 
85 1 0.333 15.367 -1.499 
86 1 -5.135 7.436 10.721 
87 1 -5.230 -5.107 4.702 
88 1 7.214 17.140 -0.509 
89 1 7.476 17.278 4.109 
90 1 9.576 -6.096 -11.218 
91 1 6.104 5.259 -8.652 
92 1 11.128 5.874 15.335 
93 1 7.171 -2.179 4.099 
94 1 -13.941 -17.439 -17.379 
95 1 -5.286 10.180 -16.363 
96 1 17.669 -10.525 -7.930 
97 1 0.184 -12.503 13.256 
98 1 2.377 -0.345 -2.417 
99 1 -9.518 2.081 -0.664 
100 1 15.640 7.404 -11.188 
101 1 4.047 3.595 4.517 
102 1 -5.734 -16.387 -8.055 
103 1 2.798 -11.502 11.548 
104 1 -16.749 -17.698 9.391 
105 1 5.470 -17.029 12.928 
106 1 -1.000 -16.994 -7.282 
107 1 13.857 9.662 2.843 
108 1 3.600 16.889 11.368 
109 1 1.773 -5.554 -17.736 
110 1 12.033 1.229 8.299 
111 1 17.560 -14.204 -9.781 
112 1 16.361 -9.260 9.369 
113 1 -13.315 7.033 3.793 
114 1 -2.308 -9.733 15.287 
115 1 11.511 7.804 7.668 
116 1 -4.155 -17.283 7.499 
117 1 14.281 17.897 -11.344 
118 1 -7.072 5.573 -0.694 
119 1 -12.721 -0.152 9.179 
120 1 0.244 6.358 3.418 
121 1 2.868 4.581 -3.565 
122 1 3.626 7.377 1.839 
123 1 -15.716 -8.634 -9.808 
124 1 0.074 17.111 9.600 
125 1 -10.647 -7.262 10.124 
126 1 -6.821 -9.861 14.514 
127 1 -16.071 5.990 12.718 
128 1 11.010 0.709 -8.539 
129 1 -11.933 8.195 14.132 
130 1 -3.471 -2.023 10.521 
131 1 9.853 9.175 12.862 
132 1 -5.170 10.956 11.203 
133 1 0.971 -14.235 16.027 
134 1 -3.148 -4.430 1.402 
135 1 -1.067 3.099 -3.651 
136 1 -15.206 3.054 5.623 
137 1 16.602 12.213 4.369 
138 1 -11.814 3.021 3.818 
139 1 -8.111 -1.432 -2.498 
140 1 0.544 11.049 10.464 
141 1 -6.923 -4.709 -5.222 
142 1 -14.806 -1.977 -1.187 
143 1 -2.517 9.418 9.375 
144 1 3.830 6.129 -15.174 
145 1 1.855 -16.110 13.410 
146 1 0.825 -10.591 16.249 
147 1 -14.150 8.760 -0.940 
148 1 2.848 -16.425 -5.650 
149 1 -1.801 8.598 5.389 
150 1 -6.124 16.769 1.796 
151 1 4.941 2.838 -5.515 
152 1 -17.214 -0.288 15.681 
153 1 -2.192 -11.564 -0.182 
154 1 -6.066 17.776 -1.663 
155 1 5.937 -7.262 -6.004 
156 1 7.338 -14.113 14.854 
157 1 -12.595 14.778 16.793 
158 1 -9.221 5.509 11.755 
159 1 11.247 -10.376 2.513 
160 1 13.376 -7.728 8.381 
161 1 -1.399 -6.750 -8.332 
162 1 9.137 -2.857 -9.649 
163 1 12.954 -0.263 -3.217 
164 1 3.967 -12.299 16.979 
165 1 2.379 5.835 -11.237 
166 1 2.350 -2.027 15.312 
167 1 -11.394 3.731 8.377 
168 1 15.726 -0.899 -16.990 
169 1 -8.067 -13.854 12.640 
170 1 9.394 -8.684 10.001 
171 1 4.643 -4.629 15.801 
172 1 9.415 -0.193 -0.770 
173 1 2.470 1.118 17.614 
174 1 6.784 -14.912 0.252 
175 1 13.893 -11.780 -10.726 
176 1 2.344 -17.570 -8.964 
177 1 1.392 -0.275 9.775 
178 1 0.860 -16.662 -17.359 
179 1 10.004 -13.326 -12.019 
180 1 -12.569 3.950 11.733 
181 1 -0.565 -2.538 13.449 
182 1 -8.839 9.993 11.221 
183 1 13.121 9.855 14.808 
184 1 10.251 -2.686 2.210 
185 1 2.346 1.082 -6.118 
186 1 15.599 -15.548 -14.227 
187 1 0.686 4.093 -15.271 
188 1 -3.130 3.464 -14.980 
189 1 1.427 -9.681 -15.383 
190 1 8.703 15.080 1.636 
191 1 15.884 -0.186 7.383 
192 1 -17.180 9.687 14.417 
193 1 -14.153 -13.973 7.407 
194 1 -10.849 17.826 15.858 
195 1 8.795 7.979 10.078 
196 1 7.367 1.219 -8.376 
197 1 -4.860 3.642 6.026 
198 1 4.011 -3.915 -14.894 
199 1 -9.348 -16.008 -17.078 
200 1 4.645 15.210 -9.210 
ITEM: TIMESTEP
2000
ITEM: NUMBER OF ATOMS
200
ITEM: BOX BOUNDS pp pp pp
-17.980597440828447 17.980597440828447
-17.980597440828447 17.980597440828447
-17.980597440828447 17.980597440828447
ITEM: ATOMS id type x y z
1 1 12.081 -17.666 -12.468 
2 1 6.156 4.784 -0.450 
3 1 -6.357 12.106 8.598 
4 1 -5.094 -15.582 -15.100 
5 1 -6.834 -5.359 -17.281 
6 1 12.358 -4.892 5.136 
7 1 -4.226 -8.029 -1.307 
8 1 1.686 2.840 -0.388 
9 1 9.815 -7.028 5.540 
10 1 16.788 -11.382 -13.304 
11 1 1.255 -2.883 -15.797 
12 1 -4.387 -7.437 16.845 
13 1 12.558 5.026 -10.243 
14 1 10.887 -11.507 5.451 
15 1 0.184 3.322 -12.140 
16 1 -8.434 -17.870 -6.134 
17 1 -7.365 11.165 5.416 
18 1 16.597 -3.082 2.227 
19 1 -16.033 4.249 10.414 
20 1 5.177 4.046 -11.878 
21 1 15.852 4.425 -8.315 
22 1 -7.291 -15.456 15.710 
23 1 -5.317 -0.890 -8.866 
24 1 16.197 0.010 -11.140 
25 1 15.227 -8.361 -10.598 
26 1 -11.596 7.064 8.615 
27 1 -14.226 4.846 0.962 
28 1 4.650 -15.609 17.011 
29 1 -14.188 12.608 13.356 
30 1 -4.142 -15.028 13.655 
31 1 -3.493 -16.756 -10.969 
32 1 -5.151 -14.007 9.785 
33 1 -9.805 -5.123 7.536 
34 1 4.313 -12.935 13.504 
35 1 8.294 3.060 4.691 
36 1 -3.032 0.203 -11.348 
37 1 -17.672 -0.688 4.310 
38 1 -12.386 3.437 15.392 
39 1 14.576 -3.252 7.861 
40 1 11.833 -8.646 -13.164 
41 1 4.779 -8.226 17.580 
42 1 0.505 10.566 3.204 
43 1 -6.040 -2.330 -16.064 
44 1 11.512 11.301 6.898 
45 1 -14.324 12.760 5.618 
46 1 9.984 -1.624 -5.441 
47 1 5.784 -10.426 -10.177 
48 1 17.739 17.214 5.104 
49 1 17.512 0.241 -14.570 
50 1 0.440 -16.803 -13.310 
51 1 1.288 -10.077 6.095 
52 1 -15.201 -9.007 5.231 
53 1 0.241 -12.448 -16.948 
54 1 12.298 -15.210 -8.291 
55 1 6.149 -0.647 -16.499 
56 1 -3.224 14.479 8.272 
57 1 -1.252 0.355 -16.072 
58 1 8.273 -2.280 -13.298 
59 1 13.559 -8.429 12.540 
60 1 -5.746 -1.786 7.581 
61 1 17.254 1.947 11.727 
62 1 14.057 -1.221 5.034 
63 1 -2.700 -13.282 17.139 
64 1 -2.575 -9.921 -16.417 
65 1 -16.772 0.887 8.697 
66 1 -7.026 2.126 -5.053 
67 1 4.999 -1.506 -5.888 
68 1 -11.453 -10.363 8.316 
69 1 1.662 -6.303 -0.112 
70 1 -12.275 10.183 -2.900 
71 1 -7.008 -14.292 -4.897 
72 1 17.418 14.649 -9.614 
73 1 -6.290 -11.229 17.860 
74 1 -5.278 17.094 -5.303 
75 1 15.281 4.021 -13.525 
76 1 16.311 11.842 -4.841 
77 1 -15.005 1.104 12.717 
78 1 -1.335 15.304 11.912 
79 1 -14.918 -14.661 3.256 
80 1 -17.695 3.079 -10.177 
81 1 -7.419 -9.057 11.214 
82 1 0.646 1.741 14.626 
83 1 5.113 -10.299 6.358 
84 1 -7.683 7.933 -16.766 
85 1 0.232 14.321 -1.435 
86 1 -4.812 6.993 10.882 
87 1 -6.160 -4.280 4.807 
88 1 7.323 17.357 -1.048 
89 1 7.651 -17.075 5.060 
90 1 8.663 -6.051 -11.063 
91 1 6.148 4.821 -8.888 
92 1 11.623 5.853 15.684 
93 1 6.329 -2.521 5.058 
94 1 -13.924 -16.887 -16.944 
95 1 -5.303 10.002 -15.077 
96 1 17.754 -11.279 -7.222 
97 1 -0.295 -13.069 11.443 
98 1 2.455 0.069 -2.509 
99 1 -9.110 1.322 -0.059 
100 1 15.320 7.336 -10.988 
101 1 4.025 4.891 4.905 
102 1 -7.004 -15.933 -9.772 
103 1 2.949 -11.827 10.241 
104 1 -17.136 17.714 9.156 
105 1 4.767 -16.597 12.458 
106 1 -1.474 -16.301 -6.679 
107 1 13.987 9.733 1.936 
108 1 2.775 16.752 11.598 
109 1 1.847 -5.944 -17.728 
110 1 11.383 0.103 7.247 
111 1 17.520 -13.779 -9.670 
112 1 15.845 -10.650 9.394 
113 1 -12.995 6.537 4.300 
114 1 -3.229 -10.377 15.412 
115 1 12.487 7.766 7.856 
116 1 -3.433 -16.276 6.893 
117 1 14.583 16.338 -11.073 
118 1 -6.994 4.639 -1.511 
119 1 -12.685 -0.022 9.135 
120 1 0.646 5.773 3.460 
121 1 3.264 4.389 -3.317 
122 1 2.630 8.481 1.258 
123 1 -14.732 -9.060 -9.791 
124 1 0.126 -17.846 10.556 
125 1 -12.539 -6.488 10.662 
126 1 -6.427 -8.978 14.738 
127 1 -15.392 5.433 13.580 
128 1 11.281 0.806 -8.212 
129 1 -12.025 7.751 13.344 
130 1 -2.504 -0.578 10.858 
131 1 9.519 10.094 12.001 
132 1 -4.419 10.562 11.079 
133 1 1.159 -14.032 15.738 
134 1 -2.684 -5.866 2.931 
135 1 -1.836 2.627 -3.200 
136 1 -16.020 4.534 7.112 
137 1 16.427 11.228 4.109 
138 1 -12.228 3.157 3.802 
139 1 -8.291 -2.032 -1.807 
140 1 1.493 11.773 11.795 
141 1 -6.151 -5.325 -4.913 
142 1 -15.640 -1.670 -1.181 
143 1 -2.099 8.982 9.605 
144 1 5.983 5.533 -14.854 
145 1 1.703 -16.616 13.712 
146 1 0.322 -10.650 15.678 
147 1 -13.882 8.567 0.341 
148 1 1.712 -17.164 -6.240 
149 1 -1.858 7.775 5.309 
150 1 -6.683 16.751 1.209 
151 1 4.990 2.556 -5.505 
152 1 -17.767 0.381 16.503 
153 1 -4.449 -12.580 -0.683 
154 1 -7.325 17.849 -2.363 
155 1 5.910 -7.209 -5.533 
156 1 7.866 -14.680 14.529 
157 1 -12.496 14.053 17.957 
158 1 -9.548 5.368 11.230 
159 1 10.797 -9.863 2.195 
160 1 13.209 -8.105 8.091 
161 1 -1.625 -6.337 -9.201 
162 1 9.684 -1.812 -9.982 
163 1 13.195 -1.030 -3.072 
164 1 3.164 -11.148 17.476 
165 1 2.155 5.994 -9.187 
166 1 2.184 -2.746 16.569 
167 1 -12.136 3.859 8.224 
168 1 14.922 -1.054 -16.693 
169 1 -8.254 -13.518 11.836 
170 1 9.718 -8.371 9.981 
171 1 4.574 -5.268 14.962 
172 1 8.774 0.040 -1.657 
173 1 2.760 1.329 17.440 
174 1 6.513 -13.655 -0.231 
175 1 14.584 -11.554 -10.408 
176 1 3.091 -17.808 -9.633 
177 1 1.728 -0.135 11.246 
178 1 1.186 -16.933 17.816 
179 1 9.665 -13.771 -10.584 
180 1 -12.729 3.708 11.615 
181 1 -0.273 -2.269 13.187 
182 1 -8.851 10.523 10.522 
183 1 12.670 9.474 15.836 
184 1 10.517 -1.918 1.525 
185 1 1.505 1.148 -5.761 
186 1 15.530 -15.379 -14.046 
187 1 1.419 3.712 -16.083 
188 1 -3.234 3.109 -14.806 
189 1 0.813 -9.226 -15.393 
190 1 8.350 14.734 2.272 
191 1 15.982 0.321 7.753 
192 1 -17.172 9.072 15.511 
193 1 -14.175 -14.429 7.306 
194 1 -10.414 17.531 16.416 
195 1 8.355 7.241 7.921 
196 1 6.953 1.396 -8.503 
197 1 -4.749 4.325 5.443 
198 1 4.873 -4.063 -15.366 
199 1 -8.331 -16.417 -17.225 
200 1 5.617 15.289 -8.348 
ITEM: TIMESTEP
3000
ITEM: NUMBER OF ATOMS
200
ITEM: BOX BOUNDS pp pp pp
-17.980597440828447 17.980597440828447
-17.980597440828447 17.980597440828447
-17.980597440828447 17.980597440828447
ITEM: ATOMS id type x y z
1 1 11.671 17.954 -12.034 
2 1 7.010 6.040 -0.448 
3 1 -6.560 13.207 7.532 
4 1 -5.554 -15.599 -15.117 
5 1 -7.741 -5.020 17.680 
6 1 11.724 -5.287 5.239 
7 1 -3.932 -7.029 -1.164 
8 1 1.722 2.782 -0.511 
9 1 9.097 -8.335 6.328 
10 1 17.161 -11.273 -13.527 
11 1 0.962 -2.807 -14.944 
12 1 -4.541 -6.763 17.093 
13 1 11.390 5.174 -9.613 
14 1 9.948 -12.196 5.438 
15 1 0.599 2.651 -11.742 
16 1 -9.593 17.648 -6.467 
17 1 -6.877 10.994 4.543 
18 1 16.980 -4.624 3.796 
19 1 -17.058 3.862 10.239 
20 1 4.885 3.813 -11.606 
21 1 16.477 5.456 -8.307 
22 1 -7.650 -14.246 16.197 
23 1 -6.584 -1.105 -7.927 
24 1 15.988 -1.087 -9.255 
25 1 16.115 -8.114 -10.233 
26 1 -11.903 8.101 10.193 
27 1 -15.358 5.360 0.345 
28 1 5.955 -14.899 17.218 
29 1 -14.439 12.712 13.135 
30 1 -3.909 -14.020 13.865 
31 1 -2.242 17.707 -10.911 
32 1 -5.336 -14.615 9.022 
33 1 -9.958 -6.236 8.226 
34 1 3.731 -13.529 14.532 
35 1 8.631 1.260 5.153 
36 1 -4.374 0.887 -11.265 
37 1 17.786 -0.720 4.667 
38 1 -11.252 3.961 15.217 
39 1 13.297 -3.065 7.949 
40 1 12.555 -8.577 -14.800 
41 1 5.284 -8.483 16.896 
42 1 -0.328 11.411 3.204 
43 1 -5.998 -2.163 -16.402 
44 1 12.871 11.706 6.862 
45 1 -13.961 13.786 5.754 
46 1 9.378 -1.335 -5.706 
47 1 7.278 -11.486 -9.987 
48 1 17.666 17.489 4.603 
49 1 17.177 0.452 -14.151 
50 1 -0.004 -17.270 -13.856 
51 1 0.435 -10.328 5.356 
52 1 -14.509 -7.906 6.163 
53 1 0.798 -13.167 -17.001 
54 1 13.132 -15.273 -9.215 
55 1 6.128 -1.455 -16.785 
56 1 -3.518 14.789 8.669 
57 1 -0.621 0.437 -15.195 
58 1 7.961 -2.436 -13.998 
59 1 12.520 -8.731 12.612 
60 1 -6.928 -1.723 7.244 
61 1 -17.837 0.582 12.097 
62 1 13.605 -1.644 4.822 
63 1 -3.396 -15.106 17.581 
64 1 -2.162 -9.991 -16.303 
65 1 -15.684 0.443 7.448 
66 1 -6.715 1.222 -4.978 
67 1 4.835 -1.623 -5.868 
68 1 -10.256 -10.560 8.919 
69 1 2.091 -5.753 -0.159 
70 1 -11.713 10.942 -3.082 
71 1 -8.311 -13.699 -4.998 
72 1 17.558 14.534 -9.936 
73 1 -5.226 -11.804 17.864 
74 1 -4.537 16.598 -5.655 
75 1 15.967 3.971 -13.314 
76 1 15.452 11.354 -4.215 
77 1 -15.074 0.835 14.829 
78 1 -1.974 15.300 12.100 
79 1 -14.716 -15.792 3.254 
80 1 -17.415 3.066 -9.902 
81 1 -7.463 -8.607 10.356 
82 1 0.235 1.694 12.896 
83 1 5.792 -9.873 7.258 
84 1 -7.012 7.820 -17.912 
85 1 0.998 14.297 -2.096 
86 1 -4.568 7.275 10.455 
87 1 -6.271 -3.965 3.964 
88 1 6.842 17.429 -2.533 
89 1 7.165 -16.921 5.196 
90 1 8.613 -5.498 -10.972 
91 1 6.142 4.959 -8.148 
92 1 11.739 6.452 15.500 
93 1 6.326 -1.487 3.887 
94 1 -13.517 17.685 -17.463 
95 1 -5.155 9.368 -13.636 
96 1 17.450 -11.038 -6.946 
97 1 -1.030 -13.394 11.452 
98 1 2.590 0.703 -2.794 
99 1 -9.296 1.278 1.700 
100 1 15.767 7.696 -11.531 
101 1 3.612 3.783 5.778 
102 1 -7.487 -16.775 -9.610 
103 1 3.380 -12.733 10.342 
104 1 -16.510 17.545 9.171 
105 1 6.499 -16.361 13.673 
106 1 -2.344 -15.171 -8.075 
107 1 12.869 9.167 2.647 
108 1 3.995 16.919 10.789 
109 1 3.421 -6.313 -17.013 
110 1 11.613 0.812 7.538 
111 1 17.913 -13.062 -10.690 
112 1 16.348 -10.043 9.478 
113 1 -12.842 6.920 3.080 
114 1 -3.488 -10.391 14.316 
115 1 14.464 7.498 8.210 
116 1 -2.437 -15.548 6.556 
117 1 14.781 16.290 -10.201 
118 1 -7.415 4.662 -1.458 
119 1 -12.760 -0.099 10.223 
120 1 1.051 5.280 2.572 
121 1 3.403 4.870 -3.369 
122 1 2.912 7.307 0.845 
123 1 -15.092 -9.302 -8.601 
124 1 -0.017 17.354 9.825 
125 1 -12.568 -7.496 11.037 
126 1 -6.734 -9.103 14.224 
127 1 -16.592 5.031 13.652 
128 1 11.557 1.365 -9.078 
129 1 -13.029 8.250 13.914 
130 1 -2.880 -1.828 11.222 
131 1 8.795 9.214 11.578 
132 1 -4.153 12.039 11.279 
133 1 -0.241 -14.107 14.648 
134 1 -2.731 -6.354 2.572 
135 1 -1.845 1.904 -1.406 
136 1 -16.100 5.296 6.875 
137 1 16.621 10.214 4.523 
138 1 -11.711 3.604 4.125 
139 1 -8.562 -1.627 -1.260 
140 1 0.796 12.021 12.712 
141 1 -6.669 -5.470 -5.449 
142 1 -15.367 -1.632 -1.773 
143 1 -1.157 9.509 9.645 
144 1 5.946 5.566 -15.073 
145 1 0.959 -17.559 14.471 
146 1 0.674 -10.639 15.120 
147 1 -14.096 9.480 1.334 
148 1 2.310 -17.432 -5.681 
149 1 -1.883 8.162 6.078 
150 1 -6.419 17.220 0.480 
151 1 4.989 2.080 -5.814 
152 1 17.797 -1.011 16.420 
153 1 -4.184 -11.872 -0.692 
154 1 -6.803 -16.992 -1.979 
155 1 5.759 -7.855 -4.783 
156 1 8.596 -14.866 15.671 
157 1 -11.108 12.786 17.795 
158 1 -9.848 5.419 11.933 
159 1 10.621 -9.966 1.565 
160 1 12.680 -8.185 7.822 
161 1 -0.268 -6.116 -8.913 
162 1 10.111 -1.887 -10.935 
163 1 13.141 -1.287 -4.153 
164 1 2.767 -10.252 17.858 
165 1 2.679 5.176 -9.496 
166 1 3.084 -3.105 15.710 
167 1 -10.838 2.968 8.881 
168 1 13.736 -1.571 -16.414 
169 1 -8.527 -13.260 10.959 
170 1 9.514 -7.627 9.894 
171 1 5.142 -5.738 14.878 
172 1 8.890 0.163 -1.485 
173 1 3.395 1.896 17.808 
174 1 6.162 -12.061 -0.449 
175 1 13.972 -12.103 -10.480 
176 1 3.768 -16.353 -9.516 
177 1 1.981 -0.704 11.000 
178 1 -0.247 -16.754 17.895 
179 1 10.345 -13.565 -11.185 
180 1 -13.913 3.037 12.434 
181 1 0.088 -2.578 14.131 
182 1 -8.269 9.951 10.288 
183 1 12.506 9.766 16.714 
184 1 10.652 -2.246 2.525 
185 1 1.079 1.189 -6.107 
186 1 14.814 -15.989 -15.039 
187 1 0.555 3.625 -16.339 
188 1 -3.462 3.701 -15.029 
189 1 1.156 -8.303 -15.008 
190 1 9.070 15.301 1.076 
191 1 16.109 -0.130 7.839 
192 1 -17.097 9.547 13.827 
193 1 -13.359 -15.084 6.799 
194 1 -10.118 17.864 15.809 
195 1 9.262 7.127 8.800 
196 1 7.605 1.755 -8.816 
197 1 -5.886 3.787 6.544 
198 1 4.942 -4.296 -14.461 
199 1 -9.022 -15.928 -17.198 
200 1 4.787 14.670 -8.060 
ITEM: TIMESTEP
4000
ITEM: NUMBER OF ATOMS
200
ITEM: BOX BOUNDS pp pp pp
-17.980597440828447 17.980597440828447
-17.980597440828447 17.980597440828447
-17.980597440828447 17.980597440828447
ITEM: ATOMS id type x y z
1 1 10.802 17.138 -12.593 
2 1 7.489 4.644 -0.704 
3 1 -6.839 12.332 7.192 
4 1 -5.633 -16.734 -14.818 
5 1 -7.589 -5.015 17.440 
6 1 12.376 -5.838 5.011 
7 1 -4.323 -7.066 -1.370 
8 1 0.445 3.085 0.905 
9 1 9.336 -8.068 6.566 
10 1 17.431 -12.207 -13.853 
11 1 1.205 -2.664 -15.678 
12 1 -4.570 -6.373 16.824 
13 1 12.020 5.226 -9.917 
14 1 9.639 -12.262 6.526 
15 1 0.042 2.843 -11.725 
16 1 -10.612 17.010 -6.279 
17 1 -4.852 11.570 4.803 
18 1 16.843 -5.259 3.548 
19 1 -17.665 3.689 9.941 
20 1 4.355 4.503 -12.581 
21 1 16.716 6.494 -8.187 
22 1 -8.289 -15.929 14.701 
23 1 -7.454 -0.884 -7.053 
24 1 16.863 -1.504 -10.267 
25 1 16.388 -8.492 -10.362 
26 1 -11.795 8.711 10.011 
27 1 -15.894 5.416 0.807 
28 1 6.452 -15.758 16.977 
29 1 -13.718 12.280 13.863 
30 1 -3.760 -13.864 14.242 
31 1 -4.126 17.571 -10.827 
32 1 -5.381 -14.500 9.074 
33 1 -9.672 -6.431 7.593 
34 1 3.554 -14.067 14.469 
35 1 8.976 1.729 5.702 
36 1 -4.047 1.530 -11.421 
37 1 17.221 -0.500 3.892 
38 1 -10.704 4.386 15.423 
39 1 14.446 -3.748 7.504 
40 1 10.891 -7.995 -14.653 
41 1 5.379 -8.146 16.845 
42 1 0.486 12.165 2.804 
43 1 -5.484 -3.169 -16.436 
44 1 13.729 11.316 7.267 
45 1 -15.087 12.706 6.242 
46 1 9.192 -1.328 -5.745 
47 1 8.144 -11.101 -9.959 
48 1 17.090 17.823 3.334 
49 1 17.357 -0.659 -13.728 
50 1 -0.074 -17.478 -13.676 
51 1 0.061 -10.481 5.159 
52 1 -14.698 -7.983 6.633 
53 1 0.843 -12.420 -16.698 
54 1 12.540 -15.318 -9.886 
55 1 6.283 -1.492 -16.227 
56 1 -2.926 15.256 8.348 
57 1 -1.254 0.706 -14.383 
58 1 7.909 -3.442 -13.146 
59 1 13.286 -8.336 12.990 
60 1 -7.026 -1.963 7.934 
61 1 -17.770 -0.209 12.171 
62 1 13.159 -1.605 3.711 
63 1 -3.289 -15.842 17.493 
64 1 -2.291 -10.102 -15.634 
65 1 -15.790 0.451 8.044 
66 1 -6.532 2.721 -4.874 
67 1 4.359 -1.814 -5.597 
68 1 -10.452 -11.752 9.330 
69 1 1.526 -6.293 -0.710 
70 1 -10.871 12.436 -4.080 
71 1 -8.016 -14.194 -5.534 
72 1 16.986 12.897 -9.301 
73 1 -5.439 -10.534 17.372 
74 1 -4.755 15.618 -5.224 
75 1 16.271 3.564 -13.601 
76 1 15.446 13.048 -3.924 
77 1 -14.979 1.341 15.517 
78 1 -2.103 14.844 12.241 
79 1 -15.773 -15.660 3.861 
80 1 17.861 3.371 -10.822 
81 1 -6.962 -9.479 10.871 
82 1 0.821 2.119 11.648 
83 1 6.024 -10.677 6.624 
84 1 -6.341 6.839 17.847 
85 1 1.002 14.279 -2.164 
86 1 -3.518 8.043 11.541 
87 1 -6.672 -4.654 4.367 
88 1 7.236 -17.577 -2.775 
89 1 6.931 -16.989 3.979 
90 1 7.299 -6.845 -10.123 
91 1 6.208 4.917 -7.744 
92 1 11.677 6.291 14.461 
93 1 8.300 -1.004 4.054 
94 1 -12.592 16.480 -16.451 
95 1 -6.139 9.861 -14.331 
96 1 17.838 -11.079 -7.970 
97 1 -0.732 -13.768 11.649 
98 1 2.387 -0.253 -3.521 
99 1 -9.589 1.979 1.282 
100 1 14.953 6.716 -11.877 
101 1 2.738 3.921 5.691 
102 1 -8.074 -17.269 -9.478 
103 1 3.164 -13.924 10.767 
104 1 -15.801 -17.923 9.721 
105 1 7.015 -17.033 13.292 
106 1 -1.567 -15.313 -8.491 
107 1 13.016 9.411 3.047 
108 1 3.576 -17.577 9.958 
109 1 3.181 -5.954 -16.729 
110 1 11.881 0.417 6.773 
111 1 17.808 -14.698 -10.404 
112 1 16.924 -9.227 10.528 
113 1 -13.443 6.853 2.672 
114 1 -2.283 -10.043 12.988 
115 1 14.257 6.719 6.575 
116 1 -2.240 -15.383 6.265 
117 1 14.895 16.414 -10.181 
118 1 -8.081 4.874 -1.977 
119 1 -12.520 0.441 9.398 
120 1 0.340 5.381 3.338 
121 1 2.818 4.631 -4.254 
122 1 2.583 7.869 2.319 
123 1 -15.659 -8.935 -7.921 
124 1 -0.616 17.635 9.336 
125 1 -12.458 -7.929 11.051 
126 1 -5.895 -8.450 14.288 
127 1 -16.466 4.822 14.251 
128 1 10.892 0.266 -8.791 
129 1 -12.714 9.060 13.914 
130 1 -2.513 -2.143 10.314 
131 1 7.795 8.724 11.558 
132 1 -4.747 12.856 11.286 
133 1 -1.026 -12.962 16.163 
134 1 -3.348 -6.313 3.267 
135 1 -1.004 0.725 -1.554 
136 1 -15.444 7.004 7.655 
137 1 16.467 9.182 5.192 
138 1 -11.628 3.042 3.904 
139 1 -8.605 -2.147 -0.011 
140 1 1.563 11.548 12.420 
141 1 -6.294 -5.634 -5.187 
142 1 -14.650 -2.325 -2.856 
143 1 -1.018 10.239 9.923 
144 1 6.619 6.512 -14.672 
145 1 1.311 -17.979 14.302 
146 1 0.726 -10.605 14.599 
147 1 -14.585 10.353 1.550 
148 1 2.743 -17.862 -5.963 
149 1 -1.452 8.175 6.710 
150 1 -5.134 17.363 0.614 
151 1 5.260 2.326 -5.269 
152 1 -17.977 -0.943 17.300 
153 1 -3.546 -10.694 -0.753 
154 1 -8.033 -17.515 -2.560 
155 1 6.695 -7.136 -6.097 
156 1 10.250 -12.520 16.809 
157 1 -12.051 11.686 17.162 
158 1 -10.002 5.618 11.956 
159 1 10.898 -9.892 2.194 
160 1 12.833 -8.595 7.612 
161 1 -0.117 -5.648 -8.598 
162 1 10.655 -2.789 -9.998 
163 1 13.355 -2.307 -3.589 
164 1 3.134 -10.740 17.700 
165 1 2.134 6.271 -9.479 
166 1 3.033 -2.862 16.114 
167 1 -10.530 3.812 8.554 
168 1 12.798 -0.874 -15.823 
169 1 -8.569 -13.457 12.138 
170 1 10.290 -7.837 10.280 
171 1 3.940 -6.319 14.408 
172 1 8.592 1.422 -1.936 
173 1 3.309 0.048 -17.660 
174 1 5.321 -11.696 -0.992 
175 1 14.174 -11.818 -10.951 
176 1 3.601 -15.588 -11.002 
177 1 3.185 -1.151 11.587 
178 1 -0.361 -17.192 -16.911 
179 1 10.387 -13.237 -11.669 
180 1 -14.007 2.970 12.285 
181 1 0.057 -2.677 13.914 
182 1 -7.656 8.616 10.882 
183 1 11.772 9.236 16.584 
184 1 10.985 -3.500 2.067 
185 1 -1.033 0.060 -6.854 
186 1 14.844 -16.398 -15.030 
187 1 1.662 3.301 -15.842 
188 1 -4.200 3.881 -14.217 
189 1 -0.289 -7.100 -15.933 
190 1 8.421 15.813 1.044 
191 1 16.217 -0.771 9.418 
192 1 -16.993 9.833 12.782 
193 1 -13.143 -14.418 7.645 
194 1 -9.918 16.893 15.498 
195 1 9.505 6.898 8.757 
196 1 6.616 0.301 -8.305 
197 1 -6.703 3.980 6.472 
198 1 4.680 -3.899 -14.365 
199 1 -9.220 -16.238 -17.122 
200 1 5.681 13.555 -8.073 
ITEM: TIMESTEP
5000
ITEM: NUMBER OF ATOMS
200
ITEM: BOX BOUNDS pp pp pp
-17.980597440828447 17.980597440828447
-17.980597440828447 17.980597440828447
-17.980597440828447 17.980597440828447
ITEM: ATOMS id type x y z
1 1 12.426 16.154 -13.447 
2 1 7.800 4.327 -0.004 
3 1 -7.401 11.885 6.951 
4 1 -5.963 -16.506 -14.982 
5 1 -7.288 -4.003 -17.456 
6 1 11.851 -5.967 5.255 
7 1 -4.965 -7.051 -0.955 
8 1 0.738 3.148 1.366 
9 1 8.799 -7.452 6.805 
10 1 17.307 -11.793 -13.127 
11 1 0.284 -2.558 -16.782 
12 1 -3.177 -5.602 17.077 
13 1 12.605 3.432 -10.950 
14 1 9.254 -12.308 5.408 
15 1 0.316 3.263 -12.628 
16 1 -10.861 16.615 -6.370 
17 1 -4.101 11.999 5.275 
18 1 16.602 -4.804 2.946 
19 1 -17.841 3.397 9.866 
20 1 5.251 3.730 -12.997 
21 1 16.415 6.350 -8.410 
22 1 -8.683 -15.777 14.360 
23 1 -8.198 -0.245 -7.192 
24 1 16.664 -0.998 -9.767 
25 1 16.864 -7.610 -10.597 
26 1 -11.997 7.868 9.192 
27 1 -14.264 6.252 0.291 
28 1 6.298 -16.012 -17.770 
29 1 -14.018 12.448 13.295 
30 1 -3.397 -13.645 14.229 
31 1 -5.807 -17.504 -10.122 
32 1 -5.805 -14.926 9.089 
33 1 -10.583 -7.308 7.973 
34 1 1.786 -13.936 14.324 
35 1 8.513 1.965 5.465 
36 1 -3.893 0.248 -12.124 
37 1 17.379 -0.935 2.691 
38 1 -11.111 3.852 15.048 
39 1 14.927 -4.005 7.820 
40 1 11.164 -6.690 -14.565 
41 1 6.043 -7.853 16.658 
42 1 1.510 12.492 2.115 
43 1 -4.541 -1.206 -16.791 
44 1 14.235 11.433 7.721 
45 1 -12.829 13.396 5.762 
46 1 8.219 -1.334 -5.690 
47 1 7.697 -11.688 -9.231 
48 1 16.322 -17.688 3.660 
49 1 16.674 -0.408 -13.450 
50 1 -1.090 -17.978 -12.606 
51 1 -0.622 -10.853 4.253 
52 1 -15.721 -7.312 7.205 
53 1 0.175 -11.915 -16.654 
54 1 12.582 -14.873 -9.279 
55 1 6.786 -1.502 -16.759 
56 1 -3.815 15.539 9.086 
57 1 -1.549 1.137 -14.737 
58 1 7.556 -4.872 -12.571 
59 1 13.088 -9.157 13.585 
60 1 -6.657 -2.313 8.958 
61 1 17.793 0.261 13.278 
62 1 13.199 -1.038 3.292 
63 1 -3.369 -15.079 17.740 
64 1 -2.946 -9.822 -16.360 
65 1 -16.523 1.206 7.095 
66 1 -7.274 3.966 -5.365 
67 1 3.091 -2.626 -7.808 
68 1 -10.517 -11.941 9.327 
69 1 1.772 -7.333 -0.507 
70 1 -12.378 11.637 -4.123 
71 1 -8.642 -14.666 -5.383 
72 1 17.651 13.363 -9.509 
73 1 -6.570 -10.695 -17.330 
74 1 -4.459 16.096 -6.194 
75 1 16.921 3.035 -13.572 
76 1 15.545 13.084 -3.659 
77 1 -15.572 0.920 16.059 
78 1 -1.397 15.286 14.149 
79 1 -16.105 -15.264 4.176 
80 1 -17.230 4.182 -10.685 
81 1 -7.698 -8.334 10.473 
82 1 -0.087 2.069 12.700 
83 1 5.872 -10.091 7.581 
84 1 -4.297 5.862 16.891 
85 1 -0.260 13.161 -1.426 
86 1 -2.868 8.343 10.425 
87 1 -7.587 -5.086 4.819 
88 1 7.237 17.468 -2.535 
89 1 7.904 -17.932 3.577 
90 1 7.276 -7.183 -10.414 
91 1 5.406 5.325 -7.051 
92 1 12.336 6.481 14.387 
93 1 7.877 -1.387 3.657 
94 1 -12.497 15.859 -15.938 
95 1 -6.602 10.663 -12.601 
96 1 17.031 -11.402 -7.416 
97 1 -1.144 -13.695 11.942 
98 1 2.621 -0.863 -3.372 
99 1 -8.854 2.720 1.623 
100 1 16.317 7.592 -11.609 
101 1 3.896 6.312 6.403 
102 1 -8.421 -16.979 -8.657 
103 1 2.539 -13.550 10.198 
104 1 -15.722 16.455 9.810 
105 1 6.920 -17.799 12.045 
106 1 -1.336 -14.782 -7.469 
107 1 13.661 9.646 2.494 
108 1 3.589 -17.526 10.669 
109 1 2.918 -5.692 -16.113 
110 1 13.055 0.119 7.730 
111 1 -17.913 -15.068 -10.467 
112 1 16.039 -10.292 10.981 
113 1 -13.746 6.012 4.253 
114 1 -2.977 -9.676 12.064 
115 1 12.911 6.405 5.235 
116 1 -1.931 -16.827 5.197 
117 1 15.367 17.374 -10.993 
118 1 -8.919 5.059 -2.124 
119 1 -12.649 0.584 9.755 
120 1 -0.294 5.455 4.045 
121 1 3.313 4.002 -4.316 
122 1 1.957 7.729 1.162 
123 1 -14.928 -9.737 -8.059 
124 1 -0.169 16.884 9.440 
125 1 -11.715 -8.966 11.877 
126 1 -5.827 -9.336 14.960 
127 1 -17.760 5.746 14.871 
128 1 11.401 1.119 -8.812 
129 1 -12.842 8.337 13.514 
130 1 -2.401 -2.906 10.394 
131 1 8.307 9.086 11.349 
132 1 -5.357 12.801 11.766 
133 1 -1.148 -12.317 16.239 
134 1 -3.904 -6.775 2.189 
135 1 -0.600 0.478 -1.591 
136 1 -16.074 7.196 8.030 
137 1 16.416 9.246 4.324 
138 1 -11.695 3.156 4.445 
139 1 -8.099 -1.580 1.088 
140 1 1.398 11.441 12.851 
141 1 -6.114 -5.840 -4.732 
142 1 -14.371 -2.686 -2.723 
143 1 -0.950 12.120 10.017 
144 1 6.284 6.781 -14.724 
145 1 2.049 17.027 15.022 
146 1 2.321 -10.590 15.142 
147 1 -15.874 11.516 2.369 
148 1 3.622 -17.746 -6.051 
149 1 -1.972 8.698 6.266 
150 1 -4.618 -17.302 0.814 
151 1 5.817 1.645 -5.187 
152 1 17.506 -1.519 16.395 
153 1 -3.087 -11.499 -1.455 
154 1 -8.134 -17.372 -2.976 
155 1 7.329 -7.209 -6.367 
156 1 10.438 -13.233 15.476 
157 1 -11.987 11.743 16.771 
158 1 -9.121 6.474 11.403 
159 1 11.142 -10.147 1.780 
160 1 13.637 -8.530 7.487 
161 1 -0.124 -5.237 -8.801 
162 1 10.605 -2.795 -10.857 
163 1 12.998 -2.445 -3.978 
164 1 2.759 -9.696 -17.047 
165 1 2.168 6.212 -9.255 
166 1 4.004 -3.384 16.425 
167 1 -11.272 3.246 8.616 
168 1 12.611 -0.293 -14.474 
169 1 -7.659 -11.539 11.225 
170 1 9.817 -8.537 10.339 
171 1 4.401 -6.197 14.506 
172 1 8.719 1.873 -1.971 
173 1 2.808 -0.305 -17.003 
174 1 4.870 -11.256 -1.570 
175 1 15.322 -12.129 -10.228 
176 1 2.578 -17.311 -11.112 
177 1 2.825 -0.826 11.562 
178 1 -0.010 -17.755 -16.279 
179 1 10.170 -12.856 -12.297 
180 1 -12.891 3.639 12.718 
181 1 0.501 -2.521 13.999 
182 1 -6.962 9.151 10.577 
183 1 12.259 9.299 16.519 
184 1 10.317 -2.504 1.372 
185 1 -1.195 2.058 -5.392 
186 1 14.650 -15.539 -14.560 
187 1 2.381 2.346 -15.221 
188 1 -4.444 3.037 -14.385 
189 1 -1.090 -6.339 -15.339 
190 1 9.237 16.095 0.988 
191 1 16.359 -1.521 9.258 
192 1 -17.907 10.065 12.131 
193 1 -13.058 -14.069 8.754 
194 1 -9.594 16.396 16.163 
195 1 10.078 6.067 8.438 
196 1 6.750 0.169 -8.940 
197 1 -5.853 6.675 6.392 
198 1 4.741 -2.683 -13.861 
199 1 -8.750 -16.165 17.850 
200 1 5.520 12.499 -8.620 
ITEM: TIMESTEP
6000
ITEM: NUMBER OF ATOMS
200
ITEM: BOX BOUNDS pp pp pp
-17.980597440828447 17.980597440828447
-17.980597440828447 17.980597440828447
-17.980597440828447 17.980597440828447
ITEM: ATOMS id type x y z
1 1 12.378 15.406 -13.271 
2 1 7.792 4.089 -0.007 
3 1 -7.983 12.954 8.472 
4 1 -6.921 -17.718 -14.079 
5 1 -8.055 -4.249 -17.180 
6 1 11.458 -6.908 4.431 
7 1 -4.516 -7.604 -1.526 
8 1 1.161 3.253 0.230 
9 1 9.111 -7.012 6.907 
10 1 17.247 -11.827 -13.643 
11 1 1.093 -2.202 -16.358 
12 1 -3.753 -5.322 17.478 
13 1 12.020 4.264 -11.763 
14 1 9.260 -12.705 6.573 
15 1 0.483 4.016 -12.714 
16 1 -10.398 15.618 -6.702 
17 1 -3.584 12.071 5.134 
18 1 16.783 -6.136 4.072 
19 1 17.690 3.981 9.924 
20 1 4.667 5.412 -13.619 
21 1 15.437 6.144 -8.486 
22 1 -8.803 -15.528 14.098 
23 1 -7.596 0.306 -6.773 
24 1 15.680 -1.157 -9.097 
25 1 17.575 -8.262 -11.492 
26 1 -12.260 8.320 9.964 
27 1 -15.183 8.017 0.557 
28 1 5.240 -15.354 17.338 
29 1 -14.983 11.636 13.539 
30 1 -3.848 -14.542 13.079 
31 1 -5.075 -17.388 -9.728 
32 1 -4.623 -14.251 9.434 
33 1 -11.180 -7.982 8.290 
34 1 1.464 -14.232 13.928 
35 1 8.722 3.342 4.946 
36 1 -3.197 0.006 -11.993 
37 1 -17.119 -0.579 2.582 
38 1 -10.325 4.311 15.953 
39 1 14.612 -4.436 8.756 
40 1 10.915 -8.959 -14.831 
41 1 5.413 -7.873 16.883 
42 1 1.174 12.261 3.148 
43 1 -4.420 -1.175 -16.336 
44 1 12.328 11.474 6.228 
45 1 -13.240 13.258 5.483 
46 1 8.117 -1.131 -5.705 
47 1 7.973 -11.476 -9.628 
48 1 15.939 17.673 5.210 
49 1 16.697 -0.395 -13.580 
50 1 -1.052 17.933 -11.997 
51 1 -0.093 -9.841 4.058 
52 1 -16.358 -6.142 7.960 
53 1 1.226 -12.014 -17.739 
54 1 11.301 -14.968 -7.536 
55 1 7.140 -2.145 -15.911 
56 1 -3.702 15.732 9.695 
57 1 -1.751 0.344 -15.062 
58 1 6.879 -2.685 -12.123 
59 1 13.713 -9.383 13.512 
60 1 -6.572 -2.446 9.229 
61 1 16.836 -0.428 13.792 
62 1 13.796 -0.743 2.511 
63 1 -3.802 -15.453 -17.897 
64 1 -3.438 -8.136 -16.464 
65 1 -16.486 1.281 8.259 
66 1 -7.209 3.978 -5.806 
67 1 2.551 -2.956 -8.893 
68 1 -9.795 -12.272 9.585 
69 1 1.820 -6.897 -0.901 
70 1 -10.580 11.440 -5.141 
71 1 -8.641 -14.502 -5.262 
72 1 15.749 11.550 -9.764 
73 1 -5.454 -11.067 -17.650 
74 1 -5.624 16.836 -6.765 
75 1 17.739 2.939 -13.780 
76 1 16.783 12.256 -2.742 
77 1 -15.577 0.660 15.917 
78 1 -1.389 16.660 13.675 
79 1 -16.096 -13.959 4.112 
80 1 -17.165 3.848 -10.212 
81 1 -7.255 -7.187 11.416 
82 1 -1.127 1.348 12.618 
83 1 5.734 -9.985 8.255 
84 1 -5.038 6.885 16.483 
85 1 -1.263 12.953 -3.339 
86 1 -3.435 7.900 10.855 
87 1 -6.152 -5.388 3.916 
88 1 7.707 17.119 -4.104 
89 1 7.100 17.576 3.308 
90 1 7.353 -7.252 -10.594 
91 1 6.018 5.736 -7.536 
92 1 11.931 6.285 13.201 
93 1 7.846 -1.794 3.382 
94 1 -12.468 15.245 -16.242 
95 1 -7.913 10.028 -12.532 
96 1 17.412 -12.044 -7.155 
97 1 -1.556 -12.885 11.444 
98 1 1.822 -0.155 -3.620 
99 1 -9.300 2.161 1.535 
100 1 15.647 8.277 -11.550 
101 1 4.510 7.226 5.934 
102 1 -9.018 -16.642 -8.189 
103 1 2.742 -12.861 10.776 
104 1 -16.185 17.458 9.751 
105 1 7.943 17.663 12.435 
106 1 -1.004 -15.001 -6.920 
107 1 12.548 9.659 2.026 
108 1 3.326 -17.086 11.297 
109 1 3.154 -4.434 -16.372 
110 1 13.632 -0.315 7.395 
111 1 -17.333 -14.975 -10.467 
112 1 17.913 -10.437 10.449 
113 1 -13.364 5.881 4.850 
114 1 -3.814 -9.547 12.245 
115 1 13.651 5.599 5.510 
116 1 -3.109 -16.546 4.024 
117 1 16.256 15.847 -10.512 
118 1 -9.128 5.224 -2.628 
119 1 -12.000 -0.769 9.350 
120 1 -0.059 4.604 3.694 
121 1 3.167 3.005 -4.897 
122 1 2.602 7.657 1.481 
123 1 -15.180 -9.640 -8.407 
124 1 1.314 15.929 10.646 
125 1 -11.052 -10.015 12.022 
126 1 -4.951 -9.221 15.578 
127 1 17.672 6.885 14.940 
128 1 12.647 1.107 -8.424 
129 1 -11.419 7.920 13.867 
130 1 -2.625 -2.258 10.932 
131 1 8.833 9.510 11.979 
132 1 -5.363 12.510 11.991 
133 1 -1.494 -12.897 16.140 
134 1 -3.032 -6.705 3.117 
135 1 -1.972 0.024 -0.035 
136 1 -16.439 6.706 7.602 
137 1 17.083 8.687 3.788 
138 1 -11.131 3.339 4.676 
139 1 -6.958 -0.791 0.818 
140 1 0.022 11.796 12.970 
141 1 -4.962 -6.249 -5.309 
142 1 -14.706 -2.778 -2.502 
143 1 -2.092 12.733 10.388 
144 1 7.798 7.247 -14.373 
145 1 2.502 16.480 14.172 
146 1 2.505 -11.234 14.946 
147 1 -17.135 10.790 2.203 
148 1 4.014 17.885 -5.772 
149 1 -2.875 9.262 7.006 
150 1 -5.476 -16.285 0.345 
151 1 6.370 1.701 -6.235 
152 1 -17.547 -2.044 16.904 
153 1 -3.855 -12.176 -0.465 
154 1 -8.182 -16.862 -2.902 
155 1 7.816 -6.607 -6.141 
156 1 9.776 -13.343 15.744 
157 1 -11.797 12.708 17.088 
158 1 -8.516 5.966 11.085 
159 1 12.721 -10.052 1.579 
160 1 14.645 -8.698 6.395 
161 1 -0.149 -5.688 -8.573 
162 1 11.109 -3.335 -9.958 
163 1 13.175 -1.570 -2.883 
164 1 3.340 -8.118 -15.820 
165 1 0.845 5.736 -9.692 
166 1 4.924 -3.624 16.376 
167 1 -11.944 3.806 8.138 
168 1 12.410 0.361 -13.971 
169 1 -7.081 -11.003 11.421 
170 1 10.465 -10.166 10.393 
171 1 4.826 -5.867 13.591 
172 1 8.127 1.441 -2.015 
173 1 2.890 0.597 -17.711 
174 1 4.866 -10.231 -2.529 
175 1 14.325 -12.231 -11.542 
176 1 2.582 17.131 -12.187 
177 1 2.752 -0.193 11.995 
178 1 -0.129 -17.475 -16.361 
179 1 9.799 -12.085 -12.439 
180 1 -12.163 3.446 12.493 
181 1 1.223 -2.060 14.535 
182 1 -7.041 9.195 10.509 
183 1 10.325 9.757 15.731 
184 1 11.051 -3.386 1.880 
185 1 -1.710 1.583 -6.473 
186 1 14.709 -17.316 -15.026 
187 1 2.906 1.747 -14.481 
188 1 -4.673 3.198 -14.609 
189 1 -0.726 -6.962 -14.665 
190 1 9.789 16.094 0.782 
191 1 16.734 -0.734 10.249 
192 1 17.493 9.711 11.945 
193 1 -12.542 -13.821 8.721 
194 1 -7.315 17.401 15.567 
195 1 10.680 6.420 7.961 
196 1 6.421 -0.118 -9.224 
197 1 -4.898 6.205 6.263 
198 1 3.671 -2.025 -13.846 
199 1 -8.186 -16.329 -17.291 
200 1 5.495 12.749 -8.745 
ITEM: TIMESTEP
7000
ITEM: NUMBER OF ATOMS
200
ITEM: BOX BOUNDS pp pp pp
-17.980597440828447 17.980597440828447
-17.980597440828447 17.980597440828447
-17.980597440828447 17.980597440828447
ITEM: ATOMS id type x y z
1 1 11.202 15.729 -12.838 
2 1 8.310 4.259 -0.120 
3 1 -7.877 11.889 8.666 
4 1 -5.830 15.913 -13.104 
5 1 -8.328 -5.437 -17.479 
6 1 11.302 -7.064 4.383 
7 1 -4.775 -6.837 -1.706 
8 1 0.595 3.672 0.507 
9 1 8.536 -7.145 7.020 
10 1 17.281 -11.554 -13.508 
11 1 -0.175 -2.263 -17.670 
12 1 -3.836 -4.330 16.328 
13 1 11.194 5.726 -11.659 
14 1 7.846 -11.658 6.190 
15 1 0.672 3.629 -13.993 
16 1 -9.973 16.106 -6.333 
17 1 -3.843 13.640 4.763 
18 1 15.890 -5.650 2.959 
19 1 17.232 3.906 9.977 
20 1 4.102 4.766 -14.199 
21 1 15.130 5.755 -9.912 
22 1 -9.035 -15.888 13.915 
23 1 -6.763 0.146 -6.773 
24 1 15.463 -1.703 -9.961 
25 1 17.358 -8.876 -10.613 
26 1 -11.760 8.762 10.482 
27 1 -14.620 7.450 0.916 
28 1 4.769 -16.349 17.638 
29 1 -14.942 12.594 14.986 
30 1 -4.465 -14.863 12.562 
31 1 -4.292 -17.174 -9.954 
32 1 -5.271 -14.512 8.930 
33 1 -11.625 -7.573 7.970 
34 1 1.990 -13.736 14.297 
35 1 8.438 2.599 2.960 
36 1 -2.373 0.012 -11.744 
37 1 -17.242 -1.780 2.306 
38 1 -10.647 3.940 15.630 
39 1 14.381 -3.394 9.079 
40 1 10.639 -9.826 -15.635 
41 1 6.153 -7.892 16.948 
42 1 1.071 12.742 3.180 
43 1 -4.888 -0.709 -16.806 
44 1 12.321 11.766 6.860 
45 1 -12.385 12.310 6.831 
46 1 8.709 -1.473 -6.233 
47 1 8.058 -11.141 -9.677 
48 1 16.345 17.832 4.186 
49 1 17.886 -0.825 -13.343 
50 1 -0.753 -17.436 -11.224 
51 1 0.627 -9.055 3.016 
52 1 -15.357 -4.678 9.471 
53 1 1.843 -12.282 17.539 
54 1 10.953 -15.743 -6.383 
55 1 7.087 -2.578 -15.061 
56 1 -3.229 15.775 9.088 
57 1 -2.308 0.802 -15.018 
58 1 6.733 -3.725 -11.610 
59 1 15.265 -8.817 13.424 
60 1 -7.725 -4.016 10.056 
61 1 16.892 -2.125 14.090 
62 1 14.114 -0.627 2.356 
63 1 -3.972 -15.512 -17.948 
64 1 -3.459 -8.433 -15.972 
65 1 -16.909 1.639 8.053 
66 1 -7.543 3.935 -6.179 
67 1 2.706 -2.515 -9.866 
68 1 -10.161 -11.758 10.137 
69 1 2.319 -6.795 -0.577 
70 1 -10.410 11.593 -5.064 
71 1 -8.682 -14.671 -5.426 
72 1 16.382 12.181 -8.516 
73 1 -5.990 -11.182 -17.534 
74 1 -6.157 16.580 -6.850 
75 1 16.801 2.973 -13.934 
76 1 16.560 11.490 -3.859 
77 1 -15.444 0.922 15.919 
78 1 -1.862 15.133 13.792 
79 1 -16.640 -13.564 4.493 
80 1 -17.299 3.811 -10.552 
81 1 -7.644 -7.629 12.645 
82 1 -0.729 2.850 12.817 
83 1 4.494 -11.230 7.474 
84 1 -4.997 7.732 17.034 
85 1 -1.092 11.827 -4.125 
86 1 -2.836 8.305 10.619 
87 1 -7.143 -4.516 3.317 
88 1 7.328 17.737 -4.487 
89 1 8.816 17.296 3.704 
90 1 7.423 -6.997 -9.725 
91 1 5.190 6.357 -6.819 
92 1 12.560 5.710 13.492 
93 1 7.854 -0.780 2.524 
94 1 -12.691 14.196 -16.206 
95 1 -7.239 10.578 -12.899 
96 1 17.402 -12.615 -7.209 
97 1 -0.723 -11.911 11.071 
98 1 2.420 -0.826 -4.320 
99 1 -7.985 4.094 1.476 
100 1 16.858 9.230 -12.583 
101 1 4.699 7.146 5.440 
102 1 -8.814 -16.898 -8.496 
103 1 2.086 -13.721 10.718 
104 1 -16.331 16.392 10.654 
105 1 7.957 -17.542 11.752 
106 1 -1.999 -14.200 -6.748 
107 1 13.652 8.966 1.565 
108 1 3.787 -17.341 10.457 
109 1 3.009 -4.197 -16.827 
110 1 12.989 -0.377 7.429 
111 1 17.381 -15.666 -11.345 
112 1 17.818 -9.272 10.671 
113 1 -12.865 7.506 5.449 
114 1 -3.524 -9.592 12.306 
115 1 14.498 5.586 5.216 
116 1 -3.353 -16.070 3.903 
117 1 15.711 14.730 -12.744 
118 1 -10.092 5.441 -1.978 
119 1 -11.562 -1.435 8.701 
120 1 -1.299 5.072 4.193 
121 1 2.327 3.874 -6.064 
122 1 2.891 8.483 1.795 
123 1 -15.939 -10.176 -8.110 
124 1 1.207 15.489 10.324 
125 1 -11.488 -10.275 13.000 
126 1 -4.874 -8.608 15.233 
127 1 17.450 6.754 15.432 
128 1 13.217 1.152 -8.191 
129 1 -12.283 7.972 13.837 
130 1 -2.392 -2.305 11.614 
131 1 9.343 8.599 12.369 
132 1 -5.109 13.082 11.555 
133 1 -1.106 -11.986 15.561 
134 1 -2.765 -5.192 2.617 
135 1 -2.725 0.444 0.071 
136 1 -16.391 4.994 6.837 
137 1 16.957 8.635 3.538 
138 1 -11.412 3.726 5.044 
139 1 -6.863 -1.392 1.419 
140 1 0.611 11.370 12.987 
141 1 -4.148 -6.927 -5.331 
142 1 -14.144 -2.119 -2.040 
143 1 -1.490 12.807 10.546 
144 1 7.630 6.341 -14.775 
145 1 1.642 16.949 13.385 
146 1 3.831 -10.786 14.015 
147 1 -17.345 12.036 2.965 
148 1 4.235 -17.523 -6.670 
149 1 -3.468 9.634 7.551 
150 1 -4.247 -16.197 -1.075 
151 1 6.649 2.452 -6.027 
152 1 17.790 -2.795 -17.501 
153 1 -3.455 -12.374 -0.897 
154 1 -8.005 -17.336 -3.510 
155 1 6.608 -7.593 -6.196 
156 1 9.521 -13.183 16.180 
157 1 -10.848 12.513 17.074 
158 1 -8.762 4.481 11.163 
159 1 12.706 -10.296 1.909 
160 1 13.812 -8.753 6.969 
161 1 0.187 -5.942 -8.501 
162 1 11.334 -2.047 -10.253 
163 1 12.739 -0.751 -3.235 
164 1 3.279 -8.729 -14.553 
165 1 -0.842 5.669 -10.430 
166 1 5.191 -3.802 16.540 
167 1 -11.226 3.732 8.389 
168 1 12.787 1.014 -13.231 
169 1 -7.278 -11.322 11.518 
170 1 11.333 -9.636 10.502 
171 1 5.274 -5.468 13.651 
172 1 7.523 1.304 -2.103 
173 1 2.703 -0.098 -17.241 
174 1 5.778 -10.865 -3.176 
175 1 14.965 -12.361 -10.602 
176 1 2.328 17.462 -12.082 
177 1 3.639 0.044 13.344 
178 1 -0.152 -17.929 -16.152 
179 1 10.969 -9.870 -11.141 
180 1 -12.397 4.097 12.019 
181 1 0.993 -3.273 14.473 
182 1 -6.452 9.157 10.102 
183 1 10.973 9.984 15.665 
184 1 11.630 -4.017 1.568 
185 1 -2.160 1.424 -7.114 
186 1 16.337 -17.419 -17.434 
187 1 2.824 0.642 -13.394 
188 1 -5.771 3.392 -15.224 
189 1 -1.026 -6.842 -14.302 
190 1 8.787 15.180 -0.228 
191 1 16.739 -1.134 8.858 
192 1 17.014 9.951 11.592 
193 1 -13.035 -13.265 9.621 
194 1 -5.888 17.962 15.959 
195 1 10.131 6.080 6.844 
196 1 6.530 -0.278 -9.224 
197 1 -4.605 6.918 5.303 
198 1 3.016 -2.983 -13.783 
199 1 -8.016 -16.014 -16.860 
200 1 5.991 12.914 -8.380 
ITEM: TIMESTEP
8000
ITEM: NUMBER OF ATOMS
200
ITEM: BOX BOUNDS pp pp pp
-17.980597440828447 17.980597440828447
-17.980597440828447 17.980597440828447
-17.980597440828447 17.980597440828447
ITEM: ATOMS id type x y z
1 1 11.282 15.105 -13.301 
2 1 8.676 5.742 0.552 
3 1 -8.038 12.797 10.312 
4 1 -6.482 15.981 -12.123 
5 1 -8.015 -5.372 -17.933 
6 1 12.235 -7.355 4.476 
7 1 -4.216 -7.073 -0.967 
8 1 0.970 3.200 0.965 
9 1 9.379 -7.568 7.219 
10 1 17.216 -11.588 -13.426 
11 1 -1.091 -1.584 -17.454 
12 1 -4.109 -4.431 17.060 
13 1 12.276 4.588 -11.437 
14 1 7.209 -11.467 4.639 
15 1 -0.167 3.825 -14.232 
16 1 -10.459 15.758 -6.177 
17 1 -5.365 11.742 6.586 
18 1 16.854 -5.246 3.397 
19 1 16.668 3.707 10.175 
20 1 3.570 5.002 -13.116 
21 1 15.184 5.621 -11.053 
22 1 -9.114 -16.110 13.701 
23 1 -7.276 1.144 -7.779 
24 1 15.427 -2.466 -10.763 
25 1 15.533 -8.497 -11.621 
26 1 -13.136 9.347 10.817 
27 1 -14.433 7.038 0.843 
28 1 5.278 -17.186 17.561 
29 1 -14.962 13.255 15.741 
30 1 -4.128 -14.732 12.691 
31 1 -4.699 -16.232 -10.245 
32 1 -5.366 -15.229 8.950 
33 1 -11.429 -8.162 7.744 
34 1 2.475 -15.341 14.687 
35 1 10.068 2.597 1.696 
36 1 -2.618 -0.745 -11.732 
37 1 -16.439 -1.945 2.257 
38 1 -9.306 3.447 15.473 
39 1 13.802 -4.082 7.920 
40 1 11.515 -8.948 -16.443 
41 1 6.126 -8.079 17.928 
42 1 0.885 13.564 3.106 
43 1 -3.983 -0.731 -17.620 
44 1 11.655 11.130 7.420 
45 1 -12.993 11.344 6.964 
46 1 8.860 -1.761 -6.163 
47 1 7.061 -10.825 -9.189 
48 1 15.607 16.002 4.936 
49 1 -17.388 -1.441 -11.870 
50 1 -1.596 -17.758 -11.141 
51 1 0.477 -7.901 3.443 
52 1 -16.083 -4.584 8.325 
53 1 1.402 -12.803 -17.237 
54 1 10.319 -15.570 -5.130 
55 1 6.941 -2.917 -15.768 
56 1 -2.964 15.708 8.600 
57 1 -2.184 1.328 -14.521 
58 1 7.099 -3.339 -11.014 
59 1 13.770 -8.504 13.581 
60 1 -7.651 -4.038 10.348 
61 1 15.905 -2.244 13.630 
62 1 13.435 -0.865 1.611 
63 1 -3.967 -16.225 -17.867 
64 1 -3.364 -9.701 -15.384 
65 1 -16.218 1.993 7.402 
66 1 -8.196 3.575 -5.144 
67 1 2.752 -3.411 -10.687 
68 1 -10.457 -11.726 9.982 
69 1 3.450 -6.447 -1.301 
70 1 -10.476 11.202 -5.266 
71 1 -8.704 -14.215 -6.037 
72 1 14.731 13.016 -8.221 
73 1 -5.069 -11.791 17.732 
74 1 -6.469 17.176 -6.264 
75 1 16.247 2.693 -13.062 
76 1 16.818 10.484 -3.674 
77 1 17.858 1.128 15.711 
78 1 -2.073 14.852 14.405 
79 1 -17.100 -14.800 4.044 
80 1 -17.407 4.835 -10.932 
81 1 -7.308 -7.467 11.467 
82 1 0.387 2.805 11.792 
83 1 3.802 -12.247 7.521 
84 1 -4.513 8.212 16.447 
85 1 -0.738 11.043 -3.464 
86 1 -2.877 8.649 11.915 
87 1 -6.372 -5.152 3.512 
88 1 6.819 17.421 -3.981 
89 1 8.001 17.519 4.508 
90 1 6.424 -7.315 -10.790 
91 1 6.037 7.568 -6.339 
92 1 12.737 6.071 14.006 
93 1 7.491 -0.375 1.891 
94 1 -11.926 13.452 -14.935 
95 1 -7.644 10.570 -12.368 
96 1 17.145 -13.104 -7.500 
97 1 -0.778 -10.630 10.094 
98 1 2.621 -0.948 -4.848 
99 1 -7.877 5.558 3.180 
100 1 17.228 10.100 -11.820 
101 1 4.074 8.419 5.181 
102 1 -8.864 -17.443 -8.530 
103 1 1.975 -14.319 10.829 
104 1 -15.852 17.477 10.375 
105 1 8.789 -16.588 10.468 
106 1 -2.494 -13.264 -7.379 
107 1 13.352 9.572 1.611 
108 1 4.608 17.938 10.044 
109 1 2.893 -4.991 -16.435 
110 1 11.476 -0.114 8.120 
111 1 17.717 -15.412 -9.884 
112 1 -17.001 -11.000 10.981 
113 1 -12.639 8.057 5.787 
114 1 -3.256 -10.214 12.158 
115 1 13.686 3.531 6.424 
116 1 -3.602 -16.494 5.165 
117 1 15.036 15.127 -11.761 
118 1 -10.457 5.606 -2.255 
119 1 -12.206 -1.315 7.412 
120 1 -1.957 4.547 2.363 
121 1 0.985 4.526 -5.702 
122 1 2.963 8.173 1.305 
123 1 -15.189 -10.745 -7.499 
124 1 1.878 14.888 9.603 
125 1 -12.237 -11.001 12.814 
126 1 -4.841 -8.273 15.018 
127 1 17.576 7.447 14.929 
128 1 12.484 1.676 -8.972 
129 1 -11.884 7.072 14.325 
130 1 -1.602 -2.360 12.800 
131 1 9.279 7.710 11.697 
132 1 -4.763 13.202 10.895 
133 1 -2.742 -13.626 15.451 
134 1 -3.486 -6.727 2.867 
135 1 -2.834 0.230 -0.659 
136 1 -15.787 5.654 7.279 
137 1 17.312 7.021 4.025 
138 1 -10.901 3.738 4.686 
139 1 -5.963 -1.898 0.652 
140 1 1.468 11.748 13.579 
141 1 -4.095 -6.698 -5.410 
142 1 -13.808 -2.308 -1.776 
143 1 -0.939 12.849 10.002 
144 1 6.508 7.268 -13.392 
145 1 2.115 15.933 12.884 
146 1 3.323 -10.449 13.462 
147 1 17.765 11.167 2.724 
148 1 3.881 -17.494 -5.861 
149 1 -3.350 8.725 7.068 
150 1 -4.064 -16.855 -1.216 
151 1 6.311 3.246 -5.710 
152 1 -16.808 -2.715 17.592 
153 1 -3.860 -12.474 -1.535 
154 1 -7.031 -17.965 -2.828 
155 1 5.503 -7.820 -6.486 
156 1 9.776 -13.157 14.508 
157 1 -10.185 11.438 17.268 
158 1 -7.395 4.484 10.957 
159 1 12.273 -8.847 1.559 
160 1 14.396 -9.534 7.952 
161 1 -0.015 -5.629 -7.507 
162 1 11.839 -3.034 -10.738 
163 1 12.596 -0.478 -2.456 
164 1 3.487 -7.907 -13.801 
165 1 -0.726 5.462 -9.289 
166 1 4.389 -5.125 16.129 
167 1 -12.053 4.020 8.018 
168 1 13.599 0.531 -12.516 
169 1 -7.342 -10.380 9.686 
170 1 12.181 -10.225 10.461 
171 1 4.665 -6.700 13.101 
172 1 7.334 2.340 -2.188 
173 1 3.496 0.641 -17.169 
174 1 5.309 -10.861 -3.327 
175 1 15.743 -11.749 -10.452 
176 1 2.482 17.674 -12.771 
177 1 5.095 -0.863 12.890 
178 1 -1.093 -17.979 -16.499 
179 1 10.885 -8.506 -10.360 
180 1 -12.407 5.179 11.372 
181 1 1.309 -3.917 14.832 
182 1 -6.107 8.913 10.201 
183 1 9.574 9.619 15.886 
184 1 11.282 -4.375 1.983 
185 1 -1.603 0.931 -5.636 
186 1 16.190 17.616 -16.763 
187 1 2.501 0.409 -12.833 
188 1 -5.960 3.361 -15.342 
189 1 -0.139 -8.556 -13.887 
190 1 7.920 16.098 -0.680 
191 1 16.592 -1.514 9.305 
192 1 16.825 9.057 8.864 
193 1 -13.137 -13.191 10.616 
194 1 -6.386 17.348 16.629 
195 1 8.476 5.134 5.483 
196 1 6.300 0.497 -10.709 
197 1 -5.243 6.858 5.183 
198 1 3.014 -2.517 -14.548 
199 1 -8.044 -15.201 -17.343 
200 1 5.934 12.983 -8.540 
ITEM: TIMESTEP
9000
ITEM: NUMBER OF ATOMS
200
ITEM: BOX BOUNDS pp pp pp
-17.980597440828447 17.980597440828447
-17.980597440828447 17.980597440828447
-17.980597440828447 17.980597440828447
ITEM: ATOMS id type x y z
1 1 10.480 15.953 -13.917 
2 1 7.232 6.979 0.488 
3 1 -8.388 12.640 10.593 
4 1 -8.848 16.277 -12.088 
5 1 -8.495 -5.466 17.038 
6 1 12.212 -7.936 4.574 
7 1 -4.213 -6.221 -0.343 
8 1 0.444 3.462 -0.470 
9 1 9.080 -8.567 8.002 
10 1 16.562 -12.909 -13.546 
11 1 -0.920 -3.476 -16.876 
12 1 -3.068 -4.856 17.060 
13 1 11.636 4.703 -11.028 
14 1 7.223 -11.151 4.283 
15 1 0.505 4.021 -13.355 
16 1 -11.054 16.185 -7.452 
17 1 -6.397 11.558 6.829 
18 1 17.029 -5.648 3.180 
19 1 17.187 3.400 10.238 
20 1 4.234 5.020 -12.742 
21 1 15.017 5.779 -11.215 
22 1 -10.721 -15.646 14.035 
23 1 -7.191 1.530 -7.393 
24 1 15.082 -2.940 -10.531 
25 1 15.909 -8.828 -11.376 
26 1 -13.197 8.852 10.108 
27 1 -14.786 7.760 1.043 
28 1 5.330 -15.856 -17.614 
29 1 -15.678 13.646 16.842 
30 1 -3.334 -14.108 12.082 
31 1 -5.429 -16.018 -10.851 
32 1 -4.977 -14.748 8.862 
33 1 -9.950 -8.659 8.312 
34 1 2.563 -16.562 14.772 
35 1 9.532 2.237 2.816 
36 1 -3.419 -1.043 -12.563 
37 1 -17.886 -2.261 1.629 
38 1 -8.477 4.418 15.966 
39 1 13.965 -4.077 7.807 
40 1 10.876 -10.148 -16.757 
41 1 6.012 -7.686 -17.317 
42 1 0.643 13.093 2.727 
43 1 -4.097 0.486 -17.759 
44 1 11.631 10.862 6.302 
45 1 -12.272 11.240 7.587 
46 1 8.864 -1.416 -5.003 
47 1 6.813 -10.960 -8.896 
48 1 16.741 16.567 5.151 
49 1 -17.634 -1.648 -11.734 
50 1 -2.122 17.918 -11.122 
51 1 1.347 -8.237 2.326 
52 1 -15.777 -5.089 8.986 
53 1 1.556 -14.151 -17.908 
54 1 10.583 -16.769 -4.621 
55 1 6.082 -2.389 -17.809 
56 1 -3.165 15.676 7.594 
57 1 -2.348 2.441 -13.610 
58 1 7.659 -2.956 -11.015 
59 1 13.858 -9.299 13.624 
60 1 -8.492 -4.103 10.181 
61 1 16.162 -2.153 13.802 
62 1 15.020 -0.822 1.980 
63 1 -3.569 -15.945 -17.660 
64 1 -3.943 -9.003 -14.680 
65 1 -15.950 2.905 6.522 
66 1 -8.193 3.792 -4.647 
67 1 1.910 -3.326 -10.809 
68 1 -10.016 -11.471 10.469 
69 1 3.455 -7.064 -0.672 
70 1 -9.630 11.430 -4.889 
71 1 -9.401 -15.543 -5.413 
72 1 15.289 11.636 -9.191 
73 1 -5.768 -11.593 17.700 
74 1 -5.952 16.676 -5.443 
75 1 15.535 2.222 -14.895 
76 1 17.173 11.037 -2.974 
77 1 -17.685 1.228 16.412 
78 1 -2.210 14.719 13.493 
79 1 -16.497 -13.883 3.496 
80 1 -16.762 5.484 -10.312 
81 1 -6.852 -7.078 11.601 
82 1 1.021 1.627 12.054 
83 1 3.835 -12.699 7.405 
84 1 -3.338 8.227 15.548 
85 1 -1.760 10.815 -2.638 
86 1 -3.182 7.545 10.775 
87 1 -6.852 -4.814 3.465 
88 1 6.400 17.730 -3.657 
89 1 7.464 16.463 4.959 
90 1 5.834 -7.536 -10.457 
91 1 6.009 6.907 -5.633 
92 1 12.590 5.589 14.221 
93 1 7.173 -0.544 2.221 
94 1 -12.932 13.486 -12.991 
95 1 -7.709 10.084 -12.770 
96 1 17.487 -12.662 -7.706 
97 1 -1.711 -11.378 8.984 
98 1 2.237 -1.125 -4.808 
99 1 -7.244 5.634 3.076 
100 1 -17.165 9.667 -11.538 
101 1 4.045 8.204 6.050 
102 1 -8.541 -17.340 -9.510 
103 1 1.128 -13.723 10.836 
104 1 -17.846 -17.644 10.147 
105 1 8.557 -15.595 11.044 
106 1 -2.642 -13.583 -8.024 
107 1 14.454 9.361 1.855 
108 1 4.067 -17.070 11.089 
109 1 2.733 -5.778 -16.175 
110 1 11.855 -0.833 6.558 
111 1 -16.812 -17.175 -10.107 
112 1 -17.154 -11.564 9.710 
113 1 -12.734 7.722 5.935 
114 1 -3.141 -9.937 13.055 
115 1 14.230 2.059 6.862 
116 1 -4.345 -16.903 5.253 
117 1 14.598 15.732 -11.572 
118 1 -9.534 5.758 -1.842 
119 1 -10.827 -1.267 8.545 
120 1 -2.440 4.056 1.518 
121 1 0.818 4.108 -6.292 
122 1 3.763 8.438 1.202 
123 1 -15.137 -9.992 -5.518 
124 1 1.774 14.346 9.338 
125 1 -12.517 -10.677 13.499 
126 1 -4.871 -8.084 15.289 
127 1 17.118 8.399 15.600 
128 1 12.733 1.600 -9.654 
129 1 -10.844 7.006 13.573 
130 1 -1.873 -2.780 13.854 
131 1 9.747 6.772 11.815 
132 1 -4.652 14.315 10.487 
133 1 -2.512 -12.267 15.253 
134 1 -2.521 -6.953 2.377 
135 1 -4.877 -0.001 -1.908 
136 1 -16.915 5.994 6.614 
137 1 17.092 7.374 3.893 
138 1 -10.679 4.548 4.693 
139 1 -5.657 -2.761 0.539 
140 1 1.491 12.361 14.767 
141 1 -5.255 -6.996 -4.146 
142 1 -14.183 -2.326 -0.851 
143 1 -1.000 12.425 9.875 
144 1 7.980 7.235 -13.363 
145 1 1.845 15.977 12.363 
146 1 2.487 -10.181 13.170 
147 1 17.325 11.187 2.678 
148 1 3.372 17.053 -6.356 
149 1 -3.786 9.244 7.385 
150 1 -3.520 -17.072 -2.023 
151 1 6.770 2.736 -5.466 
152 1 -16.631 -2.315 17.526 
153 1 -4.413 -11.752 -0.616 
154 1 -6.830 17.782 -2.668 
155 1 5.145 -7.434 -6.471 
156 1 9.644 -13.604 14.294 
157 1 -10.019 12.251 17.544 
158 1 -7.346 4.158 11.292 
159 1 11.751 -8.814 1.084 
160 1 15.250 -9.139 7.903 
161 1 -0.128 -5.758 -8.038 
162 1 10.518 -3.996 -9.992 
163 1 13.873 -1.586 -1.946 
164 1 3.598 -8.343 -13.200 
165 1 0.032 5.162 -9.818 
166 1 4.294 -5.124 16.610 
167 1 -12.693 4.166 8.179 
168 1 13.149 -0.471 -12.274 
169 1 -5.875 -9.920 8.642 
170 1 11.637 -10.749 10.781 
171 1 4.044 -6.043 12.688 
172 1 7.766 1.214 -2.130 
173 1 2.029 1.090 -16.532 
174 1 4.565 -11.019 -2.969 
175 1 14.567 -12.462 -10.653 
176 1 1.756 -17.231 -12.283 
177 1 5.646 -2.238 12.785 
178 1 -1.754 17.418 -16.126 
179 1 11.120 -8.600 -9.686 
180 1 -11.572 4.251 11.645 
181 1 1.239 -4.212 14.400 
182 1 -5.769 10.124 10.601 
183 1 10.473 8.808 16.875 
184 1 10.842 -3.937 1.893 
185 1 -1.171 1.585 -7.582 
186 1 14.995 -17.795 -17.276 
187 1 2.020 0.395 -12.492 
188 1 -5.309 1.957 -14.689 
189 1 -0.849 -9.132 -15.374 
190 1 8.418 16.847 -0.821 
191 1 16.519 -1.525 9.318 
192 1 16.317 9.271 8.094 
193 1 -13.063 -13.468 11.561 
194 1 -7.001 -17.805 17.958 
195 1 6.702 3.952 7.193 
196 1 5.848 0.546 -10.130 
197 1 -5.329 8.082 4.994 
198 1 3.098 -2.467 -14.898 
199 1 -7.662 -13.692 -15.686 
200 1 6.489 12.684 -7.267 
ITEM: TIMESTEP
10000
ITEM: NUMBER OF ATOMS
200
ITEM: BOX BOUNDS pp pp pp
-17.980597440828447 17.980597440828447
-17.980597440828447 17.980597440828447
-17.980597440828447 17.980597440828447
ITEM: ATOMS id type x y z
1 1 10.892 16.319 -14.488 
2 1 8.603 8.808 -0.862 
3 1 -7.888 13.114 9.683 
4 1 -9.855 16.609 -11.154 
5 1 -9.664 -5.478 16.750 
6 1 12.410 -7.671 4.561 
7 1 -4.082 -6.186 -0.507 
8 1 0.843 3.288 0.438 
9 1 9.558 -9.260 7.517 
10 1 17.482 -11.805 -12.817 
11 1 -0.341 -4.989 -17.267 
12 1 -3.258 -4.762 17.068 
13 1 11.481 4.448 -10.471 
14 1 8.990 -11.059 4.787 
15 1 1.158 4.330 -12.947 
16 1 -12.488 16.328 -8.663 
17 1 -6.840 10.724 7.064 
18 1 16.078 -6.179 3.196 
19 1 17.750 3.045 8.469 
20 1 3.499 6.665 -10.903 
21 1 15.428 5.222 -10.492 
22 1 -10.390 -15.413 13.609 
23 1 -6.704 1.555 -8.476 
24 1 15.385 -3.943 -10.193 
25 1 15.995 -7.628 -10.532 
26 1 -12.405 8.463 11.022 
27 1 -15.551 8.269 -0.647 
28 1 5.552 -16.127 -17.768 
29 1 -15.140 14.545 15.407 
30 1 -2.461 -14.761 11.227 
31 1 -4.834 -15.797 -9.893 
32 1 -5.736 -14.805 8.644 
33 1 -9.410 -8.243 8.685 
34 1 3.842 -16.263 14.587 
35 1 7.553 3.889 3.415 
36 1 -3.690 0.109 -12.647 
37 1 -17.679 -2.928 2.011 
38 1 -9.452 5.202 16.073 
39 1 14.249 -4.572 7.583 
40 1 11.313 -9.430 -16.587 
41 1 5.856 -8.634 -17.449 
42 1 -0.001 12.876 2.962 
43 1 -4.601 0.097 -17.971 
44 1 11.372 8.716 5.871 
45 1 -12.822 10.727 8.645 
46 1 8.401 -0.781 -4.951 
47 1 8.138 -11.390 -8.215 
48 1 17.882 15.821 3.768 
49 1 -17.749 -1.634 -12.894 
50 1 -0.376 -16.509 -9.160 
51 1 1.483 -8.271 2.911 
52 1 -15.309 -5.481 7.966 
53 1 1.616 -14.791 -17.473 
54 1 10.873 -16.190 -3.702 
55 1 6.330 -2.121 -17.518 
56 1 -3.290 15.950 7.161 
57 1 -2.265 2.834 -13.806 
58 1 7.488 -3.255 -10.956 
59 1 13.766 -8.577 13.797 
60 1 -7.488 -2.850 9.838 
61 1 14.794 -1.570 13.879 
62 1 14.506 -1.691 2.141 
63 1 -3.536 -15.228 17.964 
64 1 -4.636 -9.597 -14.486 
65 1 -16.067 2.752 6.172 
66 1 -9.534 3.271 -5.099 
67 1 3.011 -2.297 -10.271 
68 1 -9.549 -11.688 10.035 
69 1 3.303 -6.855 -0.917 
70 1 -10.517 11.040 -5.400 
71 1 -9.553 -16.488 -4.430 
72 1 13.575 11.584 -8.814 
73 1 -4.090 -12.187 -17.114 
74 1 -6.454 16.666 -6.495 
75 1 17.103 2.682 -14.316 
76 1 16.995 9.429 -2.736 
77 1 -17.835 2.074 16.762 
78 1 -1.470 15.184 14.239 
79 1 -16.115 -12.743 4.555 
80 1 -17.021 5.482 -9.088 
81 1 -5.909 -6.594 10.531 
82 1 1.076 1.314 12.219 
83 1 4.919 -12.546 7.553 
84 1 -2.924 8.747 14.444 
85 1 -1.929 10.639 -3.297 
86 1 -3.260 7.419 11.140 
87 1 -5.222 -4.387 4.190 
88 1 5.704 17.710 -3.889 
89 1 8.205 17.184 5.463 
90 1 6.507 -6.072 -10.118 
91 1 5.070 6.467 -6.609 
92 1 13.693 6.749 15.076 
93 1 6.381 -1.111 2.225 
94 1 -13.255 12.704 -13.649 
95 1 -8.168 10.605 -13.251 
96 1 -17.353 -12.651 -7.628 
97 1 -2.098 -11.264 8.535 
98 1 1.803 -1.553 -4.788 
99 1 -7.196 5.817 2.654 
100 1 -17.279 10.757 -12.251 
101 1 3.841 6.760 5.346 
102 1 -8.198 -17.322 -9.923 
103 1 1.510 -13.324 9.657 
104 1 -16.858 17.686 8.734 
105 1 8.018 -15.370 11.384 
106 1 -3.356 -13.391 -7.434 
107 1 14.531 9.524 2.316 
108 1 5.263 17.521 11.042 
109 1 1.890 -6.969 -16.151 
110 1 12.078 -1.715 5.854 
111 1 -16.539 -16.687 -9.963 
112 1 -17.414 -11.474 8.854 
113 1 -12.615 7.913 6.486 
114 1 -3.740 -10.041 12.238 
115 1 13.725 2.426 6.932 
116 1 -5.492 -16.336 4.678 
117 1 15.339 16.016 -10.790 
118 1 -10.086 6.552 -2.352 
119 1 -10.389 -1.893 8.183 
120 1 -2.535 5.064 2.148 
121 1 0.782 4.488 -6.206 
122 1 4.179 8.800 1.383 
123 1 -15.509 -10.083 -5.528 
124 1 1.201 14.869 9.091 
125 1 -12.863 -10.386 13.034 
126 1 -4.595 -8.653 15.781 
127 1 -17.786 6.855 14.673 
128 1 11.874 0.941 -9.605 
129 1 -9.229 7.297 12.678 
130 1 -2.048 -3.422 13.253 
131 1 10.506 7.261 13.132 
132 1 -4.707 14.597 9.910 
133 1 -2.875 -12.108 15.357 
134 1 -3.232 -7.404 2.979 
135 1 -4.546 0.319 -2.829 
136 1 -16.605 6.696 5.886 
137 1 16.913 6.930 3.390 
138 1 -10.555 3.611 5.239 
139 1 -6.093 -4.026 0.461 
140 1 2.026 11.987 13.834 
141 1 -4.668 -7.439 -5.045 
142 1 -13.941 -1.268 -0.314 
143 1 -2.417 12.200 10.196 
144 1 7.671 7.988 -13.389 
145 1 1.974 16.006 12.664 
146 1 2.543 -11.562 13.771 
147 1 17.694 11.373 1.963 
148 1 3.368 17.456 -6.638 
149 1 -3.452 8.169 7.335 
150 1 -2.313 -17.719 -1.009 
151 1 6.485 2.580 -5.421 
152 1 -15.749 -2.558 17.434 
153 1 -5.422 -11.750 -0.678 
154 1 -7.242 -17.941 -2.329 
155 1 5.665 -7.515 -6.513 
156 1 7.747 -12.821 14.576 
157 1 -10.090 11.981 17.801 
158 1 -6.670 3.503 10.392 
159 1 12.327 -8.745 1.200 
160 1 15.086 -9.778 5.893 
161 1 -0.292 -4.700 -7.919 
162 1 10.773 -3.967 -9.624 
163 1 12.888 -1.542 -3.138 
164 1 3.603 -8.362 -13.703 
165 1 -0.728 5.491 -10.474 
166 1 4.814 -5.443 16.290 
167 1 -12.162 4.263 8.776 
168 1 13.339 -0.403 -12.318 
169 1 -6.299 -10.214 9.162 
170 1 12.118 -9.595 9.651 
171 1 4.111 -5.122 11.804 
172 1 8.135 1.536 -0.938 
173 1 1.728 1.688 -15.520 
174 1 4.933 -10.727 -2.906 
175 1 14.931 -12.372 -9.772 
176 1 1.965 -17.644 -11.670 
177 1 5.565 -1.794 13.112 
178 1 -0.967 17.856 -15.197 
179 1 11.064 -7.454 -8.620 
180 1 -11.545 4.070 12.311 
181 1 0.668 -5.227 14.368 
182 1 -6.011 10.026 10.324 
183 1 9.829 8.632 16.878 
184 1 10.539 -3.790 2.215 
185 1 -0.864 0.733 -6.901 
186 1 16.108 -17.585 17.832 
187 1 2.940 1.239 -12.046 
188 1 -5.351 2.371 -15.452 
189 1 -0.927 -8.832 -15.221 
190 1 9.551 16.884 0.234 
191 1 15.432 -0.710 8.173 
192 1 16.758 9.152 7.041 
193 1 -13.491 -13.313 10.913 
194 1 -7.698 -17.728 17.474 
195 1 5.856 3.812 6.248 
196 1 5.573 0.403 -9.349 
197 1 -6.110 8.326 4.564 
198 1 2.907 -3.137 -15.644 
199 1 -7.691 -12.859 -15.856 
200 1 6.231 12.298 -6.003 
ITEM: TIMESTEP
11000
ITEM: NUMBER OF ATOMS
200
ITEM: BOX BOUNDS pp pp pp
-17.980597440828447 17.980597440828447
-17.980597440828447 17.980597440828447
-17.980597440828447 17.980597440828447
ITEM: ATOMS id type x y z
1 1 9.622 17.231 -14.737 
2 1 7.471 8.903 -1.973 
3 1 -7.991 14.218 8.257 
4 1 -9.625 16.111 -11.981 
5 1 -8.077 -5.452 17.184 
6 1 11.082 -7.291 5.448 
7 1 -3.019 -5.894 -1.797 
8 1 0.839 3.001 0.317 
9 1 8.835 -9.213 7.894 
10 1 -17.979 -12.932 -12.585 
11 1 -0.608 -5.260 17.821 
12 1 -3.393 -4.220 17.110 
13 1 10.258 4.194 -10.127 
14 1 8.384 -12.278 3.997 
15 1 0.490 5.058 -14.009 
16 1 -11.731 16.616 -9.461 
17 1 -7.607 9.785 7.201 
18 1 16.985 -5.381 2.457 
19 1 17.326 2.999 9.059 
20 1 2.260 6.928 -11.593 
21 1 15.526 5.815 -10.119 
22 1 -10.629 -15.154 12.467 
23 1 -6.456 0.614 -8.935 
24 1 16.218 -4.947 -11.018 
25 1 15.715 -8.184 -9.925 
26 1 -12.574 9.543 11.920 
27 1 -15.379 8.219 -0.919 
28 1 5.232 -14.472 -16.544 
29 1 -15.277 14.070 15.791 
30 1 -2.789 -15.507 12.071 
31 1 -4.150 -16.215 -9.156 
32 1 -4.840 -13.929 9.551 
33 1 -9.826 -8.496 8.965 
34 1 2.922 -16.440 14.374 
35 1 7.274 3.038 3.439 
36 1 -4.379 -1.025 -11.814 
37 1 17.967 -1.778 0.834 
38 1 -9.229 4.349 15.810 
39 1 15.005 -4.461 7.640 
40 1 10.173 -10.365 -17.341 
41 1 5.321 -8.689 -16.359 
42 1 1.142 12.326 3.751 
43 1 -4.514 0.417 -17.245 
44 1 10.860 7.498 5.923 
45 1 -12.558 11.549 8.141 
46 1 8.662 -1.093 -5.131 
47 1 8.863 -10.819 -7.666 
48 1 -17.084 15.621 5.415 
49 1 -16.104 -3.425 -13.993 
50 1 -0.722 -16.223 -9.552 
51 1 0.315 -9.321 2.595 
52 1 -14.967 -5.521 7.295 
53 1 1.792 -14.259 -16.896 
54 1 10.580 -15.435 -2.614 
55 1 6.178 -1.313 -16.874 
56 1 -3.478 17.090 6.940 
57 1 -1.719 2.467 -13.189 
58 1 7.297 -2.873 -10.526 
59 1 14.195 -7.158 13.274 
60 1 -7.016 -1.646 10.293 
61 1 15.739 -2.715 12.720 
62 1 14.102 -1.745 0.994 
63 1 -2.835 -15.787 -17.609 
64 1 -6.089 -8.470 -15.805 
65 1 -15.615 2.513 6.590 
66 1 -9.267 3.363 -6.578 
67 1 3.624 -1.713 -11.122 
68 1 -8.997 -12.035 10.187 
69 1 2.792 -7.244 -1.389 
70 1 -10.591 11.053 -5.376 
71 1 -9.182 -17.105 -3.906 
72 1 14.177 10.338 -8.945 
73 1 -4.354 -11.223 -17.652 
74 1 -7.374 15.950 -6.559 
75 1 17.770 4.478 -16.026 
76 1 16.701 9.198 -2.774 
77 1 -17.135 1.286 17.360 
78 1 -2.365 15.354 14.729 
79 1 -14.941 -11.755 4.711 
80 1 -15.969 5.959 -8.016 
81 1 -5.556 -6.236 11.414 
82 1 0.554 0.259 11.675 
83 1 4.829 -12.456 7.568 
84 1 -2.040 10.443 14.285 
85 1 -1.796 10.571 -1.768 
86 1 -2.070 7.541 12.230 
87 1 -5.250 -4.917 4.817 
88 1 6.561 17.793 -3.583 
89 1 7.278 17.072 5.218 
90 1 7.242 -6.831 -10.638 
91 1 5.096 6.782 -6.033 
92 1 13.294 7.096 16.432 
93 1 6.460 -1.166 2.426 
94 1 -13.631 12.398 -13.009 
95 1 -9.660 9.580 -13.385 
96 1 -17.296 -12.996 -6.721 
97 1 -2.464 -11.735 8.321 
98 1 0.844 -1.861 -3.664 
99 1 -7.724 4.989 1.100 
100 1 -17.835 12.001 -12.627 
101 1 5.156 6.288 4.858 
102 1 -7.308 -17.320 -11.544 
103 1 1.804 -12.831 9.231 
104 1 -16.584 -17.925 8.489 
105 1 6.791 -15.354 11.438 
106 1 -2.530 -13.214 -8.642 
107 1 14.491 9.689 2.708 
108 1 5.431 17.444 11.842 
109 1 1.759 -7.061 -15.804 
110 1 12.416 -0.938 7.124 
111 1 -16.915 -17.510 -10.341 
112 1 -17.857 -12.372 8.256 
113 1 -12.989 7.607 5.729 
114 1 -3.403 -10.057 11.270 
115 1 13.704 2.208 7.557 
116 1 -7.386 -14.977 5.143 
117 1 14.302 15.770 -10.633 
118 1 -10.242 5.885 -1.782 
119 1 -10.951 -2.152 8.576 
120 1 -2.603 6.125 1.488 
121 1 1.288 5.244 -7.039 
122 1 5.120 10.408 1.440 
123 1 -16.146 -10.356 -5.036 
124 1 1.620 14.899 8.409 
125 1 -12.984 -9.932 13.762 
126 1 -4.591 -8.537 15.126 
127 1 -17.899 5.517 13.615 
128 1 12.560 1.586 -9.419 
129 1 -8.980 7.586 12.328 
130 1 -2.209 -3.717 12.882 
131 1 9.973 7.525 14.169 
132 1 -4.625 14.922 9.568 
133 1 -2.794 -12.449 15.503 
134 1 -3.858 -8.196 3.800 
135 1 -4.419 0.174 -2.614 
136 1 -16.945 7.474 6.433 
137 1 16.982 6.798 3.219 
138 1 -9.834 4.271 5.240 
139 1 -5.720 -3.165 1.379 
140 1 1.871 11.671 13.217 
141 1 -5.362 -8.168 -5.716 
142 1 -14.222 -1.759 0.337 
143 1 -1.742 12.634 10.674 
144 1 6.555 7.905 -14.788 
145 1 0.780 15.922 12.832 
146 1 2.545 -11.126 12.650 
147 1 -17.478 10.606 1.985 
148 1 3.599 17.242 -6.790 
149 1 -3.913 7.794 7.943 
150 1 -2.309 -17.506 -0.480 
151 1 6.935 2.416 -5.322 
152 1 -15.449 -3.457 17.590 
153 1 -5.218 -12.125 -1.780 
154 1 -7.180 17.026 -2.147 
155 1 5.658 -7.084 -7.028 
156 1 7.445 -13.046 14.126 
157 1 -10.187 11.594 16.177 
158 1 -7.375 2.776 10.895 
159 1 14.225 -9.136 2.221 
160 1 14.632 -11.163 6.935 
161 1 -0.910 -5.239 -6.702 
162 1 10.865 -3.309 -10.132 
163 1 13.404 -1.295 -3.143 
164 1 3.814 -9.441 -12.821 
165 1 -1.220 4.898 -9.923 
166 1 4.814 -6.090 15.821 
167 1 -12.570 4.165 8.137 
168 1 13.553 0.361 -12.800 
169 1 -6.304 -9.384 8.692 
170 1 12.192 -8.398 9.978 
171 1 3.506 -5.424 11.176 
172 1 8.715 1.150 -2.294 
173 1 1.646 1.024 -15.323 
174 1 4.365 -10.025 -3.144 
175 1 14.757 -11.235 -9.074 
176 1 2.043 -17.207 -12.355 
177 1 5.564 -1.881 12.256 
178 1 -1.706 -17.557 -14.151 
179 1 10.660 -6.749 -7.766 
180 1 -12.041 4.672 12.531 
181 1 0.526 -4.684 14.573 
182 1 -6.162 9.929 10.678 
183 1 10.034 8.010 17.928 
184 1 10.365 -3.587 1.643 
185 1 -0.458 0.492 -6.947 
186 1 17.120 -17.106 -16.877 
187 1 1.676 1.418 -11.586 
188 1 -4.427 3.419 -15.517 
189 1 -1.784 -8.779 -15.751 
190 1 9.124 -17.880 -0.350 
191 1 15.624 -1.311 7.934 
192 1 15.978 8.692 7.256 
193 1 -12.841 -12.761 11.043 
194 1 -7.794 17.500 17.473 
195 1 4.820 3.909 8.293 
196 1 6.164 0.337 -8.383 
197 1 -5.562 6.884 4.850 
198 1 3.451 -3.352 -16.110 
199 1 -7.889 -12.990 -17.286 
200 1 5.951 11.900 -6.860 
ITEM: TIMESTEP
12000
ITEM: NUMBER OF ATOMS
200
ITEM: BOX BOUNDS pp pp pp
-17.980597440828447 17.980597440828447
-17.980597440828447 17.980597440828447
-17.980597440828447 17.980597440828447
ITEM: ATOMS id type x y z
1 1 9.615 17.511 -15.113 
2 1 7.772 8.373 -1.608 
3 1 -8.327 14.173 8.913 
4 1 -10.062 15.327 -12.082 
5 1 -8.788 -5.298 16.512 
6 1 11.283 -6.634 5.410 
7 1 -2.556 -4.439 -1.357 
8 1 0.326 2.730 0.772 
9 1 7.352 -8.038 7.988 
10 1 17.472 -12.277 -13.236 
11 1 -0.972 -6.037 17.403 
12 1 -3.947 -4.438 17.470 
13 1 10.189 4.180 -9.869 
14 1 8.898 -13.070 5.431 
15 1 1.040 4.456 -15.063 
16 1 -12.120 15.923 -8.570 
17 1 -7.257 10.351 6.162 
18 1 15.659 -5.421 2.335 
19 1 16.970 2.085 9.544 
20 1 2.172 6.317 -11.724 
21 1 15.830 5.733 -9.728 
22 1 -8.925 -15.290 12.927 
23 1 -6.945 0.677 -8.858 
24 1 16.132 -4.807 -10.800 
25 1 16.190 -7.950 -9.733 
26 1 -12.821 10.132 11.867 
27 1 -16.219 8.082 -0.077 
28 1 5.423 -14.675 -15.827 
29 1 -14.721 13.115 15.612 
30 1 -2.095 -15.000 12.193 
31 1 -3.915 -15.864 -8.055 
32 1 -5.027 -13.407 9.746 
33 1 -9.103 -6.788 9.226 
34 1 2.629 -17.740 15.449 
35 1 6.500 3.611 4.175 
36 1 -4.234 -1.543 -11.256 
37 1 -17.878 -3.057 0.829 
38 1 -9.722 3.629 16.402 
39 1 14.511 -4.004 7.695 
40 1 10.083 -9.402 -15.722 
41 1 5.054 -9.451 -17.234 
42 1 0.621 12.563 4.783 
43 1 -4.207 -0.850 17.914 
44 1 10.469 7.234 5.620 
45 1 -13.064 11.636 7.718 
46 1 8.632 -1.446 -5.339 
47 1 8.609 -10.813 -7.568 
48 1 -15.782 15.257 4.618 
49 1 -15.324 -4.001 -13.059 
50 1 -0.284 -15.460 -9.707 
51 1 -0.159 -9.376 3.127 
52 1 -14.367 -5.382 7.656 
53 1 0.661 -14.418 -16.471 
54 1 9.696 -14.635 -0.735 
55 1 6.789 -1.432 -16.364 
56 1 -4.905 17.861 7.008 
57 1 -1.434 1.780 -13.528 
58 1 8.297 -2.089 -11.085 
59 1 12.991 -8.098 13.575 
60 1 -6.566 -1.745 11.094 
61 1 15.811 -2.584 11.658 
62 1 14.311 -1.199 0.802 
63 1 -3.558 -17.074 -17.164 
64 1 -5.684 -7.345 -15.388 
65 1 -15.641 1.265 5.108 
66 1 -8.504 3.955 -7.440 
67 1 4.013 -1.532 -11.907 
68 1 -8.521 -12.288 9.645 
69 1 3.222 -6.291 -0.630 
70 1 -10.651 11.613 -6.082 
71 1 -9.788 -17.704 -4.124 
72 1 14.071 10.608 -9.040 
73 1 -4.839 -11.035 -17.801 
74 1 -7.901 16.259 -6.239 
75 1 -17.589 4.932 -15.367 
76 1 15.233 9.700 -2.764 
77 1 -17.333 1.278 -17.237 
78 1 -2.347 14.064 14.597 
79 1 -13.790 -12.160 6.106 
80 1 -16.508 4.816 -8.076 
81 1 -5.988 -5.954 10.737 
82 1 0.933 -0.939 11.546 
83 1 6.056 -13.503 8.724 
84 1 -1.618 10.481 15.169 
85 1 -1.830 10.362 -2.467 
86 1 -1.924 6.762 12.031 
87 1 -5.334 -5.571 3.926 
88 1 7.242 17.938 -3.768 
89 1 6.071 15.396 6.007 
90 1 6.980 -7.004 -10.715 
91 1 6.329 7.388 -5.659 
92 1 12.633 6.902 16.730 
93 1 6.751 -0.713 2.131 
94 1 -12.859 12.127 -12.529 
95 1 -9.695 10.511 -14.366 
96 1 17.408 -14.578 -7.426 
97 1 -2.144 -11.961 8.634 
98 1 -0.226 -1.635 -3.688 
99 1 -6.998 4.773 1.460 
100 1 -17.836 12.788 -12.719 
101 1 6.091 7.445 3.593 
102 1 -6.671 -17.188 -12.219 
103 1 1.344 -13.071 9.021 
104 1 -17.731 17.308 8.481 
105 1 8.026 -16.032 11.179 
106 1 -3.381 -11.876 -9.533 
107 1 13.770 9.768 3.835 
108 1 5.210 16.294 11.490 
109 1 1.108 -7.864 -15.727 
110 1 12.876 -0.746 7.395 
111 1 -17.323 -16.747 -10.906 
112 1 -17.851 -12.576 8.015 
113 1 -12.492 7.149 5.454 
114 1 -3.956 -10.515 11.870 
115 1 13.382 3.186 7.286 
116 1 -7.634 -14.820 4.577 
117 1 13.182 15.817 -10.515 
118 1 -10.246 6.161 -2.316 
119 1 -11.390 -1.519 8.220 
120 1 -2.461 5.865 1.234 
121 1 1.954 4.065 -7.046 
122 1 6.286 10.391 1.700 
123 1 -17.118 -11.018 -5.436 
124 1 0.812 14.613 8.956 
125 1 -12.829 -9.651 14.283 
126 1 -5.989 -8.867 15.489 
127 1 -17.806 4.820 12.959 
128 1 12.540 1.841 -9.841 
129 1 -9.708 8.024 13.169 
130 1 -2.086 -3.919 12.375 
131 1 8.813 7.924 13.821 
132 1 -5.110 14.694 9.774 
133 1 -3.470 -12.682 15.774 
134 1 -4.681 -9.173 4.182 
135 1 -3.900 -0.162 -2.652 
136 1 -16.672 6.845 5.640 
137 1 17.365 7.219 2.749 
138 1 -9.732 4.149 5.209 
139 1 -4.848 -3.785 1.117 
140 1 3.577 11.051 13.920 
141 1 -5.343 -8.270 -6.706 
142 1 -15.039 -0.868 0.223 
143 1 -2.170 11.372 10.473 
144 1 8.213 7.513 -14.589 
145 1 0.731 15.339 13.728 
146 1 2.298 -11.051 11.698 
147 1 -17.579 10.845 2.320 
148 1 4.136 -17.877 -7.196 
149 1 -3.843 7.403 6.975 
150 1 -2.796 17.413 -0.337 
151 1 9.187 3.331 -5.439 
152 1 -16.433 -2.176 17.066 
153 1 -4.917 -12.063 -0.963 
154 1 -6.287 17.870 -1.917 
155 1 5.213 -8.815 -7.950 
156 1 7.096 -13.878 13.844 
157 1 -9.434 11.164 16.639 
158 1 -7.942 3.547 9.928 
159 1 14.884 -8.963 2.338 
160 1 13.862 -11.409 7.534 
161 1 -0.382 -5.074 -5.150 
162 1 10.688 -4.339 -10.765 
163 1 13.742 -1.638 -4.285 
164 1 4.119 -7.505 -13.015 
165 1 -1.416 5.440 -10.800 
166 1 3.924 -6.222 16.537 
167 1 -12.894 4.375 8.942 
168 1 12.591 0.378 -13.561 
169 1 -5.958 -9.145 8.768 
170 1 13.442 -8.741 9.596 
171 1 2.987 -4.434 10.802 
172 1 8.700 1.895 -2.304 
173 1 1.187 1.451 -16.095 
174 1 4.556 -9.390 -4.281 
175 1 15.406 -11.959 -9.490 
176 1 2.566 17.839 -11.629 
177 1 4.928 -2.404 13.535 
178 1 -1.131 -17.793 -13.621 
179 1 9.456 -5.881 -7.696 
180 1 -12.171 4.757 12.489 
181 1 0.503 -4.397 14.244 
182 1 -6.356 9.738 11.015 
183 1 8.882 7.728 17.842 
184 1 9.697 -2.586 1.832 
185 1 -1.157 0.416 -7.114 
186 1 -17.771 -16.752 -17.386 
187 1 2.515 1.811 -10.950 
188 1 -2.992 3.286 -15.962 
189 1 -1.602 -9.492 -16.023 
190 1 9.276 17.181 -0.860 
191 1 16.969 -1.701 7.370 
192 1 16.165 8.092 7.622 
193 1 -12.978 -12.864 11.833 
194 1 -7.705 17.409 -17.016 
195 1 4.105 3.083 7.462 
196 1 6.406 0.376 -9.830 
197 1 -6.521 7.351 4.805 
198 1 2.180 -4.416 -16.100 
199 1 -7.833 -12.624 -16.335 
200 1 6.422 12.865 -7.456 
ITEM: TIMESTEP
13000
ITEM: NUMBER OF ATOMS
200
ITEM: BOX BOUNDS pp pp pp
-17.980597440828447 17.980597440828447
-17.980597440828447 17.980597440828447
-17.980597440828447 17.980597440828447
ITEM: ATOMS id type x y z
1 1 8.235 -17.175 -14.785 
2 1 8.378 9.146 -1.485 
3 1 -8.246 15.119 8.839 
4 1 -9.273 17.003 -11.862 
5 1 -9.200 -4.930 17.145 
6 1 11.249 -7.191 4.492 
7 1 0.112 -3.810 -1.118 
8 1 0.346 2.878 1.535 
9 1 7.906 -6.980 8.841 
10 1 17.654 -12.871 -12.193 
11 1 -0.835 -4.905 17.366 
12 1 -4.288 -5.307 17.147 
13 1 10.005 4.490 -10.829 
14 1 9.093 -12.419 5.269 
15 1 1.481 5.103 -14.866 
16 1 -12.623 14.048 -9.231 
17 1 -7.375 9.873 6.865 
18 1 14.951 -4.792 1.799 
19 1 16.794 2.416 9.102 
20 1 1.629 6.113 -11.717 
21 1 16.558 4.046 -10.354 
22 1 -9.776 -15.358 12.083 
23 1 -6.899 0.794 -9.147 
24 1 17.284 -4.603 -10.721 
25 1 16.466 -7.845 -9.168 
26 1 -11.877 10.001 12.087 
27 1 -14.537 9.573 -1.470 
28 1 4.990 -14.193 -16.166 
29 1 -15.184 13.612 16.066 
30 1 -1.969 -15.666 12.530 
31 1 -4.352 -15.226 -9.322 
32 1 -5.688 -13.328 9.211 
33 1 -9.723 -6.359 8.984 
34 1 3.646 -17.218 15.847 
35 1 7.357 3.892 3.908 
36 1 -3.833 -1.204 -11.195 
37 1 17.274 -2.532 1.176 
38 1 -8.704 3.322 16.787 
39 1 14.704 -3.855 7.816 
40 1 9.820 -8.537 -15.260 
41 1 5.836 -8.972 -17.460 
42 1 -0.079 11.931 5.212 
43 1 -4.482 -0.275 17.730 
44 1 11.592 6.220 4.550 
45 1 -12.547 11.361 7.649 
46 1 9.469 -1.818 -5.046 
47 1 7.920 -10.601 -7.067 
48 1 -16.490 15.514 5.158 
49 1 -15.915 -2.525 -12.630 
50 1 -0.160 -15.808 -10.105 
51 1 -1.527 -8.601 2.162 
52 1 -13.743 -5.240 7.006 
53 1 1.385 -14.600 -16.938 
54 1 9.581 -14.098 -0.745 
55 1 6.374 -1.933 -15.644 
56 1 -5.591 16.727 7.593 
57 1 -2.535 1.519 -12.769 
58 1 7.760 -2.424 -11.279 
59 1 12.952 -8.789 12.413 
60 1 -7.380 -2.390 10.684 
61 1 16.328 -2.014 11.664 
62 1 14.071 -1.817 0.663 
63 1 -4.367 -16.625 -17.371 
64 1 -6.353 -7.226 -14.939 
65 1 -15.201 2.090 6.112 
66 1 -6.947 4.627 -7.149 
67 1 3.751 -1.627 -11.507 
68 1 -10.720 -10.986 9.657 
69 1 3.083 -5.501 -0.038 
70 1 -10.642 12.395 -4.471 
71 1 -8.909 -16.305 -4.400 
72 1 14.604 10.716 -9.509 
73 1 -5.604 -10.435 -17.775 
74 1 -7.361 16.066 -5.573 
75 1 17.339 5.308 -15.970 
76 1 14.236 9.434 -3.080 
77 1 -17.432 1.078 17.470 
78 1 -2.399 13.876 12.600 
79 1 -13.245 -11.941 6.861 
80 1 -16.341 4.678 -8.871 
81 1 -5.109 -6.136 10.584 
82 1 -0.348 -1.099 12.407 
83 1 6.198 -13.268 8.472 
84 1 -1.527 11.042 14.861 
85 1 -0.670 9.760 -1.597 
86 1 -3.513 7.835 12.376 
87 1 -6.020 -5.823 3.186 
88 1 7.955 -16.930 -4.467 
89 1 5.952 15.253 6.020 
90 1 8.751 -7.172 -12.123 
91 1 6.520 7.330 -5.842 
92 1 12.513 7.015 16.739 
93 1 6.948 0.060 2.269 
94 1 -12.753 12.612 -12.398 
95 1 -9.342 9.841 -14.752 
96 1 -17.568 -13.737 -8.609 
97 1 -2.619 -12.381 7.027 
98 1 0.440 -1.150 -3.423 
99 1 -7.051 5.250 2.082 
100 1 -17.587 12.575 -13.051 
101 1 6.195 7.039 4.037 
102 1 -6.863 -16.055 -13.668 
103 1 0.704 -13.316 8.907 
104 1 16.792 17.766 8.610 
105 1 7.398 -15.833 10.846 
106 1 -3.590 -11.953 -9.559 
107 1 13.607 10.055 3.716 
108 1 5.629 17.196 10.105 
109 1 1.346 -7.379 -16.855 
110 1 12.217 -1.389 7.168 
111 1 17.911 -16.449 -10.719 
112 1 -17.887 -12.892 7.960 
113 1 -11.255 7.909 5.372 
114 1 -3.415 -10.011 12.203 
115 1 13.774 3.990 7.950 
116 1 -7.840 -14.538 4.589 
117 1 13.962 15.851 -10.949 
118 1 -9.442 6.067 -2.321 
119 1 -11.414 -1.968 7.629 
120 1 -2.174 5.705 2.131 
121 1 2.116 3.651 -7.085 
122 1 6.346 10.900 2.496 
123 1 17.873 -10.195 -6.109 
124 1 0.680 13.647 8.590 
125 1 -13.139 -10.257 14.198 
126 1 -5.327 -8.145 14.818 
127 1 -16.283 4.958 13.148 
128 1 13.155 1.182 -10.294 
129 1 -9.199 8.589 13.260 
130 1 -2.675 -4.850 13.034 
131 1 9.285 6.884 13.689 
132 1 -4.725 13.501 8.769 
133 1 -3.008 -11.834 15.726 
134 1 -5.872 -9.625 4.406 
135 1 -3.242 0.133 -2.289 
136 1 -16.162 6.928 6.726 
137 1 17.870 5.989 3.677 
138 1 -10.145 4.368 5.940 
139 1 -4.440 -3.445 0.271 
140 1 3.649 10.361 13.946 
141 1 -6.222 -10.089 -7.530 
142 1 -14.284 -0.420 0.421 
143 1 -1.834 10.699 9.881 
144 1 8.743 6.665 -15.486 
145 1 -0.399 16.814 11.460 
146 1 1.652 -9.945 10.907 
147 1 -16.674 10.664 1.764 
148 1 4.361 17.692 -8.427 
149 1 -4.011 7.416 7.546 
150 1 -4.094 17.584 -0.693 
151 1 8.819 2.619 -5.233 
152 1 -15.711 -2.947 16.546 
153 1 -5.094 -12.219 -0.651 
154 1 -7.167 -17.465 -1.811 
155 1 6.166 -7.664 -6.832 
156 1 7.024 -13.629 13.264 
157 1 -10.051 9.804 16.149 
158 1 -6.482 3.409 10.908 
159 1 16.128 -9.665 2.057 
160 1 12.998 -11.056 7.674 
161 1 -1.575 -5.135 -5.826 
162 1 10.490 -4.039 -9.828 
163 1 13.996 -1.956 -4.760 
164 1 4.391 -7.152 -13.323 
165 1 -1.755 4.307 -9.988 
166 1 4.111 -5.572 17.049 
167 1 -12.997 5.201 7.699 
168 1 11.898 1.310 -14.383 
169 1 -7.098 -9.056 8.452 
170 1 13.222 -7.568 9.313 
171 1 3.695 -6.270 10.144 
172 1 8.982 1.123 -1.896 
173 1 1.516 1.775 -16.314 
174 1 4.254 -9.432 -3.969 
175 1 14.332 -11.793 -9.660 
176 1 2.408 17.867 -11.775 
177 1 4.795 -2.414 13.461 
178 1 -1.265 17.138 -12.732 
179 1 9.253 -6.733 -5.816 
180 1 -12.804 4.895 13.587 
181 1 1.260 -5.595 14.642 
182 1 -6.161 8.861 10.662 
183 1 8.250 8.975 -17.765 
184 1 10.080 -3.826 2.075 
185 1 -1.193 0.808 -7.951 
186 1 -17.011 -16.145 -17.666 
187 1 2.219 1.584 -11.004 
188 1 -3.671 3.768 -15.315 
189 1 -1.284 -10.982 -17.157 
190 1 9.565 17.736 -0.889 
191 1 16.528 -0.433 6.413 
192 1 15.802 9.425 6.661 
193 1 -13.927 -12.419 11.573 
194 1 -7.765 17.635 -16.470 
195 1 3.397 3.319 7.744 
196 1 5.970 0.248 -8.406 
197 1 -5.817 6.172 5.071 
198 1 1.931 -3.399 -17.185 
199 1 -8.316 -11.309 -16.071 
200 1 5.890 12.844 -7.928 
ITEM: TIMESTEP
14000
ITEM: NUMBER OF ATOMS
200
ITEM: BOX BOUNDS pp pp pp
-17.980597440828447 17.980597440828447
-17.980597440828447 17.980597440828447
-17.980597440828447 17.980597440828447
ITEM: ATOMS id type x y z
1 1 8.177 -16.516 -14.674 
2 1 7.348 8.693 -1.476 
3 1 -8.300 15.878 10.033 
4 1 -9.524 -17.291 -12.102 
5 1 -9.337 -4.829 17.716 
6 1 12.648 -7.658 4.883 
7 1 -0.732 -3.670 -1.238 
8 1 1.028 2.445 1.822 
9 1 8.724 -8.006 9.221 
10 1 17.147 -13.193 -12.257 
11 1 -0.811 -6.384 16.046 
12 1 -5.786 -5.725 17.251 
13 1 11.022 4.370 -11.527 
14 1 10.738 -11.126 3.662 
15 1 2.835 4.952 -15.037 
16 1 -13.333 13.676 -8.714 
17 1 -7.375 9.625 6.607 
18 1 15.068 -5.206 1.432 
19 1 16.930 2.262 9.627 
20 1 2.031 6.548 -12.035 
21 1 15.615 3.904 -11.511 
22 1 -8.891 -14.978 11.165 
23 1 -8.069 2.352 -8.465 
24 1 17.900 -4.907 -11.496 
25 1 16.413 -7.267 -8.926 
26 1 -11.679 10.566 11.460 
27 1 -14.007 8.250 -2.032 
28 1 3.989 -14.097 -15.774 
29 1 -15.094 12.933 16.319 
30 1 -2.582 -15.463 14.126 
31 1 -4.245 -15.979 -9.538 
32 1 -5.841 -14.112 8.855 
33 1 -10.317 -6.151 9.429 
34 1 2.578 -17.954 15.004 
35 1 7.428 3.507 4.143 
36 1 -4.085 -2.047 -11.933 
37 1 -16.605 -2.371 2.095 
38 1 -6.938 4.586 17.661 
39 1 14.028 -4.689 6.717 
40 1 9.732 -8.410 -15.329 
41 1 5.235 -9.429 -16.393 
42 1 -0.063 11.590 4.904 
43 1 -5.251 0.167 17.742 
44 1 10.707 6.465 5.654 
45 1 -12.841 10.986 7.930 
46 1 9.392 -0.764 -5.607 
47 1 8.221 -11.528 -7.169 
48 1 -15.927 15.560 4.798 
49 1 -15.460 -2.389 -12.270 
50 1 -0.136 -15.966 -10.813 
51 1 -1.373 -8.665 2.752 
52 1 -13.363 -5.744 6.999 
53 1 -0.034 -16.298 -15.511 
54 1 9.101 -12.996 -1.043 
55 1 6.208 -3.748 -15.278 
56 1 -4.610 17.361 7.051 
57 1 -2.306 1.472 -12.408 
58 1 7.214 -3.456 -11.206 
59 1 13.332 -9.310 12.256 
60 1 -7.868 -3.293 9.631 
61 1 16.315 -1.899 11.446 
62 1 13.665 -1.258 0.820 
63 1 -2.820 -16.887 17.624 
64 1 -6.371 -6.965 -14.755 
65 1 -14.505 1.801 6.039 
66 1 -5.770 4.706 -7.368 
67 1 2.067 -2.774 -11.116 
68 1 -11.358 -11.285 10.953 
69 1 3.216 -4.838 0.381 
70 1 -11.114 12.896 -3.972 
71 1 -9.096 -15.965 -5.918 
72 1 15.322 10.242 -9.851 
73 1 -5.309 -9.179 17.742 
74 1 -6.723 16.502 -5.668 
75 1 17.565 6.143 -17.802 
76 1 15.183 9.378 -2.362 
77 1 -17.715 -0.589 16.140 
78 1 -3.039 14.281 12.771 
79 1 -14.371 -12.745 7.225 
80 1 -15.449 4.110 -9.567 
81 1 -5.705 -7.083 10.340 
82 1 -1.538 -0.784 12.833 
83 1 7.000 -13.061 8.263 
84 1 -1.496 10.958 13.819 
85 1 0.243 10.419 -0.283 
86 1 -2.712 6.719 13.777 
87 1 -6.269 -4.745 2.632 
88 1 8.028 -17.363 -3.918 
89 1 5.750 17.110 6.237 
90 1 8.725 -7.020 -11.573 
91 1 6.344 6.349 -7.533 
92 1 13.285 6.243 16.341 
93 1 4.676 -0.212 1.478 
94 1 -13.391 12.172 -13.345 
95 1 -8.527 10.974 -15.610 
96 1 -17.967 -13.317 -8.179 
97 1 -2.353 -12.079 8.767 
98 1 1.952 -0.611 -2.916 
99 1 -7.172 4.239 1.587 
100 1 17.861 13.004 -11.848 
101 1 6.601 7.124 3.230 
102 1 -7.225 -16.164 -14.281 
103 1 0.869 -13.070 8.716 
104 1 16.929 17.576 7.042 
105 1 7.814 -15.324 10.809 
106 1 -3.205 -12.052 -8.493 
107 1 13.360 9.269 4.427 
108 1 5.324 16.818 10.268 
109 1 1.120 -7.931 -17.671 
110 1 12.219 -0.813 6.754 
111 1 -17.955 -16.438 -11.757 
112 1 17.955 -12.513 9.196 
113 1 -11.819 8.101 5.888 
114 1 -3.283 -11.675 11.912 
115 1 14.819 4.183 7.774 
116 1 -6.771 -14.233 5.433 
117 1 13.625 14.859 -10.719 
118 1 -8.583 5.510 -1.778 
119 1 -11.116 -2.128 7.551 
120 1 -2.594 4.913 1.381 
121 1 1.210 3.503 -6.434 
122 1 5.793 10.833 3.000 
123 1 17.866 -10.601 -5.907 
124 1 0.944 13.997 8.215 
125 1 -13.325 -9.590 13.785 
126 1 -4.975 -7.644 14.123 
127 1 -17.248 5.290 12.161 
128 1 12.881 1.858 -9.075 
129 1 -9.108 8.570 13.625 
130 1 -3.157 -4.911 12.500 
131 1 9.637 6.886 13.263 
132 1 -3.558 13.609 8.811 
133 1 -3.801 -12.239 15.789 
134 1 -6.411 -10.113 3.703 
135 1 -3.489 0.478 -0.838 
136 1 -16.663 6.586 6.582 
137 1 -17.865 5.001 3.727 
138 1 -10.293 4.165 6.247 
139 1 -3.580 -2.233 1.376 
140 1 4.774 9.514 14.944 
141 1 -6.259 -10.456 -5.992 
142 1 -13.807 -0.285 -0.330 
143 1 -1.792 10.088 10.851 
144 1 8.419 5.895 -15.185 
145 1 -0.212 16.720 12.053 
146 1 1.513 -10.493 11.181 
147 1 -15.818 12.425 0.703 
148 1 4.789 -17.834 -7.833 
149 1 -2.868 8.452 8.108 
150 1 -2.693 -17.769 -0.851 
151 1 8.265 2.463 -5.911 
152 1 -15.513 -3.238 15.091 
153 1 -4.728 -13.368 -0.354 
154 1 -6.944 -17.173 -2.561 
155 1 6.334 -7.870 -8.141 
156 1 7.023 -12.901 13.307 
157 1 -10.295 10.909 16.247 
158 1 -5.999 4.143 11.254 
159 1 14.554 -10.585 0.742 
160 1 13.191 -10.654 7.094 
161 1 -2.085 -4.261 -7.099 
162 1 11.043 -3.248 -10.000 
163 1 13.810 -0.539 -3.072 
164 1 3.188 -6.245 -11.521 
165 1 -2.047 5.520 -10.553 
166 1 4.188 -5.506 -17.079 
167 1 -13.065 4.594 7.878 
168 1 12.528 1.058 -15.168 
169 1 -7.151 -8.376 7.361 
170 1 12.986 -7.548 9.234 
171 1 4.516 -6.878 10.907 
172 1 9.773 1.297 -1.021 
173 1 0.997 1.601 -16.210 
174 1 3.812 -9.920 -4.479 
175 1 14.985 -11.563 -9.396 
176 1 2.794 -17.935 -10.672 
177 1 4.388 -2.431 12.852 
178 1 -1.140 17.005 -12.371 
179 1 8.670 -6.481 -5.382 
180 1 -12.764 5.488 14.134 
181 1 1.472 -4.602 14.586 
182 1 -7.110 9.358 10.213 
183 1 8.059 9.386 -17.488 
184 1 10.642 -4.626 2.703 
185 1 -1.365 0.937 -8.444 
186 1 -17.313 -15.932 17.860 
187 1 0.979 1.807 -11.638 
188 1 -3.828 3.863 -15.382 
189 1 -1.872 -10.100 17.709 
190 1 8.944 16.564 -1.556 
191 1 15.289 0.249 6.672 
192 1 17.442 10.481 5.121 
193 1 -13.643 -13.138 12.000 
194 1 -7.381 17.727 -16.994 
195 1 2.748 3.286 7.908 
196 1 6.246 0.956 -8.127 
197 1 -5.933 6.322 4.521 
198 1 2.647 -2.494 -17.232 
199 1 -7.668 -10.484 -15.220 
200 1 6.706 14.104 -8.349 
ITEM: TIMESTEP
15000
ITEM: NUMBER OF ATOMS
200
ITEM: BOX BOUNDS pp pp pp
-17.980597440828447 17.980597440828447
-17.980597440828447 17.980597440828447
-17.980597440828447 17.980597440828447
ITEM: ATOMS id type x y z
1 1 8.010 -15.481 -14.658 
2 1 7.758 8.316 -1.742 
3 1 -8.317 15.515 8.886 
4 1 -9.610 -17.804 -12.806 
5 1 -8.507 -3.608 17.609 
6 1 11.469 -7.661 5.507 
7 1 -1.323 -3.109 -0.950 
8 1 0.490 1.264 2.579 
9 1 7.839 -7.770 9.612 
10 1 15.938 -13.281 -12.714 
11 1 -0.852 -6.445 16.560 
12 1 -6.041 -6.122 17.266 
13 1 10.742 6.385 -11.627 
14 1 10.401 -11.559 3.727 
15 1 2.727 4.468 -14.764 
16 1 -12.394 13.840 -9.666 
17 1 -6.303 9.894 6.884 
18 1 14.250 -4.298 1.179 
19 1 17.491 3.151 9.320 
20 1 1.207 7.217 -12.897 
21 1 16.269 3.810 -11.433 
22 1 -7.967 -15.070 11.086 
23 1 -6.861 1.280 -9.745 
24 1 16.776 -5.466 -12.419 
25 1 -17.720 -7.077 -8.996 
26 1 -10.584 11.327 11.000 
27 1 -14.723 8.109 -0.745 
28 1 4.549 -13.911 -15.724 
29 1 -16.142 12.841 16.872 
30 1 -2.990 -16.511 13.587 
31 1 -4.012 -15.198 -10.951 
32 1 -5.228 -13.342 9.715 
33 1 -9.407 -5.936 9.022 
34 1 2.956 17.787 14.935 
35 1 7.582 3.218 4.466 
36 1 -4.768 -2.633 -11.906 
37 1 -16.731 -2.429 2.220 
38 1 -7.433 5.964 16.442 
39 1 14.920 -4.115 6.446 
40 1 9.430 -8.148 -14.213 
41 1 6.418 -9.725 -16.437 
42 1 -1.696 12.169 4.892 
43 1 -5.255 0.756 17.719 
44 1 10.298 6.480 5.456 
45 1 -13.440 9.948 8.659 
46 1 10.237 -0.952 -6.096 
47 1 10.404 -12.049 -8.395 
48 1 -15.306 16.485 5.294 
49 1 -15.239 -2.247 -12.041 
50 1 -0.278 -15.358 -10.608 
51 1 -1.859 -7.965 1.806 
52 1 -13.610 -5.277 7.431 
53 1 0.533 -15.959 -16.052 
54 1 9.097 -14.333 -0.958 
55 1 6.927 -3.505 -15.112 
56 1 -5.762 16.829 6.830 
57 1 -2.782 1.478 -13.588 
58 1 7.034 -2.452 -11.298 
59 1 12.308 -9.568 12.022 
60 1 -7.728 -2.507 9.842 
61 1 14.085 -2.078 11.062 
62 1 13.475 -0.606 0.366 
63 1 -3.456 -16.701 -17.639 
64 1 -5.997 -6.433 -15.229 
65 1 -13.941 1.959 5.897 
66 1 -6.533 3.849 -6.930 
67 1 2.681 -3.113 -9.753 
68 1 -10.818 -11.355 10.917 
69 1 3.133 -4.110 0.054 
70 1 -11.773 13.107 -5.080 
71 1 -9.388 -15.761 -5.212 
72 1 15.359 9.358 -10.271 
73 1 -5.266 -9.477 -17.482 
74 1 -7.018 16.414 -5.472 
75 1 16.120 5.081 17.568 
76 1 16.657 9.221 -3.255 
77 1 17.363 -0.781 16.364 
78 1 -3.319 14.108 12.521 
79 1 -13.698 -12.064 7.745 
80 1 -13.730 3.892 -9.833 
81 1 -5.403 -7.194 10.268 
82 1 -2.695 -0.666 13.236 
83 1 6.437 -12.469 8.765 
84 1 -1.183 11.468 13.867 
85 1 0.731 10.406 -0.864 
86 1 -2.771 5.847 13.034 
87 1 -7.242 -4.838 2.893 
88 1 8.011 -17.101 -4.212 
89 1 5.632 16.921 6.323 
90 1 9.852 -7.035 -10.801 
91 1 5.804 6.893 -7.301 
92 1 12.001 7.253 16.062 
93 1 4.293 0.025 1.737 
94 1 -12.326 11.538 -12.922 
95 1 -7.840 9.794 -14.429 
96 1 17.527 -13.720 -7.104 
97 1 -2.670 -11.757 8.840 
98 1 0.588 -0.040 -3.258 
99 1 -6.500 3.925 2.160 
100 1 17.590 12.882 -12.277 
101 1 7.562 6.400 2.554 
102 1 -6.191 -15.949 -14.914 
103 1 3.091 -12.444 8.933 
104 1 17.335 -17.790 6.299 
105 1 8.965 -15.502 10.375 
106 1 -3.706 -11.608 -9.243 
107 1 13.286 10.093 4.538 
108 1 3.888 16.620 10.152 
109 1 2.506 -8.902 -16.208 
110 1 12.103 -1.005 6.720 
111 1 17.531 -16.534 -12.741 
112 1 -17.454 -13.081 9.978 
113 1 -10.868 8.837 5.154 
114 1 -3.020 -9.280 12.226 
115 1 15.518 5.247 7.953 
116 1 -7.456 -15.110 6.522 
117 1 14.412 15.871 -9.945 
118 1 -8.862 5.398 -0.843 
119 1 -10.731 -2.369 9.129 
120 1 -2.266 3.765 0.822 
121 1 1.810 4.439 -7.287 
122 1 4.567 10.655 1.087 
123 1 17.410 -9.914 -5.875 
124 1 2.037 14.169 8.442 
125 1 -13.249 -10.542 14.000 
126 1 -5.095 -8.311 14.738 
127 1 16.580 5.139 12.428 
128 1 13.659 2.351 -8.776 
129 1 -9.465 7.795 13.462 
130 1 -2.991 -5.497 13.213 
131 1 9.186 7.214 13.417 
132 1 -3.491 14.891 8.698 
133 1 -3.424 -11.641 15.665 
134 1 -7.242 -10.349 4.196 
135 1 -3.619 1.501 -1.851 
136 1 -17.425 6.683 7.131 
137 1 17.004 4.767 4.957 
138 1 -9.691 4.882 6.479 
139 1 -2.777 -1.109 1.439 
140 1 4.647 8.396 15.208 
141 1 -6.549 -10.079 -7.816 
142 1 -14.459 0.284 -0.203 
143 1 -1.922 9.917 11.177 
144 1 8.761 5.827 -14.319 
145 1 0.801 16.807 12.416 
146 1 2.201 -9.654 11.900 
147 1 -14.821 12.173 0.423 
148 1 4.453 -17.885 -8.348 
149 1 -3.221 9.040 7.574 
150 1 -3.587 -17.684 -1.210 
151 1 9.452 2.941 -6.148 
152 1 -15.535 -3.887 15.066 
153 1 -4.410 -13.709 -0.433 
154 1 -6.691 -17.132 -1.941 
155 1 5.531 -8.206 -8.358 
156 1 6.018 -12.937 13.751 
157 1 -11.198 11.626 17.469 
158 1 -6.094 4.312 10.586 
159 1 13.902 -10.069 -0.048 
160 1 12.742 -10.132 7.595 
161 1 -2.612 -4.608 -7.175 
162 1 11.604 -4.171 -10.213 
163 1 14.497 -0.491 -3.321 
164 1 3.818 -6.719 -11.710 
165 1 -3.132 4.964 -11.557 
166 1 4.719 -5.833 -17.088 
167 1 -14.165 5.144 9.216 
168 1 11.336 1.325 -14.934 
169 1 -7.592 -8.398 7.337 
170 1 13.559 -6.941 9.472 
171 1 5.000 -7.717 11.415 
172 1 8.861 0.740 -1.326 
173 1 2.213 1.834 -16.768 
174 1 4.767 -9.813 -4.349 
175 1 15.368 -10.347 -9.739 
176 1 2.382 -17.715 -10.738 
177 1 4.625 -2.090 11.647 
178 1 -0.808 16.466 -11.464 
179 1 9.908 -4.975 -5.108 
180 1 -12.724 4.136 14.157 
181 1 1.597 -4.714 15.540 
182 1 -6.931 9.035 10.274 
183 1 7.763 9.553 -17.613 
184 1 10.566 -4.901 1.591 
185 1 -1.407 -0.866 -8.793 
186 1 -17.248 -17.147 -16.842 
187 1 0.861 2.025 -12.536 
188 1 -3.691 4.245 -15.122 
189 1 -0.950 -9.875 -17.078 
190 1 10.706 16.430 -1.248 
191 1 15.033 -0.239 7.176 
192 1 16.597 9.370 4.301 
193 1 -13.949 -13.998 12.739 
194 1 -7.507 -17.795 17.933 
195 1 2.094 4.085 8.427 
196 1 5.945 0.113 -8.636 
197 1 -6.405 5.272 5.552 
198 1 3.408 -2.511 -17.285 
199 1 -7.877 -11.456 -14.222 
200 1 6.925 14.784 -8.152 
ITEM: TIMESTEP
16000
ITEM: NUMBER OF ATOMS
200
ITEM: BOX BOUNDS pp pp pp
-17.980597440828447 17.980597440828447
-17.980597440828447 17.980597440828447
-17.980597440828447 17.980597440828447
ITEM: ATOMS id type x y z
1 1 8.059 -14.378 -13.790 
2 1 8.812 8.820 -1.520 
3 1 -8.690 15.498 9.950 
4 1 -8.779 17.534 -13.326 
5 1 -8.757 -1.630 17.854 
6 1 10.639 -8.283 5.943 
7 1 -1.809 -3.188 -1.621 
8 1 -0.060 1.718 3.329 
9 1 7.857 -8.726 9.249 
10 1 14.919 -13.354 -12.524 
11 1 -1.382 -6.628 15.966 
12 1 -6.355 -5.468 17.204 
13 1 10.910 5.918 -11.589 
14 1 10.231 -10.573 3.206 
15 1 2.536 4.414 -14.764 
16 1 -11.618 15.101 -9.916 
17 1 -6.644 9.721 6.646 
18 1 15.900 -3.722 1.079 
19 1 17.188 3.377 9.943 
20 1 0.388 7.731 -12.507 
21 1 17.134 3.021 -12.079 
22 1 -8.160 -15.635 12.046 
23 1 -6.968 0.876 -10.357 
24 1 16.666 -7.522 -12.188 
25 1 -17.288 -6.694 -8.327 
26 1 -12.238 11.457 10.697 
27 1 -15.048 8.397 -0.607 
28 1 3.507 -13.783 -15.972 
29 1 -16.187 14.121 15.661 
30 1 -3.055 -15.666 14.059 
31 1 -3.449 -14.819 -11.485 
32 1 -5.516 -13.595 9.384 
33 1 -9.634 -5.851 9.866 
34 1 3.676 17.611 15.069 
35 1 7.878 3.837 4.161 
36 1 -4.277 -3.090 -12.604 
37 1 -16.739 -2.705 2.207 
38 1 -9.009 4.692 16.819 
39 1 14.441 -3.838 6.537 
40 1 9.200 -9.817 -13.716 
41 1 6.042 -9.549 -17.134 
42 1 -1.517 11.114 5.230 
43 1 -5.916 1.928 -17.780 
44 1 9.885 6.991 5.804 
45 1 -13.512 8.244 6.923 
46 1 9.640 -0.877 -6.666 
47 1 10.476 -11.190 -9.584 
48 1 -16.049 16.447 4.472 
49 1 -16.947 -1.347 -11.951 
50 1 -0.004 -15.115 -10.366 
51 1 -2.875 -6.949 1.691 
52 1 -12.890 -5.385 9.058 
53 1 0.404 -15.922 -16.729 
54 1 9.297 -14.321 -0.578 
55 1 7.241 -2.589 -15.223 
56 1 -4.631 16.953 7.539 
57 1 -2.677 1.283 -13.792 
58 1 5.944 -2.646 -11.443 
59 1 12.828 -7.821 12.127 
60 1 -7.437 -2.805 9.673 
61 1 13.393 -2.064 10.677 
62 1 14.192 0.677 0.337 
63 1 -4.066 -15.257 -17.201 
64 1 -6.007 -6.050 -14.465 
65 1 -14.203 3.684 5.008 
66 1 -6.843 4.723 -7.531 
67 1 1.767 -2.796 -9.733 
68 1 -10.924 -12.277 10.531 
69 1 3.480 -4.799 0.671 
70 1 -11.820 13.281 -4.988 
71 1 -8.908 -15.193 -4.529 
72 1 15.058 8.396 -10.570 
73 1 -4.876 -9.169 -17.503 
74 1 -6.824 16.888 -4.287 
75 1 15.905 3.919 17.838 
76 1 16.676 8.882 -1.167 
77 1 16.681 -1.556 17.141 
78 1 -3.350 14.876 11.904 
79 1 -14.324 -11.869 7.639 
80 1 -14.016 2.495 -9.688 
81 1 -5.034 -7.103 9.433 
82 1 -1.664 0.118 12.283 
83 1 6.285 -12.494 8.665 
84 1 -1.833 10.832 13.916 
85 1 0.834 11.787 -1.824 
86 1 -4.363 4.476 13.872 
87 1 -8.656 -4.431 3.546 
88 1 7.880 -17.554 -3.639 
89 1 4.894 15.713 6.404 
90 1 9.007 -5.845 -10.937 
91 1 5.655 5.969 -7.307 
92 1 12.312 6.543 17.872 
93 1 3.532 -0.198 -0.672 
94 1 -12.031 11.918 -12.642 
95 1 -8.955 10.482 -14.193 
96 1 -17.494 -13.284 -7.945 
97 1 -2.206 -12.503 8.282 
98 1 -0.245 0.472 -3.049 
99 1 -7.129 3.795 1.859 
100 1 17.601 10.707 -10.520 
101 1 6.572 6.806 1.550 
102 1 -6.344 -15.765 -13.603 
103 1 2.754 -11.408 9.161 
104 1 15.844 16.989 5.338 
105 1 9.652 -15.361 10.348 
106 1 -2.814 -10.391 -9.303 
107 1 13.647 11.921 2.986 
108 1 3.616 17.420 9.762 
109 1 2.607 -9.071 -16.307 
110 1 11.818 -1.522 7.339 
111 1 -16.766 -14.711 -11.896 
112 1 -17.816 -12.232 10.075 
113 1 -10.593 9.775 5.258 
114 1 -2.493 -8.636 11.810 
115 1 14.497 3.799 8.503 
116 1 -7.990 -16.051 6.181 
117 1 13.844 16.171 -9.698 
118 1 -8.715 4.375 -0.962 
119 1 -10.707 -2.395 9.295 
120 1 -1.876 4.215 1.304 
121 1 2.699 4.267 -7.493 
122 1 4.969 11.096 0.182 
123 1 17.560 -10.209 -6.943 
124 1 0.992 13.803 8.790 
125 1 -13.208 -10.156 13.141 
126 1 -5.096 -8.012 14.622 
127 1 16.687 5.560 13.251 
128 1 13.082 1.938 -8.594 
129 1 -9.522 6.818 14.181 
130 1 -2.934 -4.742 12.918 
131 1 8.712 6.711 14.120 
132 1 -3.509 13.673 8.337 
133 1 -2.796 -11.776 16.234 
134 1 -6.312 -11.648 4.852 
135 1 -3.749 1.227 -1.902 
136 1 -17.110 5.894 7.994 
137 1 15.681 5.523 4.105 
138 1 -9.710 6.221 6.742 
139 1 -2.981 -1.368 2.164 
140 1 3.660 7.335 16.070 
141 1 -7.591 -9.742 -7.148 
142 1 -14.014 0.631 -0.472 
143 1 -1.568 9.450 10.472 
144 1 8.985 7.001 -14.883 
145 1 0.825 16.006 12.684 
146 1 2.180 -10.118 12.110 
147 1 -14.389 11.524 0.892 
148 1 4.479 -17.759 -7.598 
149 1 -3.376 7.362 8.308 
150 1 -3.699 17.754 -2.253 
151 1 9.564 3.546 -6.621 
152 1 -16.202 -4.897 14.587 
153 1 -4.832 -13.148 0.414 
154 1 -7.143 -15.793 -1.502 
155 1 4.692 -9.082 -9.016 
156 1 4.856 -13.904 15.310 
157 1 -11.361 11.349 -17.802 
158 1 -7.275 5.422 10.286 
159 1 15.266 -9.208 0.675 
160 1 15.053 -11.283 6.973 
161 1 -2.551 -4.170 -7.909 
162 1 11.720 -3.144 -10.692 
163 1 14.225 -0.214 -3.641 
164 1 3.592 -6.164 -11.535 
165 1 -2.401 3.974 -11.680 
166 1 4.647 -6.035 -17.440 
167 1 -13.539 4.851 8.688 
168 1 10.552 1.472 -13.799 
169 1 -8.148 -8.751 7.766 
170 1 14.217 -6.688 8.757 
171 1 4.869 -7.694 11.960 
172 1 7.355 0.465 -0.379 
173 1 0.847 1.654 -17.540 
174 1 4.940 -9.845 -5.468 
175 1 15.481 -10.309 -10.545 
176 1 3.045 -17.627 -11.141 
177 1 4.839 -3.273 11.027 
178 1 -0.992 16.847 -11.309 
179 1 10.145 -4.415 -5.825 
180 1 -13.847 5.347 14.537 
181 1 2.205 -5.590 14.304 
182 1 -8.738 8.459 9.582 
183 1 7.246 9.652 -17.548 
184 1 9.655 -6.290 1.658 
185 1 -1.583 -1.530 -10.125 
186 1 -17.956 -16.708 -16.834 
187 1 0.538 1.023 -12.296 
188 1 -3.310 5.020 -15.170 
189 1 -0.875 -9.672 -17.631 
190 1 12.228 17.131 -1.432 
191 1 16.608 -0.147 6.846 
192 1 16.795 9.018 4.604 
193 1 -15.217 -13.336 12.887 
194 1 -6.677 16.659 17.911 
195 1 2.878 3.271 7.732 
196 1 5.824 0.192 -8.318 
197 1 -5.712 5.706 5.386 
198 1 3.452 -2.944 -16.372 
199 1 -8.615 -11.200 -13.656 
200 1 6.726 14.664 -8.022 
ITEM: TIMESTEP
17000
ITEM: NUMBER OF ATOMS
200
ITEM: BOX BOUNDS pp pp pp
-17.980597440828447 17.980597440828447
-17.980597440828447 17.980597440828447
-17.980597440828447 17.980597440828447
ITEM: ATOMS id type x y z
1 1 8.256 -13.256 -14.361 
2 1 7.846 9.796 -1.688 
3 1 -9.923 14.332 9.464 
4 1 -8.150 16.923 -13.293 
5 1 -10.067 -2.689 -17.860 
6 1 11.080 -8.736 6.985 
7 1 -2.672 -3.957 -0.296 
8 1 -0.165 2.908 4.209 
9 1 8.761 -7.952 9.907 
10 1 15.388 -11.808 -13.148 
11 1 -1.105 -7.290 15.628 
12 1 -6.413 -4.805 17.352 
13 1 11.647 6.021 -10.301 
14 1 9.648 -10.218 2.537 
15 1 2.688 2.962 -14.785 
16 1 -11.528 15.303 -9.809 
17 1 -6.673 10.088 7.087 
18 1 16.778 -3.676 1.234 
19 1 17.189 3.174 10.353 
20 1 1.128 8.210 -12.398 
21 1 17.556 3.275 -12.640 
22 1 -8.627 -14.287 11.850 
23 1 -6.705 0.800 -9.990 
24 1 16.255 -7.473 -12.392 
25 1 -17.223 -6.363 -8.152 
26 1 -12.509 11.952 10.095 
27 1 -14.982 8.480 -1.805 
28 1 3.277 -13.655 -15.213 
29 1 -16.761 12.890 16.187 
30 1 -1.869 -16.123 14.314 
31 1 -3.732 -13.752 -10.547 
32 1 -4.638 -14.309 11.461 
33 1 -10.968 -6.893 9.975 
34 1 2.366 16.871 14.374 
35 1 7.221 4.175 4.009 
36 1 -4.374 -2.587 -12.907 
37 1 -15.643 -1.130 2.045 
38 1 -8.998 4.763 16.808 
39 1 15.398 -3.791 6.235 
40 1 10.018 -9.701 -14.074 
41 1 6.789 -8.895 -16.669 
42 1 -0.406 11.236 3.952 
43 1 -5.040 1.462 -17.699 
44 1 10.415 5.718 6.138 
45 1 -13.465 8.768 7.707 
46 1 8.714 0.077 -7.346 
47 1 10.399 -10.671 -10.136 
48 1 -16.629 16.299 3.841 
49 1 -17.850 -1.917 -11.869 
50 1 -0.162 -13.863 -10.878 
51 1 -3.850 -6.585 1.689 
52 1 -13.351 -5.092 8.919 
53 1 0.798 -15.257 16.555 
54 1 10.828 -14.030 -2.129 
55 1 7.008 -2.436 -15.310 
56 1 -4.227 -16.743 8.990 
57 1 -3.210 1.187 -13.864 
58 1 6.292 -3.761 -10.863 
59 1 12.768 -8.182 12.908 
60 1 -6.846 -3.018 9.877 
61 1 12.849 -1.899 11.644 
62 1 13.543 0.624 0.158 
63 1 -2.645 -16.342 -17.843 
64 1 -7.769 -6.494 -14.570 
65 1 -13.914 3.183 4.069 
66 1 -8.195 3.990 -8.027 
67 1 2.152 -2.670 -10.698 
68 1 -12.500 -12.123 10.247 
69 1 3.351 -5.664 0.514 
70 1 -11.565 13.339 -4.311 
71 1 -9.126 -14.583 -3.789 
72 1 14.599 7.601 -11.105 
73 1 -5.858 -9.348 -16.742 
74 1 -8.304 16.258 -4.246 
75 1 15.781 3.492 -17.737 
76 1 16.866 8.484 -0.759 
77 1 15.814 -2.195 -16.362 
78 1 -2.210 14.514 12.313 
79 1 -14.078 -11.354 7.354 
80 1 -13.238 2.156 -9.039 
81 1 -5.237 -6.220 9.866 
82 1 -1.532 0.253 12.054 
83 1 6.097 -12.657 8.062 
84 1 -1.202 11.129 14.623 
85 1 -0.445 12.673 -2.249 
86 1 -5.133 4.846 13.074 
87 1 -9.328 -3.353 3.470 
88 1 7.344 -17.834 -3.290 
89 1 5.799 14.634 4.711 
90 1 10.576 -6.938 -10.660 
91 1 5.644 5.592 -7.028 
92 1 12.234 7.491 -17.214 
93 1 2.972 -0.573 -0.202 
94 1 -11.613 12.597 -13.977 
95 1 -8.875 10.719 -14.471 
96 1 -17.559 -13.073 -6.363 
97 1 -1.451 -12.585 7.117 
98 1 0.946 0.753 -3.582 
99 1 -6.641 4.422 1.430 
100 1 17.386 11.400 -8.654 
101 1 7.105 7.152 1.247 
102 1 -5.994 -15.222 -14.462 
103 1 3.632 -12.258 10.538 
104 1 15.764 16.867 5.407 
105 1 9.257 -15.511 11.199 
106 1 -2.846 -10.644 -8.978 
107 1 12.319 11.856 2.547 
108 1 2.339 -17.790 9.160 
109 1 2.985 -10.216 -15.562 
110 1 12.241 -1.232 7.322 
111 1 -16.435 -13.845 -11.442 
112 1 -16.628 -11.206 10.007 
113 1 -10.127 9.996 4.104 
114 1 -2.339 -8.150 11.730 
115 1 13.914 4.102 7.681 
116 1 -8.940 -15.266 4.901 
117 1 14.533 15.660 -9.940 
118 1 -8.844 3.922 -2.097 
119 1 -10.492 -1.292 9.424 
120 1 -1.799 5.509 -0.137 
121 1 2.356 3.560 -7.130 
122 1 4.409 11.692 -0.442 
123 1 16.793 -9.521 -6.678 
124 1 0.683 11.936 9.229 
125 1 -13.041 -9.965 12.844 
126 1 -5.690 -7.717 14.332 
127 1 17.164 6.058 12.593 
128 1 13.157 1.635 -9.302 
129 1 -11.017 6.098 13.265 
130 1 -3.639 -4.178 12.292 
131 1 8.779 6.834 13.700 
132 1 -2.918 14.734 9.143 
133 1 -2.388 -13.202 16.087 
134 1 -5.510 -12.149 5.817 
135 1 -3.129 2.269 -3.406 
136 1 -17.459 6.660 8.614 
137 1 14.333 5.744 4.080 
138 1 -10.261 5.443 5.829 
139 1 -3.248 -0.521 1.109 
140 1 3.039 6.844 16.712 
141 1 -8.742 -9.838 -8.117 
142 1 -14.582 1.634 -0.703 
143 1 -2.296 9.769 10.416 
144 1 9.590 7.713 -14.596 
145 1 1.061 15.004 11.816 
146 1 1.723 -10.112 12.172 
147 1 -13.425 10.798 1.814 
148 1 5.091 -17.750 -6.579 
149 1 -4.043 8.066 8.443 
150 1 -3.193 17.788 -2.036 
151 1 9.989 4.240 -6.625 
152 1 -16.303 -5.086 15.698 
153 1 -3.825 -13.071 0.859 
154 1 -7.270 -16.514 -0.833 
155 1 5.131 -10.079 -8.608 
156 1 4.291 -12.439 14.999 
157 1 -11.732 9.413 -16.971 
158 1 -7.823 4.153 9.194 
159 1 16.628 -8.753 0.453 
160 1 15.104 -10.971 6.635 
161 1 -3.038 -5.136 -7.434 
162 1 11.887 -2.973 -9.909 
163 1 14.080 1.179 -3.535 
164 1 3.272 -6.044 -11.763 
165 1 -1.909 4.427 -11.716 
166 1 4.193 -6.417 17.427 
167 1 -12.817 5.087 8.837 
168 1 9.717 1.073 -13.249 
169 1 -8.239 -9.368 7.514 
170 1 13.762 -6.795 8.279 
171 1 4.947 -9.143 12.129 
172 1 7.070 0.560 -0.070 
173 1 1.480 1.809 17.927 
174 1 4.874 -9.861 -4.718 
175 1 14.880 -10.072 -9.743 
176 1 3.703 -16.958 -11.608 
177 1 6.415 -3.554 12.094 
178 1 -0.848 16.899 -11.706 
179 1 10.690 -5.160 -5.924 
180 1 -13.950 5.859 15.337 
181 1 2.292 -5.704 14.622 
182 1 -9.056 7.687 8.984 
183 1 8.048 9.190 -17.538 
184 1 9.757 -5.898 1.831 
185 1 -1.576 -2.300 -9.705 
186 1 17.966 -17.035 -16.051 
187 1 -0.199 0.472 -12.299 
188 1 -3.742 5.884 -14.470 
189 1 -0.784 -9.883 -16.711 
190 1 13.035 16.959 -1.289 
191 1 16.898 -0.788 7.913 
192 1 17.179 7.559 5.069 
193 1 -15.611 -13.527 13.695 
194 1 -7.092 17.619 17.100 
195 1 2.191 3.093 7.645 
196 1 3.553 -0.002 -7.806 
197 1 -3.994 4.882 3.641 
198 1 3.668 -3.633 -15.765 
199 1 -8.602 -11.327 -13.675 
200 1 6.769 14.999 -7.408 
ITEM: TIMESTEP
18000
ITEM: NUMBER OF ATOMS
200
ITEM: BOX BOUNDS pp pp pp
-17.980597440828447 17.980597440828447
-17.980597440828447 17.980597440828447
-17.980597440828447 17.980597440828447
ITEM: ATOMS id type x y z
1 1 9.175 -13.764 -13.624 
2 1 7.548 11.350 -1.767 
3 1 -9.215 14.561 10.132 
4 1 -8.647 16.869 -11.145 
5 1 -9.728 -3.264 -17.145 
6 1 11.597 -8.581 7.103 
7 1 -2.994 -3.642 0.601 
8 1 -0.478 2.014 3.306 
9 1 9.236 -8.017 9.799 
10 1 15.317 -12.247 -14.026 
11 1 -1.210 -5.310 14.708 
12 1 -7.447 -5.571 17.324 
13 1 12.053 4.881 -10.653 
14 1 8.844 -10.425 2.682 
15 1 3.552 2.816 -14.381 
16 1 -10.571 16.136 -8.179 
17 1 -7.439 10.996 6.637 
18 1 15.770 -3.569 1.145 
19 1 17.162 3.063 10.733 
20 1 0.877 10.190 -12.724 
21 1 17.131 3.357 -10.855 
22 1 -8.429 -13.975 11.429 
23 1 -6.186 1.836 -10.221 
24 1 16.279 -6.661 -13.118 
25 1 17.431 -6.398 -8.954 
26 1 -12.832 12.833 10.541 
27 1 -14.906 8.569 -1.537 
28 1 4.392 -13.387 -14.138 
29 1 -17.415 12.823 16.571 
30 1 -1.621 -16.629 14.967 
31 1 -2.868 -13.836 -10.178 
32 1 -4.670 -14.806 11.990 
33 1 -10.032 -7.149 10.955 
34 1 1.180 -17.790 13.670 
35 1 6.247 3.075 4.123 
36 1 -3.917 -3.352 -14.586 
37 1 -15.689 -1.161 2.551 
38 1 -7.585 5.446 16.627 
39 1 15.515 -4.665 6.586 
40 1 10.071 -10.346 -13.913 
41 1 7.320 -8.558 -17.388 
42 1 0.240 9.878 3.646 
43 1 -4.367 1.408 -17.220 
44 1 10.399 6.102 8.027 
45 1 -13.807 7.923 7.761 
46 1 7.944 1.398 -7.751 
47 1 10.467 -11.723 -9.966 
48 1 -16.593 17.182 3.940 
49 1 -17.851 -2.090 -12.793 
50 1 0.904 -13.859 -10.013 
51 1 -4.855 -6.650 1.574 
52 1 -13.020 -4.836 9.369 
53 1 0.426 -14.551 16.578 
54 1 11.593 -14.219 -1.933 
55 1 7.297 -2.140 -15.074 
56 1 -3.613 -17.030 7.454 
57 1 -3.712 0.847 -13.962 
58 1 5.912 -3.756 -11.000 
59 1 11.787 -8.032 12.383 
60 1 -6.388 -2.957 9.771 
61 1 12.240 -2.702 12.996 
62 1 13.498 1.242 -0.142 
63 1 -2.661 -16.412 -17.579 
64 1 -6.994 -6.102 -12.578 
65 1 -13.536 2.209 2.738 
66 1 -8.394 4.480 -7.796 
67 1 2.337 -2.000 -11.493 
68 1 -12.766 -13.766 10.128 
69 1 2.635 -3.995 1.106 
70 1 -11.711 14.063 -5.071 
71 1 -8.666 -15.589 -4.414 
72 1 14.267 7.930 -9.795 
73 1 -5.222 -9.602 -16.827 
74 1 -8.057 16.854 -4.531 
75 1 15.106 2.863 -17.624 
76 1 16.625 8.966 -0.126 
77 1 15.473 -2.157 -15.778 
78 1 -1.804 14.883 12.753 
79 1 -14.914 -10.419 7.112 
80 1 -12.426 2.433 -9.245 
81 1 -5.028 -6.304 10.827 
82 1 -1.583 0.171 11.245 
83 1 6.263 -12.045 8.215 
84 1 0.062 12.019 14.828 
85 1 -1.609 13.548 -2.303 
86 1 -4.733 5.221 12.662 
87 1 -10.332 -3.384 2.255 
88 1 7.778 -17.199 -1.862 
89 1 6.879 14.350 5.571 
90 1 10.751 -6.500 -9.866 
91 1 5.759 6.310 -7.169 
92 1 11.713 6.537 -17.789 
93 1 3.492 -0.511 0.319 
94 1 -11.277 12.846 -15.035 
95 1 -8.294 9.981 -14.462 
96 1 17.805 -13.044 -5.472 
97 1 -1.344 -12.201 6.886 
98 1 1.142 -0.122 -2.655 
99 1 -6.583 4.514 1.000 
100 1 17.007 12.078 -6.951 
101 1 7.369 6.706 1.789 
102 1 -5.975 -14.498 -14.163 
103 1 5.648 -11.797 12.012 
104 1 15.792 15.734 4.220 
105 1 9.528 -15.128 10.813 
106 1 -2.211 -11.254 -8.590 
107 1 11.292 12.523 3.230 
108 1 0.253 -17.613 9.378 
109 1 2.157 -10.924 -16.447 
110 1 12.886 -2.200 7.801 
111 1 -17.132 -13.978 -10.692 
112 1 -17.621 -11.105 10.001 
113 1 -9.811 9.398 4.842 
114 1 -2.205 -8.764 10.374 
115 1 14.824 3.115 8.468 
116 1 -8.786 -15.065 6.306 
117 1 12.954 15.644 -10.119 
118 1 -8.762 3.906 -1.635 
119 1 -9.857 -2.153 9.171 
120 1 -1.337 5.758 0.309 
121 1 1.994 4.055 -7.002 
122 1 4.416 11.671 -0.175 
123 1 17.259 -8.940 -6.008 
124 1 0.899 12.214 9.486 
125 1 -12.492 -9.604 12.789 
126 1 -5.467 -6.173 14.679 
127 1 17.300 4.979 13.943 
128 1 14.199 2.130 -9.118 
129 1 -11.906 5.064 12.639 
130 1 -4.202 -2.803 13.124 
131 1 8.509 5.450 14.060 
132 1 -2.804 15.097 9.449 
133 1 -3.210 -13.583 16.647 
134 1 -5.912 -12.239 6.775 
135 1 -2.868 3.834 -4.510 
136 1 -17.575 6.810 9.608 
137 1 15.097 6.047 3.935 
138 1 -9.755 5.804 5.621 
139 1 -3.455 -0.217 2.236 
140 1 2.984 6.698 17.701 
141 1 -7.295 -9.588 -9.189 
142 1 -14.750 2.286 -1.511 
143 1 -2.084 10.892 11.117 
144 1 11.202 7.629 -14.350 
145 1 1.806 15.053 12.270 
146 1 1.335 -10.481 12.837 
147 1 -13.476 10.388 2.532 
148 1 4.727 17.691 -6.546 
149 1 -3.870 8.152 8.654 
150 1 -4.091 17.048 -2.683 
151 1 10.033 4.889 -7.474 
152 1 -17.258 -6.024 15.457 
153 1 -4.588 -12.669 0.290 
154 1 -6.555 -17.322 -0.915 
155 1 5.400 -10.130 -8.819 
156 1 3.327 -13.430 15.118 
157 1 -11.839 9.313 -17.495 
158 1 -8.864 3.382 10.123 
159 1 15.109 -8.165 0.388 
160 1 14.817 -10.744 6.509 
161 1 -3.542 -5.219 -7.335 
162 1 12.277 -3.087 -10.587 
163 1 14.037 -0.514 -3.033 
164 1 2.810 -5.452 -11.905 
165 1 -0.903 3.879 -11.728 
166 1 4.583 -5.185 17.155 
167 1 -13.018 4.593 8.277 
168 1 9.872 0.959 -14.111 
169 1 -7.788 -9.009 6.659 
170 1 15.144 -6.856 8.795 
171 1 5.147 -8.523 11.048 
172 1 5.925 1.817 -2.010 
173 1 1.328 2.867 -17.679 
174 1 5.958 -8.970 -4.999 
175 1 13.956 -12.029 -9.407 
176 1 4.084 -17.211 -13.102 
177 1 7.266 -3.811 10.645 
178 1 0.396 17.277 -12.520 
179 1 9.042 -5.729 -6.012 
180 1 -12.589 5.964 16.459 
181 1 3.247 -5.894 14.115 
182 1 -8.420 7.695 9.016 
183 1 8.812 9.227 -17.848 
184 1 9.939 -6.936 2.127 
185 1 -2.651 -2.311 -9.301 
186 1 17.803 -16.529 17.967 
187 1 0.341 1.097 -12.913 
188 1 -3.286 7.660 -14.185 
189 1 -0.973 -8.498 -16.703 
190 1 13.337 16.646 -0.494 
191 1 17.478 -0.847 8.291 
192 1 17.516 8.169 4.801 
193 1 -16.026 -12.785 13.323 
194 1 -6.635 -17.278 17.033 
195 1 2.841 2.095 7.578 
196 1 4.218 -0.736 -7.418 
197 1 -3.943 4.799 3.656 
198 1 3.818 -3.502 -15.757 
199 1 -8.209 -11.159 -13.931 
200 1 8.369 14.263 -6.692 
ITEM: TIMESTEP
19000
ITEM: NUMBER OF ATOMS
200
ITEM: BOX BOUNDS pp pp pp
-17.980597440828447 17.980597440828447
-17.980597440828447 17.980597440828447
-17.980597440828447 17.980597440828447
ITEM: ATOMS id type x y z
1 1 8.900 -14.650 -13.900 
2 1 8.029 11.915 -2.107 
3 1 -7.290 14.852 10.651 
4 1 -10.431 16.378 -10.716 
5 1 -8.676 -3.009 17.332 
6 1 12.384 -8.341 7.036 
7 1 -2.414 -3.150 0.203 
8 1 0.141 2.543 2.561 
9 1 9.040 -7.206 10.132 
10 1 15.214 -13.057 -14.615 
11 1 -1.398 -3.799 14.910 
12 1 -7.401 -6.477 17.324 
13 1 10.782 5.597 -11.607 
14 1 9.042 -10.467 3.013 
15 1 3.066 3.358 -13.056 
16 1 -10.904 15.957 -6.997 
17 1 -7.092 11.408 6.441 
18 1 17.156 -4.550 -0.167 
19 1 17.940 3.173 10.260 
20 1 0.017 10.997 -12.536 
21 1 17.575 3.203 -10.367 
22 1 -8.415 -14.119 10.826 
23 1 -6.048 2.115 -9.692 
24 1 15.446 -6.240 -12.936 
25 1 -16.881 -7.578 -8.748 
26 1 -12.674 12.333 10.128 
27 1 -15.136 8.728 -1.788 
28 1 3.469 -13.003 -13.217 
29 1 -17.469 12.852 16.223 
30 1 -3.135 -16.094 15.508 
31 1 -2.564 -14.704 -9.629 
32 1 -4.458 -15.662 11.987 
33 1 -8.835 -6.477 10.277 
34 1 0.787 -16.285 14.317 
35 1 6.495 2.508 2.665 
36 1 -2.811 -3.988 -14.897 
37 1 -15.419 -0.971 2.564 
38 1 -7.760 4.391 16.220 
39 1 14.295 -5.246 4.815 
40 1 9.667 -11.447 -13.897 
41 1 8.524 -9.820 -17.874 
42 1 1.324 9.309 2.932 
43 1 -4.605 1.573 -16.199 
44 1 11.330 5.228 8.525 
45 1 -13.197 7.883 7.147 
46 1 8.601 0.526 -7.643 
47 1 9.831 -13.579 -8.982 
48 1 -14.754 16.119 3.616 
49 1 17.422 -1.766 -12.290 
50 1 1.565 -14.000 -9.305 
51 1 -4.961 -4.922 1.739 
52 1 -13.128 -5.019 9.477 
53 1 -0.022 -13.879 17.272 
54 1 10.585 -13.924 -2.275 
55 1 7.574 -3.741 -14.947 
56 1 -2.969 17.762 7.191 
57 1 -2.883 -0.675 -14.243 
58 1 7.288 -2.610 -10.584 
59 1 12.397 -7.450 12.005 
60 1 -6.535 -1.632 10.165 
61 1 12.576 -2.960 13.335 
62 1 13.690 2.492 -0.974 
63 1 -3.515 -16.562 -16.783 
64 1 -5.648 -6.988 -12.269 
65 1 -12.959 2.324 1.796 
66 1 -8.354 5.522 -8.867 
67 1 3.191 -1.546 -11.820 
68 1 -13.572 -12.889 10.111 
69 1 2.590 -4.713 0.929 
70 1 -11.980 13.632 -5.025 
71 1 -8.216 -15.405 -5.103 
72 1 15.193 7.179 -8.405 
73 1 -4.778 -9.286 -16.816 
74 1 -8.114 17.343 -4.299 
75 1 15.090 2.448 -16.926 
76 1 17.219 8.571 -0.356 
77 1 15.140 -2.638 -15.227 
78 1 -1.245 15.124 12.773 
79 1 -14.201 -10.261 6.679 
80 1 -11.940 2.373 -9.488 
81 1 -5.119 -6.638 10.518 
82 1 -1.436 -0.019 9.654 
83 1 6.774 -12.458 7.106 
84 1 0.013 12.417 15.883 
85 1 -2.030 14.403 -2.436 
86 1 -4.359 5.310 12.240 
87 1 -10.916 -3.681 1.798 
88 1 7.542 -16.822 -2.097 
89 1 6.294 12.601 7.422 
90 1 10.882 -6.362 -9.579 
91 1 5.181 6.900 -7.626 
92 1 11.297 7.586 -17.942 
93 1 3.727 -1.345 -0.170 
94 1 -10.026 13.165 -13.772 
95 1 -8.455 10.232 -15.211 
96 1 -17.035 -12.415 -5.035 
97 1 -1.990 -12.474 5.898 
98 1 0.532 -1.125 -2.046 
99 1 -6.203 3.737 0.659 
100 1 16.707 11.396 -5.653 
101 1 7.711 5.560 2.110 
102 1 -5.382 -15.125 -13.804 
103 1 3.872 -12.347 11.851 
104 1 15.989 16.144 3.875 
105 1 9.466 -14.568 9.680 
106 1 -1.568 -11.897 -7.924 
107 1 10.219 12.841 3.219 
108 1 -0.114 -17.431 9.384 
109 1 3.319 -8.821 -16.177 
110 1 13.589 -3.143 8.315 
111 1 -17.600 -14.160 -9.892 
112 1 -17.197 -10.677 9.591 
113 1 -10.805 9.247 4.771 
114 1 -1.024 -9.330 11.051 
115 1 14.326 3.246 6.820 
116 1 -9.580 -14.912 5.995 
117 1 12.621 13.928 -9.747 
118 1 -9.350 3.923 -2.216 
119 1 -10.293 -2.901 8.755 
120 1 0.078 5.034 -0.028 
121 1 2.825 4.025 -7.534 
122 1 3.136 11.537 -0.315 
123 1 16.850 -9.682 -6.267 
124 1 1.774 12.783 9.304 
125 1 -12.063 -10.397 12.524 
126 1 -5.061 -6.179 14.675 
127 1 17.065 5.698 13.916 
128 1 13.000 1.461 -9.369 
129 1 -11.945 4.607 12.836 
130 1 -4.762 -2.815 14.009 
131 1 7.654 5.616 15.510 
132 1 -3.528 15.395 9.554 
133 1 -4.024 -12.501 16.426 
134 1 -5.681 -11.159 8.922 
135 1 -3.031 2.805 -2.583 
136 1 -16.699 6.719 8.934 
137 1 14.339 5.800 3.178 
138 1 -11.401 4.930 6.068 
139 1 -3.960 -0.367 3.503 
140 1 3.346 6.034 17.270 
141 1 -7.419 -8.793 -9.138 
142 1 -14.645 1.882 -1.555 
143 1 -2.123 10.878 11.455 
144 1 10.348 7.961 -14.297 
145 1 2.670 15.882 10.386 
146 1 2.322 -9.675 14.576 
147 1 -13.079 10.878 2.550 
148 1 5.715 -17.868 -7.401 
149 1 -4.863 8.637 8.120 
150 1 -4.088 17.367 -3.359 
151 1 8.796 4.152 -8.119 
152 1 -17.414 -5.478 15.958 
153 1 -4.945 -11.101 -1.182 
154 1 -6.789 -17.841 -0.782 
155 1 4.894 -11.548 -6.570 
156 1 3.365 -13.092 15.065 
157 1 -11.952 10.248 -17.590 
158 1 -9.544 3.394 10.611 
159 1 16.171 -9.041 -0.469 
160 1 15.424 -10.505 5.490 
161 1 -3.466 -5.269 -6.943 
162 1 13.353 -2.995 -10.248 
163 1 15.322 -1.092 -3.584 
164 1 2.531 -5.797 -11.958 
165 1 -0.504 4.286 -11.409 
166 1 4.763 -5.382 16.847 
167 1 -14.231 4.345 8.794 
168 1 11.340 2.149 -14.286 
169 1 -7.549 -9.419 6.589 
170 1 15.152 -8.065 9.173 
171 1 5.862 -8.698 10.094 
172 1 5.227 2.402 -1.866 
173 1 1.543 2.229 17.820 
174 1 5.619 -9.477 -3.926 
175 1 14.585 -13.155 -9.074 
176 1 3.574 -16.722 -13.345 
177 1 7.422 -2.922 9.726 
178 1 0.134 17.293 -13.613 
179 1 8.350 -6.023 -6.432 
180 1 -11.670 6.761 15.291 
181 1 4.292 -7.151 13.208 
182 1 -7.948 7.181 8.215 
183 1 8.072 9.086 -16.698 
184 1 8.769 -6.824 2.876 
185 1 -1.813 -3.055 -9.361 
186 1 -16.805 -15.573 17.557 
187 1 0.680 0.862 -13.452 
188 1 -2.870 8.387 -13.481 
189 1 -1.459 -6.435 -17.898 
190 1 13.070 16.126 -0.239 
191 1 16.777 -0.183 8.973 
192 1 -17.892 8.192 5.253 
193 1 -15.837 -12.971 12.731 
194 1 -6.998 -17.528 17.725 
195 1 4.064 1.817 7.648 
196 1 4.440 -0.253 -7.212 
197 1 -4.712 3.862 4.593 
198 1 3.029 -2.411 -15.759 
199 1 -8.468 -11.144 -14.352 
200 1 7.149 13.520 -7.383 
ITEM: TIMESTEP
20000
ITEM: NUMBER OF ATOMS
200
ITEM: BOX BOUNDS pp pp pp
-17.980597440828447 17.980597440828447
-17.980597440828447 17.980597440828447
-17.980597440828447 17.980597440828447
ITEM: ATOMS id type x y z
1 1 8.915 -14.626 -13.882 
2 1 8.796 10.485 -2.194 
3 1 -7.051 15.236 11.239 
4 1 -9.983 15.819 -10.137 
5 1 -8.458 -2.961 -17.726 
6 1 11.788 -7.779 8.140 
7 1 -2.808 -2.191 -0.506 
8 1 0.525 2.571 3.244 
9 1 8.315 -7.520 10.782 
10 1 15.660 -14.054 -15.728 
11 1 -1.301 -3.699 14.793 
12 1 -9.012 -5.287 16.157 
13 1 10.759 4.815 -11.986 
14 1 7.798 -10.357 3.974 
15 1 3.596 3.444 -13.605 
16 1 -10.797 16.430 -6.516 
17 1 -7.360 12.786 6.275 
18 1 16.040 -3.810 -0.324 
19 1 17.694 3.525 10.630 
20 1 0.900 11.996 -11.889 
21 1 -17.369 4.576 -9.723 
22 1 -8.421 -15.048 9.782 
23 1 -6.865 3.959 -10.534 
24 1 15.611 -5.771 -12.237 
25 1 -17.029 -8.244 -9.169 
26 1 -13.059 12.280 10.913 
27 1 -14.754 8.938 -2.347 
28 1 4.080 -13.172 -12.666 
29 1 -16.979 12.691 16.489 
30 1 -2.974 -16.823 15.235 
31 1 -2.474 -15.839 -9.820 
32 1 -3.901 -15.026 12.755 
33 1 -9.114 -6.970 10.512 
34 1 0.875 -15.375 13.880 
35 1 6.917 1.100 2.577 
36 1 -2.664 -2.999 -15.637 
37 1 -15.556 -1.145 2.956 
38 1 -7.759 4.841 16.507 
39 1 13.944 -6.162 5.147 
40 1 10.647 -11.659 -13.140 
41 1 10.153 -10.650 -17.189 
42 1 1.951 9.131 2.411 
43 1 -4.463 1.706 -16.666 
44 1 12.211 5.872 9.107 
45 1 -13.288 7.810 6.193 
46 1 8.433 0.067 -7.617 
47 1 9.765 -13.088 -9.413 
48 1 -14.594 16.554 4.325 
49 1 17.726 -2.350 -11.771 
50 1 1.281 -15.371 -8.580 
51 1 -4.529 -4.789 2.496 
52 1 -12.456 -5.693 9.538 
53 1 0.579 -14.034 17.093 
54 1 9.279 -14.657 -2.197 
55 1 7.602 -3.692 -15.585 
56 1 -2.934 17.205 6.831 
57 1 -3.650 -1.061 -13.189 
58 1 6.632 -2.135 -9.879 
59 1 13.185 -8.044 11.627 
60 1 -6.285 -1.880 9.785 
61 1 12.436 -3.492 12.759 
62 1 12.994 2.767 -1.155 
63 1 -3.305 -16.846 -17.303 
64 1 -5.043 -6.772 -12.213 
65 1 -12.498 2.570 0.959 
66 1 -7.721 6.526 -7.974 
67 1 3.420 -1.320 -12.439 
68 1 -13.877 -12.360 9.724 
69 1 2.165 -4.366 1.575 
70 1 -12.666 12.984 -4.777 
71 1 -8.457 -15.190 -5.568 
72 1 14.169 7.385 -7.674 
73 1 -3.807 -9.309 -17.077 
74 1 -7.629 17.394 -4.298 
75 1 15.530 1.872 17.711 
76 1 17.520 8.660 -0.779 
77 1 15.169 -1.506 -14.641 
78 1 -0.339 15.491 12.260 
79 1 -14.381 -9.333 7.631 
80 1 -12.532 3.225 -10.259 
81 1 -4.232 -7.313 11.381 
82 1 -2.532 0.089 10.301 
83 1 7.675 -12.229 7.325 
84 1 -0.289 11.942 15.534 
85 1 -1.139 14.701 -2.634 
86 1 -3.461 7.121 11.933 
87 1 -10.703 -3.819 2.500 
88 1 8.245 17.784 -2.396 
89 1 4.700 11.294 6.691 
90 1 11.111 -6.429 -8.518 
91 1 5.197 6.512 -8.505 
92 1 12.220 7.621 17.880 
93 1 3.892 -1.315 -0.983 
94 1 -10.146 13.025 -13.460 
95 1 -8.498 10.254 -15.159 
96 1 -17.861 -11.156 -4.784 
97 1 -2.193 -12.863 5.002 
98 1 0.052 -1.291 -2.966 
99 1 -5.084 3.623 -0.516 
100 1 17.741 10.274 -5.048 
101 1 6.807 4.989 1.625 
102 1 -4.801 -15.534 -12.753 
103 1 2.869 -12.185 11.510 
104 1 16.851 16.625 4.462 
105 1 10.061 -13.845 9.276 
106 1 -1.077 -12.201 -9.167 
107 1 11.591 13.338 2.922 
108 1 -0.767 -17.125 9.360 
109 1 2.133 -9.073 -16.716 
110 1 14.119 -3.463 7.825 
111 1 -17.259 -14.938 -10.332 
112 1 -17.467 -11.094 10.103 
113 1 -11.240 9.458 4.591 
114 1 -0.947 -9.159 10.137 
115 1 14.965 2.426 6.473 
116 1 -10.598 -14.234 6.142 
117 1 13.052 13.302 -9.166 
118 1 -10.230 2.662 -2.155 
119 1 -10.145 -2.111 8.063 
120 1 -0.918 4.466 0.181 
121 1 2.852 2.741 -8.829 
122 1 3.436 11.333 0.350 
123 1 15.314 -9.299 -7.235 
124 1 2.454 12.322 9.217 
125 1 -11.677 -10.614 12.934 
126 1 -6.118 -6.306 14.537 
127 1 17.605 6.700 13.147 
128 1 13.043 0.822 -10.363 
129 1 -12.361 3.972 12.904 
130 1 -5.113 -1.936 14.113 
131 1 7.563 4.931 15.640 
132 1 -3.394 14.744 10.075 
133 1 -2.880 -13.295 17.517 
134 1 -5.181 -11.073 9.184 
135 1 -2.396 1.867 -1.837 
136 1 -15.883 5.628 8.063 
137 1 15.088 7.002 3.395 
138 1 -10.646 4.247 6.473 
139 1 -3.061 0.544 2.921 
140 1 4.091 5.638 17.318 
141 1 -7.828 -8.918 -9.300 
142 1 -14.620 2.475 -2.211 
143 1 -2.054 10.681 11.522 
144 1 11.652 7.111 -14.095 
145 1 4.346 15.952 9.698 
146 1 2.180 -10.084 14.361 
147 1 -13.152 10.887 0.801 
148 1 6.462 -16.723 -8.120 
149 1 -4.934 9.558 7.281 
150 1 -3.986 16.688 -3.979 
151 1 8.562 3.696 -8.879 
152 1 -17.823 -5.458 16.788 
153 1 -4.761 -10.717 -0.386 
154 1 -6.812 17.584 -0.626 
155 1 4.573 -11.665 -7.398 
156 1 4.041 -12.706 16.033 
157 1 -11.815 9.913 -17.186 
158 1 -9.783 3.666 9.819 
159 1 14.239 -9.181 0.065 
160 1 15.237 -10.425 5.879 
161 1 -3.892 -3.958 -7.123 
162 1 14.151 -2.772 -10.621 
163 1 15.597 -1.199 -3.464 
164 1 1.694 -5.649 -11.607 
165 1 -0.752 3.894 -12.265 
166 1 4.341 -4.419 16.098 
167 1 -14.408 3.038 10.066 
168 1 11.273 1.901 -14.433 
169 1 -6.368 -9.496 5.985 
170 1 15.466 -8.155 8.762 
171 1 5.329 -8.284 9.350 
172 1 4.675 2.065 -2.139 
173 1 1.711 2.043 17.519 
174 1 5.126 -9.185 -4.693 
175 1 16.046 -13.968 -8.926 
176 1 3.921 -16.535 -13.339 
177 1 7.316 -2.670 8.970 
178 1 0.307 16.793 -13.864 
179 1 7.713 -6.285 -5.790 
180 1 -12.349 7.134 14.835 
181 1 3.019 -7.052 13.465 
182 1 -8.175 6.679 8.353 
183 1 9.114 9.611 -15.880 
184 1 9.777 -6.808 1.611 
185 1 -1.460 -3.827 -9.872 
186 1 -14.349 -16.578 17.366 
187 1 0.935 0.816 -14.329 
188 1 -2.776 7.367 -13.926 
189 1 -0.942 -6.987 -17.494 
190 1 13.427 16.158 -0.673 
191 1 17.056 0.038 8.540 
192 1 16.877 6.256 6.152 
193 1 -15.522 -12.781 12.921 
194 1 -7.243 -17.741 17.284 
195 1 4.063 1.774 7.874 
196 1 4.157 0.342 -7.160 
197 1 -4.265 4.815 4.090 
198 1 3.081 -2.472 -16.754 
199 1 -8.202 -11.862 -14.505 
200 1 7.815 14.355 -7.260 
