ITEM: TIMESTEP
0
ITEM: NUMBER OF ATOMS
200
ITEM: BOX BOUNDS pp pp pp
-17.980597440828447 17.980597440828447
-17.980597440828447 17.980597440828447
-17.980597440828447 17.980597440828447
ITEM: ATOMS id type x y z
1 1 12.071 -16.971 -13.679 
2 1 6.470 5.448 0.150 
3 1 -8.795 12.372 8.933 
4 1 -7.427 -14.883 -14.900 
5 1 -8.881 -5.566 17.761 
6 1 14.457 -7.375 4.795 
7 1 -4.083 -8.879 -0.916 
8 1 2.839 5.895 0.055 
9 1 9.583 -6.975 8.941 
10 1 -16.606 -9.881 -12.793 
11 1 2.627 -2.857 -14.099 
12 1 -6.445 -5.806 16.197 
13 1 12.753 6.737 -10.532 
14 1 9.613 -10.904 6.144 
15 1 -1.588 4.409 -11.629 
16 1 -11.003 -17.713 -6.987 
17 1 -5.086 8.527 7.649 
18 1 15.620 -2.868 3.340 
19 1 -13.022 3.231 8.840 
20 1 6.173 3.978 -12.686 
21 1 16.918 5.050 -8.061 
22 1 -8.497 17.867 14.953 
23 1 -6.864 0.659 -6.026 
24 1 13.514 0.816 -10.819 
25 1 15.691 -7.532 -12.001 
26 1 -12.116 6.812 11.735 
27 1 -14.069 5.211 0.082 
28 1 5.024 -16.651 -16.556 
29 1 -13.679 12.972 16.154 
30 1 -5.493 -13.351 14.825 
31 1 -2.915 -13.398 -11.013 
32 1 -4.664 -14.015 8.467 
33 1 -9.137 -3.913 7.620 
34 1 5.417 -15.528 12.642 
35 1 10.381 5.177 6.236 
36 1 -3.379 0.800 -12.171 
37 1 -17.755 -0.569 4.929 
38 1 -10.388 1.931 17.643 
39 1 13.679 -4.370 7.589 
40 1 11.539 -10.957 -11.204 
41 1 7.535 -9.394 -17.577 
42 1 1.753 12.105 3.938 
43 1 -6.287 -1.787 -15.533 
44 1 10.598 12.012 5.681 
45 1 -13.724 12.585 6.010 
46 1 11.628 -0.014 -4.064 
47 1 5.997 -9.587 -7.756 
48 1 -16.073 15.149 5.350 
49 1 16.847 0.339 -13.474 
50 1 -0.059 17.785 -10.717 
51 1 1.417 -9.930 5.417 
52 1 -15.450 -8.527 4.971 
53 1 3.180 -14.858 -14.090 
54 1 13.224 -14.955 -6.506 
55 1 6.339 -0.977 -17.454 
56 1 -4.520 16.312 8.409 
57 1 -2.173 1.943 -13.942 
58 1 5.596 -4.225 -14.546 
59 1 12.317 -9.366 12.205 
60 1 -6.013 -3.171 6.006 
61 1 16.167 3.957 14.224 
62 1 13.473 -0.541 4.094 
63 1 -0.482 -14.984 17.774 
64 1 -2.423 -9.540 -16.554 
65 1 -16.473 -0.352 8.320 
66 1 -7.946 0.290 -3.639 
67 1 4.031 -2.273 -7.111 
68 1 -11.453 -8.672 8.378 
69 1 -0.697 -6.892 -0.254 
70 1 -12.883 10.355 -5.232 
71 1 -7.336 -15.094 -4.298 
72 1 -17.486 14.872 -8.534 
73 1 -5.466 -12.717 -16.806 
74 1 -5.383 16.413 -4.744 
75 1 15.531 3.263 -12.635 
76 1 15.716 12.326 -3.791 
77 1 -14.446 0.681 13.822 
78 1 -1.497 13.620 14.119 
79 1 -13.683 -15.381 2.706 
80 1 -17.485 2.334 -9.957 
81 1 -8.062 -9.223 11.152 
82 1 -0.879 -0.231 15.089 
83 1 4.334 -8.440 7.295 
84 1 -8.587 7.885 -15.895 
85 1 1.103 14.811 -1.804 
86 1 -5.882 6.536 12.392 
87 1 -5.945 -4.296 4.526 
88 1 6.978 17.515 -0.102 
89 1 8.197 16.636 2.814 
90 1 10.230 -6.028 -11.782 
91 1 5.946 5.786 -9.212 
92 1 10.518 5.431 15.122 
93 1 5.258 -1.665 5.519 
94 1 -15.645 -17.883 -17.241 
95 1 -4.800 10.392 -16.917 
96 1 -17.781 -12.310 -9.402 
97 1 0.588 -10.426 13.328 
98 1 0.760 -0.535 -2.551 
99 1 -8.773 1.141 -2.017 
100 1 16.083 10.553 -12.705 
101 1 3.556 4.579 2.487 
102 1 -7.221 -14.494 -8.195 
103 1 1.408 -11.066 11.441 
104 1 17.821 -17.084 10.301 
105 1 7.355 -17.151 12.727 
106 1 0.456 -17.544 -8.066 
107 1 12.378 11.115 3.401 
108 1 3.717 15.812 8.722 
109 1 3.197 -5.102 -16.518 
110 1 10.308 1.885 7.898 
111 1 16.875 -13.713 -9.380 
112 1 16.900 -10.726 9.533 
113 1 -15.216 7.174 5.004 
114 1 -3.965 -9.464 16.410 
115 1 11.566 6.101 6.912 
116 1 -3.662 -17.757 7.746 
117 1 15.635 -17.593 -11.265 
118 1 -6.394 5.539 -1.739 
119 1 -12.510 -2.181 11.483 
120 1 1.471 7.551 5.337 
121 1 2.276 5.556 -3.032 
122 1 3.752 6.720 0.451 
123 1 -14.873 -8.848 -9.684 
124 1 -0.516 16.826 6.881 
125 1 -11.437 -7.700 8.656 
126 1 -6.534 -10.205 14.557 
127 1 -16.953 6.773 11.911 
128 1 11.553 1.192 -8.563 
129 1 -14.586 7.066 14.192 
130 1 -2.468 -3.563 10.549 
131 1 9.778 9.574 14.822 
132 1 -3.941 13.799 12.253 
133 1 0.554 -15.628 16.468 
134 1 -2.930 -4.729 -0.145 
135 1 -1.119 2.118 -2.569 
136 1 -14.363 3.916 6.428 
137 1 15.861 11.986 3.341 
138 1 -12.841 4.350 2.049 
139 1 -8.499 -0.679 -2.758 
140 1 1.980 9.895 12.032 
141 1 -7.012 -6.179 -5.737 
142 1 -14.984 -3.013 -0.577 
143 1 -2.892 8.081 8.857 
144 1 4.098 7.923 -17.322 
145 1 0.632 -17.476 11.852 
146 1 0.580 -11.029 15.574 
147 1 -13.246 8.669 -1.067 
148 1 2.657 -14.633 -4.798 
149 1 -2.628 7.965 3.963 
150 1 -6.169 15.814 2.454 
151 1 5.025 1.743 -5.562 
152 1 15.917 -0.103 15.984 
153 1 -1.219 -13.025 0.685 
154 1 -6.844 -16.341 -0.585 
155 1 6.630 -7.760 -5.241 
156 1 10.250 -14.578 15.226 
157 1 -14.577 15.454 17.194 
158 1 -9.723 5.732 11.221 
159 1 10.190 -10.724 2.470 
160 1 13.191 -7.565 8.028 
161 1 -0.613 -7.341 -8.321 
162 1 9.311 -2.352 -10.564 
163 1 13.221 0.035 -3.735 
164 1 5.091 -12.302 -17.979 
165 1 2.811 7.297 -10.522 
166 1 -0.349 -1.294 16.083 
167 1 -10.561 3.708 9.246 
168 1 16.588 -3.524 -15.998 
169 1 -6.985 -13.757 12.461 
170 1 10.169 -9.625 10.321 
171 1 5.498 -5.189 14.308 
172 1 10.402 0.500 -2.723 
173 1 1.573 2.090 16.664 
174 1 6.133 -13.401 -0.529 
175 1 14.414 -11.761 -10.016 
176 1 2.255 16.827 -9.970 
177 1 0.191 -0.884 10.839 
178 1 3.394 17.195 -16.753 
179 1 10.292 -13.067 -12.109 
180 1 -11.332 2.767 11.640 
181 1 -0.027 -1.187 11.591 
182 1 -8.766 10.001 12.142 
183 1 13.302 11.811 15.655 
184 1 9.092 -1.886 1.342 
185 1 0.629 -1.028 -7.141 
186 1 13.282 -14.947 -15.803 
187 1 0.754 5.914 -17.685 
188 1 -2.686 3.982 -14.376 
189 1 -0.249 -8.106 -16.166 
190 1 8.553 14.854 0.692 
191 1 14.581 1.076 8.279 
192 1 -17.920 10.980 14.452 
193 1 -14.559 -13.011 7.314 
194 1 -10.028 16.644 13.974 
195 1 7.849 9.598 9.476 
196 1 8.732 3.279 -7.355 
197 1 -4.677 2.527 4.609 
198 1 3.751 -3.928 -14.494 
199 1 -10.940 -15.768 -15.056 
200 1 4.604 14.815 -10.037 
ITEM: TIMESTEP
10
ITEM: NUMBER OF ATOMS
200
ITEM: BOX BOUNDS pp pp pp
-17.980597440828447 17.980597440828447
-17.980597440828447 17.980597440828447
-17.980597440828447 17.980597440828447
ITEM: ATOMS id type x y z
1 1 12.071 -16.972 -13.678 
2 1 6.474 5.446 0.150 
3 1 -8.795 12.372 8.933 
4 1 -7.427 -14.883 -14.899 
5 1 -8.885 -5.566 17.764 
6 1 14.457 -7.375 4.794 
7 1 -4.083 -8.879 -0.916 
8 1 2.427 5.525 -0.123 
9 1 9.582 -6.973 8.939 
10 1 -16.606 -9.881 -12.793 
11 1 2.251 -2.469 -13.956 
12 1 -6.441 -5.807 16.194 
13 1 12.753 6.737 -10.532 
14 1 9.613 -10.904 6.144 
15 1 -1.587 4.409 -11.626 
16 1 -11.003 -17.713 -6.987 
17 1 -5.110 8.532 7.635 
18 1 15.620 -2.869 3.340 
19 1 -13.047 3.224 8.840 
20 1 6.173 3.978 -12.686 
21 1 16.918 5.050 -8.061 
22 1 -8.403 17.942 15.013 
23 1 -6.822 0.665 -6.124 
24 1 13.516 0.815 -10.822 
25 1 15.691 -7.532 -12.001 
26 1 -12.129 6.818 11.738 
27 1 -14.088 5.224 0.051 
28 1 5.032 -16.639 -16.555 
29 1 -13.677 12.967 16.152 
30 1 -5.489 -13.350 14.831 
31 1 -2.915 -13.398 -11.013 
32 1 -4.664 -14.015 8.467 
33 1 -9.137 -3.913 7.620 
34 1 5.394 -15.509 12.641 
35 1 10.090 4.950 6.070 
36 1 -3.408 0.775 -12.130 
37 1 -17.755 -0.569 4.929 
38 1 -10.388 1.931 17.643 
39 1 13.680 -4.370 7.589 
40 1 11.547 -10.940 -11.198 
41 1 7.535 -9.394 -17.577 
42 1 1.753 12.105 3.938 
43 1 -6.287 -1.787 -15.533 
44 1 10.597 12.012 5.683 
45 1 -13.724 12.585 6.010 
46 1 11.383 -0.138 -4.449 
47 1 5.997 -9.587 -7.757 
48 1 -16.073 15.149 5.350 
49 1 16.847 0.339 -13.474 
50 1 -0.079 17.790 -10.731 
51 1 1.417 -9.930 5.417 
52 1 -15.450 -8.527 4.971 
53 1 3.180 -14.858 -14.090 
54 1 13.224 -14.955 -6.506 
55 1 6.339 -0.977 -17.454 
56 1 -4.574 16.191 8.452 
57 1 -2.106 1.818 -13.952 
58 1 6.125 -4.261 -14.544 
59 1 12.321 -9.366 12.208 
60 1 -6.023 -2.990 6.244 
61 1 16.167 3.957 14.224 
62 1 13.473 -0.541 4.095 
63 1 -0.676 -14.863 -17.942 
64 1 -2.438 -9.550 -16.557 
65 1 -16.473 -0.352 8.320 
66 1 -7.742 0.582 -3.951 
67 1 4.031 -2.273 -7.111 
68 1 -11.464 -9.367 8.179 
69 1 -0.696 -6.893 -0.254 
70 1 -12.883 10.355 -5.232 
71 1 -7.336 -15.094 -4.298 
72 1 -17.486 14.872 -8.534 
73 1 -5.466 -12.716 -16.806 
74 1 -5.383 16.413 -4.744 
75 1 15.531 3.264 -12.635 
76 1 15.716 12.326 -3.791 
77 1 -14.446 0.681 13.822 
78 1 -1.495 13.620 14.120 
79 1 -13.683 -15.381 2.706 
80 1 -17.485 2.334 -9.957 
81 1 -8.062 -9.223 11.152 
82 1 -1.035 0.082 14.799 
83 1 4.334 -8.440 7.295 
84 1 -8.587 7.885 -15.895 
85 1 1.103 14.811 -1.804 
86 1 -5.882 6.536 12.392 
87 1 -5.934 -4.477 4.289 
88 1 6.977 17.516 -0.103 
89 1 8.196 16.641 2.821 
90 1 10.230 -6.028 -11.782 
91 1 5.946 5.785 -9.212 
92 1 10.518 5.431 15.122 
93 1 5.258 -1.665 5.519 
94 1 -15.645 -17.882 -17.241 
95 1 -4.800 10.392 -16.917 
96 1 -17.597 -12.113 -9.405 
97 1 0.525 -10.350 13.376 
98 1 0.760 -0.536 -2.551 
99 1 -8.839 1.311 -1.876 
100 1 16.083 10.553 -12.705 
101 1 3.557 4.577 2.491 
102 1 -7.221 -14.494 -8.195 
103 1 1.470 -11.115 11.298 
104 1 17.821 -17.084 10.301 
105 1 7.378 -17.170 12.728 
106 1 0.457 -17.541 -8.056 
107 1 12.379 11.114 3.399 
108 1 3.717 15.812 8.722 
109 1 3.158 -5.164 -16.649 
110 1 10.308 1.885 7.898 
111 1 16.691 -13.912 -9.377 
112 1 16.900 -10.726 9.533 
113 1 -15.216 7.174 5.004 
114 1 -3.965 -9.464 16.410 
115 1 11.857 6.328 7.078 
116 1 -3.608 -17.637 7.704 
117 1 15.635 -17.593 -11.265 
118 1 -6.394 5.539 -1.739 
119 1 -12.510 -2.181 11.483 
120 1 1.471 7.551 5.337 
121 1 2.275 5.555 -3.035 
122 1 4.159 7.095 0.630 
123 1 -14.873 -8.848 -9.684 
124 1 -0.515 16.826 6.881 
125 1 -11.426 -7.005 8.854 
126 1 -6.535 -10.205 14.556 
127 1 -16.953 6.773 11.910 
128 1 11.551 1.192 -8.561 
129 1 -14.585 7.066 14.193 
130 1 -2.468 -3.563 10.548 
131 1 9.778 9.574 14.822 
132 1 -3.942 13.800 12.252 
133 1 0.748 -15.748 16.223 
134 1 -2.931 -4.727 -0.145 
135 1 -1.120 2.118 -2.569 
136 1 -14.366 3.917 6.423 
137 1 15.861 11.986 3.341 
138 1 -12.821 4.336 2.081 
139 1 -8.680 -1.146 -2.490 
140 1 1.980 9.895 12.032 
141 1 -7.012 -6.179 -5.737 
142 1 -14.984 -3.013 -0.577 
143 1 -2.868 8.076 8.870 
144 1 4.098 7.923 -17.322 
145 1 0.632 -17.476 11.852 
146 1 0.580 -11.055 15.669 
147 1 -13.246 8.669 -1.067 
148 1 2.657 -14.633 -4.798 
149 1 -2.628 7.965 3.963 
150 1 -6.169 15.814 2.454 
151 1 5.025 1.743 -5.562 
152 1 15.917 -0.103 15.984 
153 1 -1.219 -13.025 0.685 
154 1 -6.844 -16.341 -0.585 
155 1 6.631 -7.759 -5.240 
156 1 10.250 -14.578 15.226 
157 1 -14.578 15.459 17.196 
158 1 -9.708 5.729 11.221 
159 1 10.190 -10.724 2.470 
160 1 13.191 -7.566 8.029 
161 1 -0.613 -7.341 -8.321 
162 1 9.311 -2.352 -10.564 
163 1 13.668 0.055 -3.624 
164 1 5.091 -12.302 -17.979 
165 1 2.811 7.297 -10.522 
166 1 -0.193 -1.606 16.374 
167 1 -10.530 3.715 9.236 
168 1 16.588 -3.524 -15.998 
169 1 -6.988 -13.758 12.456 
170 1 10.165 -9.628 10.318 
171 1 5.498 -5.189 14.308 
172 1 10.201 0.603 -2.449 
173 1 1.573 2.090 16.664 
174 1 6.133 -13.401 -0.529 
175 1 14.414 -11.760 -10.016 
176 1 2.272 16.819 -9.966 
177 1 0.401 -0.593 10.114 
178 1 3.385 17.183 -16.754 
179 1 10.282 -13.084 -12.116 
180 1 -11.336 2.761 11.653 
181 1 -0.237 -1.479 12.315 
182 1 -8.766 10.001 12.142 
183 1 13.302 11.811 15.655 
184 1 9.092 -1.886 1.342 
185 1 0.629 -1.027 -7.141 
186 1 13.282 -14.947 -15.804 
187 1 0.754 5.914 -17.685 
188 1 -2.725 4.133 -14.410 
189 1 -0.234 -8.096 -16.163 
190 1 8.555 14.848 0.686 
191 1 14.581 1.076 8.279 
192 1 -17.920 10.980 14.452 
193 1 -14.559 -13.011 7.314 
194 1 -10.122 16.570 13.914 
195 1 7.849 9.598 9.476 
196 1 8.732 3.279 -7.355 
197 1 -4.677 2.527 4.609 
198 1 3.636 -4.217 -14.507 
199 1 -10.940 -15.768 -15.056 
200 1 4.605 14.814 -10.037 
ITEM: TIMESTEP
20
ITEM: NUMBER OF ATOMS
200
ITEM: BOX BOUNDS pp pp pp
-17.980597440828447 17.980597440828447
-17.980597440828447 17.980597440828447
-17.980597440828447 17.980597440828447
ITEM: ATOMS id type x y z
1 1 12.054 -17.006 -13.216 
2 1 6.529 5.005 0.156 
3 1 -8.613 12.260 9.061 
4 1 -7.338 -14.922 -14.835 
5 1 -9.141 -5.497 -17.964 
6 1 14.445 -7.030 4.883 
7 1 -3.925 -8.653 -0.831 
8 1 1.630 5.069 -0.072 
9 1 9.566 -6.596 8.617 
10 1 -16.924 -9.793 -12.740 
11 1 1.555 -1.514 -13.988 
12 1 -5.969 -6.278 15.926 
13 1 13.034 6.470 -10.558 
14 1 9.724 -10.594 6.319 
15 1 -1.470 4.051 -11.497 
16 1 -10.774 -17.575 -6.940 
17 1 -5.637 8.651 7.379 
18 1 15.656 -3.284 3.557 
19 1 -13.807 2.840 9.448 
20 1 6.098 4.047 -12.569 
21 1 16.660 5.049 -8.297 
22 1 -7.886 -17.457 15.235 
23 1 -6.010 0.593 -8.219 
24 1 13.924 0.557 -11.151 
25 1 15.767 -7.951 -11.902 
26 1 -12.775 6.767 11.374 
27 1 -14.438 5.322 -0.397 
28 1 5.422 -16.061 -16.797 
29 1 -13.526 12.170 15.722 
30 1 -5.002 -13.366 15.257 
31 1 -2.922 -13.570 -11.037 
32 1 -4.891 -13.777 8.808 
33 1 -9.211 -3.867 7.601 
34 1 4.645 -15.159 12.742 
35 1 9.545 4.678 5.667 
36 1 -3.793 0.756 -11.539 
37 1 17.967 -0.492 4.967 
38 1 -10.422 1.930 17.516 
39 1 13.734 -4.240 7.190 
40 1 11.366 -10.070 -11.248 
41 1 7.397 -9.428 -17.569 
42 1 1.724 11.883 3.989 
43 1 -6.250 -1.772 -15.540 
44 1 10.281 12.059 6.065 
45 1 -13.641 12.416 6.040 
46 1 10.872 -0.530 -5.218 
47 1 5.956 -9.772 -8.034 
48 1 -16.210 15.197 5.303 
49 1 16.920 0.144 -13.420 
50 1 -0.832 -17.760 -11.179 
51 1 1.408 -9.968 5.468 
52 1 -15.369 -8.672 5.164 
53 1 2.972 -14.874 -14.163 
54 1 13.457 -14.837 -6.854 
55 1 6.192 -1.284 -17.263 
56 1 -4.822 15.500 8.632 
57 1 -1.249 1.399 -14.339 
58 1 7.049 -4.078 -14.660 
59 1 12.805 -9.206 12.225 
60 1 -5.704 -2.488 6.766 
61 1 16.307 3.882 14.197 
62 1 13.390 -0.355 4.539 
63 1 -1.175 -14.315 -17.509 
64 1 -2.511 -10.126 -16.244 
65 1 -16.271 -0.052 8.461 
66 1 -7.282 1.074 -3.617 
67 1 4.201 -2.078 -7.000 
68 1 -11.569 -10.137 8.030 
69 1 -0.519 -7.232 -0.259 
70 1 -12.920 10.265 -4.982 
71 1 -7.314 -15.355 -4.357 
72 1 -17.568 14.924 -8.565 
73 1 -5.233 -12.572 -17.067 
74 1 -5.505 16.699 -4.676 
75 1 15.584 3.773 -12.353 
76 1 15.746 12.339 -3.805 
77 1 -14.258 0.764 13.499 
78 1 -1.170 13.604 14.245 
79 1 -13.708 -15.343 2.816 
80 1 -17.813 2.144 -10.309 
81 1 -8.339 -9.275 10.853 
82 1 -1.465 0.889 14.767 
83 1 4.401 -8.520 7.407 
84 1 -8.381 7.982 -15.968 
85 1 1.121 14.834 -1.795 
86 1 -5.559 6.904 12.271 
87 1 -5.856 -4.845 3.694 
88 1 6.844 17.788 -0.220 
89 1 8.173 16.869 3.262 
90 1 10.157 -6.041 -11.813 
91 1 6.005 5.626 -9.121 
92 1 10.527 5.669 15.086 
93 1 5.301 -1.653 5.504 
94 1 -15.797 -17.298 -16.865 
95 1 -4.964 10.230 -16.888 
96 1 -17.464 -11.614 -9.473 
97 1 -0.090 -9.716 13.418 
98 1 0.961 -0.730 -2.858 
99 1 -9.538 1.993 -0.629 
100 1 16.041 10.492 -12.648 
101 1 3.917 4.658 2.954 
102 1 -7.227 -14.620 -8.115 
103 1 1.945 -11.476 10.527 
104 1 17.848 -17.050 10.262 
105 1 7.877 -17.358 12.890 
106 1 0.313 -17.128 -7.494 
107 1 12.409 10.942 3.071 
108 1 3.432 15.924 8.723 
109 1 3.081 -5.218 -17.591 
110 1 10.681 1.744 7.876 
111 1 16.398 -14.780 -9.081 
112 1 16.739 -10.610 9.462 
113 1 -15.129 7.391 4.811 
114 1 -3.663 -9.573 16.144 
115 1 12.279 6.698 7.366 
116 1 -3.389 -17.106 7.483 
117 1 15.394 -17.641 -11.421 
118 1 -6.522 5.240 -1.737 
119 1 -12.560 -1.910 11.398 
120 1 1.367 7.607 5.005 
121 1 2.389 5.412 -3.762 
122 1 4.085 7.817 0.994 
123 1 -14.865 -8.777 -9.671 
124 1 -0.253 16.610 7.075 
125 1 -11.454 -6.499 9.249 
126 1 -6.971 -10.212 14.380 
127 1 -16.995 6.651 11.813 
128 1 11.289 1.205 -8.553 
129 1 -14.682 7.202 14.720 
130 1 -2.553 -3.475 10.322 
131 1 9.997 9.476 14.834 
132 1 -4.286 13.768 12.004 
133 1 1.290 -15.818 15.669 
134 1 -3.370 -4.688 -0.049 
135 1 -1.068 2.525 -2.547 
136 1 -14.608 3.712 5.842 
137 1 16.094 12.081 3.403 
138 1 -12.483 4.174 2.637 
139 1 -9.062 -1.958 -1.996 
140 1 1.884 9.941 12.015 
141 1 -6.985 -6.129 -5.664 
142 1 -14.967 -2.984 -0.544 
143 1 -2.361 7.969 9.148 
144 1 3.994 7.814 -17.323 
145 1 0.796 -17.406 11.947 
146 1 0.508 -11.481 16.756 
147 1 -13.184 8.852 -1.283 
148 1 2.564 -14.779 -4.914 
149 1 -2.483 7.938 4.316 
150 1 -6.161 15.955 2.398 
151 1 5.060 1.700 -5.719 
152 1 15.983 0.084 15.960 
153 1 -1.260 -12.883 0.648 
154 1 -6.802 -16.470 -0.694 
155 1 6.679 -7.555 -5.009 
156 1 10.056 -14.691 15.143 
157 1 -14.524 15.618 17.070 
158 1 -9.172 5.863 11.516 
159 1 10.176 -10.710 2.524 
160 1 13.026 -8.099 8.381 
161 1 -0.588 -7.315 -8.320 
162 1 9.414 -2.321 -10.577 
163 1 14.069 0.184 -3.281 
164 1 4.881 -12.491 -17.931 
165 1 2.818 7.138 -10.600 
166 1 0.249 -1.912 16.772 
167 1 -10.137 3.597 8.641 
168 1 16.575 -3.279 -15.868 
169 1 -7.094 -13.522 12.075 
170 1 9.976 -10.082 9.995 
171 1 5.372 -5.196 14.534 
172 1 10.007 0.723 -1.710 
173 1 1.483 2.030 16.877 
174 1 6.158 -13.556 -0.528 
175 1 14.774 -11.440 -10.015 
176 1 2.635 16.998 -9.992 
177 1 0.431 -0.451 9.533 
178 1 2.967 17.003 -16.804 
179 1 10.304 -13.700 -12.419 
180 1 -11.277 2.775 12.226 
181 1 -0.059 -2.093 12.908 
182 1 -8.708 9.616 11.941 
183 1 13.224 11.623 15.572 
184 1 9.213 -1.685 1.244 
185 1 0.574 -0.899 -6.888 
186 1 13.319 -14.679 -15.913 
187 1 0.747 5.655 -17.630 
188 1 -2.983 4.789 -14.892 
189 1 0.443 -7.733 -16.211 
190 1 8.707 14.418 0.427 
191 1 14.441 0.915 7.927 
192 1 -17.756 10.829 14.478 
193 1 -14.458 -12.739 7.244 
194 1 -10.627 16.127 13.725 
195 1 7.984 9.618 9.390 
196 1 8.336 3.256 -7.211 
197 1 -4.698 2.540 4.633 
198 1 3.381 -4.942 -13.814 
199 1 -11.105 -15.830 -15.125 
200 1 5.218 14.224 -10.084 
ITEM: TIMESTEP
30
ITEM: NUMBER OF ATOMS
200
ITEM: BOX BOUNDS pp pp pp
-17.980597440828447 17.980597440828447
-17.980597440828447 17.980597440828447
-17.980597440828447 17.980597440828447
ITEM: ATOMS id type x y z
1 1 11.995 -17.023 -12.964 
2 1 5.693 4.995 0.013 
3 1 -7.655 12.225 9.000 
4 1 -7.265 -14.769 -15.100 
5 1 -8.703 -5.442 17.928 
6 1 14.293 -6.999 4.935 
7 1 -3.970 -8.684 -0.706 
8 1 1.864 4.895 -0.056 
9 1 9.665 -6.602 8.274 
10 1 -17.149 -9.792 -12.801 
11 1 1.693 -1.565 -15.060 
12 1 -5.713 -6.992 16.031 
13 1 13.240 6.213 -10.582 
14 1 10.142 -9.862 6.298 
15 1 -1.245 3.857 -11.648 
16 1 -9.980 -17.252 -6.716 
17 1 -5.832 8.856 7.920 
18 1 15.602 -3.554 3.945 
19 1 -14.478 2.930 10.057 
20 1 5.667 4.287 -12.376 
21 1 16.265 4.809 -8.816 
22 1 -7.881 -17.077 14.987 
23 1 -5.734 0.697 -8.191 
24 1 14.249 0.660 -10.832 
25 1 15.418 -8.525 -11.580 
26 1 -12.530 6.103 11.334 
27 1 -14.383 5.350 -0.204 
28 1 5.539 -15.865 -17.281 
29 1 -13.847 11.930 15.458 
30 1 -4.677 -13.437 15.046 
31 1 -2.842 -14.075 -11.077 
32 1 -4.928 -13.854 9.098 
33 1 -9.069 -3.883 7.628 
34 1 4.148 -15.176 13.201 
35 1 9.465 4.564 5.595 
36 1 -3.730 0.936 -11.692 
37 1 17.247 -0.455 5.364 
38 1 -10.549 1.965 17.002 
39 1 13.469 -3.915 7.090 
40 1 11.640 -9.613 -11.468 
41 1 6.817 -9.648 -17.577 
42 1 1.682 11.283 3.926 
43 1 -6.162 -1.753 -15.547 
44 1 10.167 11.662 6.233 
45 1 -13.749 12.263 5.990 
46 1 10.393 -0.243 -5.424 
47 1 6.011 -9.750 -8.107 
48 1 -16.405 14.936 5.212 
49 1 16.825 0.387 -13.635 
50 1 -0.740 -17.268 -11.207 
51 1 1.462 -10.038 5.698 
52 1 -14.933 -8.992 5.754 
53 1 2.607 -14.989 -14.931 
54 1 13.375 -14.442 -7.444 
55 1 5.287 -1.950 -17.012 
56 1 -4.646 15.356 8.533 
57 1 -0.976 1.298 -14.556 
58 1 7.052 -4.243 -14.374 
59 1 13.320 -9.155 11.870 
60 1 -5.462 -2.653 6.914 
61 1 16.811 3.747 14.059 
62 1 13.280 -0.677 4.917 
63 1 -1.592 -14.010 -17.862 
64 1 -1.866 -10.454 -16.341 
65 1 -16.282 0.126 8.183 
66 1 -7.147 1.262 -3.769 
67 1 4.297 -1.756 -6.722 
68 1 -11.636 -10.123 8.093 
69 1 -0.524 -7.220 -0.121 
70 1 -12.980 10.206 -4.822 
71 1 -7.564 -15.494 -4.342 
72 1 -17.839 15.100 -8.670 
73 1 -5.029 -12.408 -17.291 
74 1 -5.791 17.135 -4.341 
75 1 15.579 3.820 -12.448 
76 1 15.823 12.382 -3.849 
77 1 -14.871 1.060 13.171 
78 1 -1.100 13.482 13.814 
79 1 -13.783 -15.113 3.220 
80 1 17.852 1.687 -10.213 
81 1 -8.708 -9.630 10.861 
82 1 -1.331 0.713 14.967 
83 1 4.488 -8.818 7.722 
84 1 -8.187 8.011 -16.062 
85 1 1.180 14.886 -1.768 
86 1 -5.261 7.741 11.492 
87 1 -5.650 -4.656 3.592 
88 1 6.905 -17.953 -0.139 
89 1 8.127 16.907 3.323 
90 1 9.924 -5.961 -11.926 
91 1 5.924 5.250 -8.668 
92 1 10.647 5.752 15.031 
93 1 5.454 -1.599 5.444 
94 1 -15.384 -17.418 -16.890 
95 1 -5.040 10.017 -16.896 
96 1 -17.817 -11.386 -9.422 
97 1 -0.414 -10.063 13.553 
98 1 1.379 -0.415 -3.152 
99 1 -9.502 2.053 -0.696 
100 1 15.914 10.227 -12.460 
101 1 3.754 4.710 3.264 
102 1 -7.224 -14.970 -8.132 
103 1 1.978 -11.321 10.677 
104 1 17.906 -16.995 10.172 
105 1 7.520 -17.028 13.071 
106 1 0.346 -16.957 -7.548 
107 1 12.425 11.070 3.231 
108 1 2.951 16.307 9.150 
109 1 2.880 -4.713 -17.759 
110 1 11.276 1.651 7.307 
111 1 16.663 -14.812 -9.269 
112 1 16.051 -10.198 9.407 
113 1 -14.735 6.928 4.568 
114 1 -3.258 -10.094 16.142 
115 1 11.998 6.751 7.427 
116 1 -3.438 -17.060 7.646 
117 1 15.376 -17.710 -11.370 
118 1 -6.799 4.529 -1.773 
119 1 -12.586 -1.019 10.850 
120 1 1.355 7.510 4.268 
121 1 2.723 4.645 -3.790 
122 1 3.650 8.009 1.257 
123 1 -15.030 -8.733 -9.771 
124 1 -0.548 16.461 7.582 
125 1 -11.036 -6.639 9.481 
126 1 -6.718 -10.225 14.364 
127 1 -17.275 6.142 11.918 
128 1 11.028 1.027 -8.928 
129 1 -14.522 7.760 14.703 
130 1 -2.604 -3.119 10.188 
131 1 10.068 9.514 14.712 
132 1 -4.490 13.440 11.828 
133 1 1.616 -15.081 16.138 
134 1 -3.629 -4.975 0.297 
135 1 -0.425 2.879 -2.475 
136 1 -14.444 3.386 6.244 
137 1 16.136 12.213 3.571 
138 1 -12.555 4.261 2.982 
139 1 -8.999 -1.539 -1.929 
140 1 1.452 10.165 12.016 
141 1 -6.900 -6.015 -5.474 
142 1 -14.907 -2.905 -0.492 
143 1 -2.293 8.034 9.015 
144 1 3.673 7.458 -17.266 
145 1 1.208 -17.360 12.003 
146 1 0.654 -11.259 16.946 
147 1 -13.157 8.802 -1.258 
148 1 2.491 -14.977 -5.049 
149 1 -2.361 7.987 5.256 
150 1 -6.170 16.445 2.024 
151 1 4.602 1.948 -5.738 
152 1 16.192 0.495 15.885 
153 1 -1.400 -12.365 0.543 
154 1 -6.603 -17.128 -0.968 
155 1 6.649 -7.490 -5.087 
156 1 9.706 -14.722 15.205 
157 1 -14.175 15.603 16.790 
158 1 -8.753 5.924 11.677 
159 1 10.167 -10.666 2.594 
160 1 13.008 -8.280 8.206 
161 1 -0.522 -7.252 -8.309 
162 1 9.683 -2.236 -10.565 
163 1 13.590 0.233 -3.281 
164 1 4.019 -12.534 17.947 
165 1 3.022 6.528 -10.906 
166 1 0.726 -1.890 17.037 
167 1 -10.867 3.383 8.181 
168 1 16.536 -2.820 -15.703 
169 1 -7.189 -13.160 12.077 
170 1 10.090 -9.996 10.060 
171 1 5.079 -5.075 15.147 
172 1 10.127 0.726 -1.738 
173 1 1.321 1.772 17.523 
174 1 6.262 -14.165 -0.481 
175 1 14.424 -11.914 -10.129 
176 1 2.559 17.189 -10.105 
177 1 0.206 -0.590 9.716 
178 1 2.554 17.779 -16.889 
179 1 11.114 -13.316 -12.418 
180 1 -11.280 2.676 12.276 
181 1 -0.020 -2.331 13.137 
182 1 -8.250 9.862 11.897 
183 1 13.319 11.394 15.482 
184 1 9.447 -1.441 1.375 
185 1 0.698 -0.526 -6.859 
186 1 13.094 -14.390 -15.488 
187 1 0.535 5.242 -17.161 
188 1 -2.598 4.703 -15.108 
189 1 0.932 -7.766 -16.641 
190 1 8.638 14.542 0.396 
191 1 14.890 0.667 8.069 
192 1 -17.237 10.331 14.440 
193 1 -14.396 -12.574 6.953 
194 1 -10.722 16.137 14.215 
195 1 8.528 9.642 8.994 
196 1 8.247 2.698 -6.940 
197 1 -4.723 2.553 4.706 
198 1 3.279 -4.943 -14.068 
199 1 -11.038 -15.893 -15.322 
200 1 5.091 14.326 -10.103 
ITEM: TIMESTEP
40
ITEM: NUMBER OF ATOMS
200
ITEM: BOX BOUNDS pp pp pp
-17.980597440828447 17.980597440828447
-17.980597440828447 17.980597440828447
-17.980597440828447 17.980597440828447
ITEM: ATOMS id type x y z
1 1 12.041 -16.893 -12.746 
2 1 5.359 5.060 -0.307 
3 1 -7.125 12.393 9.042 
4 1 -7.305 -14.708 -15.352 
5 1 -8.336 -5.356 17.951 
6 1 13.952 -7.058 4.768 
7 1 -3.987 -8.863 -0.586 
8 1 1.588 4.986 0.155 
9 1 9.751 -6.362 8.157 
10 1 -17.215 -9.874 -12.905 
11 1 1.604 -1.577 -15.528 
12 1 -5.404 -7.238 16.280 
13 1 13.244 6.208 -10.727 
14 1 10.399 -9.575 6.204 
15 1 -0.796 3.824 -11.791 
16 1 -9.598 -17.444 -6.535 
17 1 -5.787 8.974 8.064 
18 1 15.576 -3.670 4.057 
19 1 -14.704 3.073 10.120 
20 1 5.671 4.181 -12.270 
21 1 16.065 4.569 -8.795 
22 1 -7.850 -16.612 14.754 
23 1 -5.495 0.799 -8.259 
24 1 14.251 0.856 -10.737 
25 1 15.531 -8.564 -11.375 
26 1 -12.676 6.288 11.349 
27 1 -14.343 5.392 0.158 
28 1 5.283 -15.798 -17.897 
29 1 -13.926 11.763 15.327 
30 1 -4.597 -13.601 15.022 
31 1 -2.973 -14.160 -10.999 
32 1 -4.923 -13.825 9.323 
33 1 -8.878 -3.968 7.601 
34 1 3.966 -14.981 13.631 
35 1 9.416 4.553 5.581 
36 1 -3.572 1.115 -11.956 
37 1 17.207 -0.470 5.371 
38 1 -10.802 2.064 16.250 
39 1 13.264 -4.106 7.127 
40 1 11.726 -9.445 -11.511 
41 1 6.530 -9.481 -17.555 
42 1 1.780 10.869 3.631 
43 1 -6.075 -1.789 -15.572 
44 1 10.261 11.476 6.211 
45 1 -13.892 12.155 5.910 
46 1 10.253 -0.291 -5.481 
47 1 6.054 -9.715 -8.167 
48 1 -16.741 14.592 5.070 
49 1 16.713 0.433 -13.656 
50 1 -0.669 -17.180 -11.357 
51 1 1.473 -10.124 5.975 
52 1 -14.634 -9.002 6.064 
53 1 2.235 -14.597 -15.625 
54 1 13.268 -14.591 -7.878 
55 1 5.106 -2.278 -16.867 
56 1 -4.448 15.179 8.572 
57 1 -0.789 1.344 -14.726 
58 1 7.152 -4.207 -14.201 
59 1 13.357 -9.139 11.883 
60 1 -5.240 -2.765 7.152 
61 1 17.313 3.579 13.900 
62 1 13.290 -0.800 5.002 
63 1 -1.840 -13.857 17.704 
64 1 -1.878 -10.642 -16.230 
65 1 -16.163 0.361 8.187 
66 1 -7.203 1.274 -3.863 
67 1 4.270 -1.732 -6.368 
68 1 -11.631 -10.226 8.191 
69 1 -0.549 -7.423 0.031 
70 1 -13.024 10.175 -4.742 
71 1 -7.534 -15.223 -4.265 
72 1 17.772 15.429 -8.873 
73 1 -5.194 -12.223 -17.441 
74 1 -6.105 17.269 -4.603 
75 1 15.677 3.877 -12.505 
76 1 15.886 12.422 -3.896 
77 1 -14.871 1.406 13.452 
78 1 -1.082 13.320 13.325 
79 1 -13.842 -14.830 3.620 
80 1 17.921 1.646 -10.288 
81 1 -8.742 -9.893 10.983 
82 1 -1.148 0.764 15.098 
83 1 4.466 -9.104 8.115 
84 1 -8.153 7.958 -16.104 
85 1 1.236 14.929 -1.745 
86 1 -5.271 7.533 11.519 
87 1 -5.625 -4.554 3.734 
88 1 6.908 17.932 -0.133 
89 1 8.112 16.918 3.356 
90 1 9.832 -5.958 -11.985 
91 1 5.494 4.798 -8.473 
92 1 10.744 5.807 14.987 
93 1 5.632 -1.538 5.365 
94 1 -14.810 -17.520 -16.951 
95 1 -4.975 9.915 -16.930 
96 1 17.843 -11.100 -9.411 
97 1 -0.450 -10.363 13.363 
98 1 2.207 0.115 -3.468 
99 1 -9.568 2.070 -0.784 
100 1 15.734 9.844 -12.267 
101 1 3.858 4.737 3.195 
102 1 -6.946 -15.145 -8.059 
103 1 2.123 -11.160 10.532 
104 1 17.950 -16.957 10.102 
105 1 7.198 -16.944 13.222 
106 1 0.262 -16.859 -7.657 
107 1 12.631 11.151 3.248 
108 1 2.778 16.421 9.371 
109 1 2.545 -4.942 -17.769 
110 1 11.450 1.713 7.187 
111 1 16.772 -14.765 -9.318 
112 1 16.005 -10.174 9.308 
113 1 -14.654 6.664 4.468 
114 1 -3.047 -10.292 16.149 
115 1 11.605 7.077 7.440 
116 1 -3.570 -17.091 7.765 
117 1 15.388 -17.771 -11.154 
118 1 -6.758 4.446 -1.772 
119 1 -12.933 -0.056 10.349 
120 1 1.076 7.174 4.139 
121 1 3.064 4.438 -3.369 
122 1 3.512 8.065 1.357 
123 1 -15.223 -8.745 -9.844 
124 1 -0.795 16.275 8.045 
125 1 -10.737 -6.783 9.508 
126 1 -6.508 -10.357 14.434 
127 1 -16.505 6.053 12.027 
128 1 10.860 1.062 -8.990 
129 1 -14.222 7.864 14.409 
130 1 -2.736 -3.001 10.178 
131 1 10.080 9.542 14.574 
132 1 -4.495 12.901 11.678 
133 1 1.679 -14.923 16.606 
134 1 -3.702 -5.176 0.397 
135 1 -0.279 2.850 -2.527 
136 1 -14.293 3.274 6.409 
137 1 16.276 12.410 3.772 
138 1 -12.330 4.010 3.073 
139 1 -8.946 -1.535 -1.938 
140 1 0.884 10.350 11.926 
141 1 -6.832 -5.913 -5.306 
142 1 -14.842 -2.834 -0.459 
143 1 -2.220 8.358 9.286 
144 1 3.585 7.262 -17.146 
145 1 1.245 -17.286 12.065 
146 1 0.656 -11.200 16.887 
147 1 -13.134 8.758 -1.178 
148 1 2.506 -15.074 -5.092 
149 1 -2.472 8.083 5.449 
150 1 -6.129 16.529 1.966 
151 1 4.293 2.034 -6.005 
152 1 16.403 0.485 15.984 
153 1 -1.541 -11.612 0.410 
154 1 -6.611 -17.166 -1.100 
155 1 6.622 -7.422 -5.157 
156 1 9.344 -14.677 15.412 
157 1 -13.905 15.510 16.608 
158 1 -8.946 5.842 11.324 
159 1 10.197 -10.627 2.565 
160 1 13.118 -7.966 8.352 
161 1 -0.467 -7.215 -8.294 
162 1 9.692 -2.274 -10.649 
163 1 13.418 0.245 -3.402 
164 1 4.026 -12.254 17.926 
165 1 2.760 6.187 -10.859 
166 1 0.740 -2.050 16.787 
167 1 -11.249 3.682 8.757 
168 1 16.488 -2.699 -15.815 
169 1 -7.296 -13.377 12.292 
170 1 10.137 -9.766 9.976 
171 1 5.065 -4.871 15.412 
172 1 9.982 0.718 -1.776 
173 1 1.276 1.454 -17.900 
174 1 6.280 -14.257 -0.467 
175 1 14.279 -12.200 -10.498 
176 1 2.597 17.298 -10.090 
177 1 0.167 -0.539 9.859 
178 1 2.303 17.919 -17.241 
179 1 11.212 -13.216 -12.158 
180 1 -11.454 2.791 12.461 
181 1 -0.207 -2.433 13.126 
182 1 -8.308 9.717 11.487 
183 1 13.424 11.220 15.417 
184 1 9.677 -1.246 1.566 
185 1 0.912 -0.018 -7.010 
186 1 13.186 -14.268 -15.264 
187 1 0.501 4.961 -16.754 
188 1 -2.826 4.521 -14.964 
189 1 1.052 -8.187 -16.778 
190 1 8.645 14.539 0.426 
191 1 14.932 0.428 8.224 
192 1 -17.281 10.130 14.306 
193 1 -14.231 -12.714 6.787 
194 1 -10.716 16.337 14.577 
195 1 8.878 9.234 8.969 
196 1 8.030 2.459 -6.827 
197 1 -4.724 2.557 4.756 
198 1 3.381 -4.696 -14.127 
199 1 -11.053 -15.991 -15.582 
200 1 5.040 14.358 -10.112 
ITEM: TIMESTEP
50
ITEM: NUMBER OF ATOMS
200
ITEM: BOX BOUNDS pp pp pp
-17.980597440828447 17.980597440828447
-17.980597440828447 17.980597440828447
-17.980597440828447 17.980597440828447
ITEM: ATOMS id type x y z
1 1 12.109 -16.739 -12.447 
2 1 5.297 5.084 -0.300 
3 1 -7.164 12.458 8.873 
4 1 -7.377 -14.695 -15.601 
5 1 -8.023 -5.222 -17.923 
6 1 13.501 -7.089 4.756 
7 1 -4.183 -8.839 -0.646 
8 1 1.494 5.004 0.217 
9 1 9.914 -6.161 7.994 
10 1 -17.346 -10.032 -12.891 
11 1 1.557 -1.698 -15.616 
12 1 -5.301 -7.416 16.497 
13 1 13.363 6.335 -10.866 
14 1 10.741 -9.310 6.124 
15 1 -0.459 3.852 -11.991 
16 1 -9.453 -17.497 -6.438 
17 1 -5.727 9.033 8.152 
18 1 15.535 -3.839 4.240 
19 1 -14.866 3.460 10.187 
20 1 5.603 4.082 -12.263 
21 1 15.768 4.267 -8.789 
22 1 -7.736 -16.313 14.780 
23 1 -5.303 0.891 -8.401 
24 1 14.247 1.161 -10.596 
25 1 15.511 -8.585 -11.264 
26 1 -12.715 6.423 11.197 
27 1 -14.324 5.476 0.550 
28 1 5.150 -15.759 17.370 
29 1 -14.000 11.736 15.263 
30 1 -4.666 -13.756 14.938 
31 1 -3.105 -14.298 -10.797 
32 1 -4.889 -13.865 9.542 
33 1 -8.723 -4.103 7.513 
34 1 4.055 -14.727 13.839 
35 1 9.405 4.561 5.607 
36 1 -3.455 1.433 -12.094 
37 1 17.164 -0.540 5.355 
38 1 -11.125 2.085 16.000 
39 1 13.080 -4.119 7.139 
40 1 11.786 -9.449 -11.523 
41 1 6.266 -9.176 -17.531 
42 1 1.747 10.634 3.556 
43 1 -6.039 -1.904 -15.666 
44 1 10.381 11.119 6.267 
45 1 -13.985 12.053 5.853 
46 1 10.157 -0.378 -5.519 
47 1 6.099 -9.669 -8.225 
48 1 -16.784 14.546 5.071 
49 1 16.548 0.422 -13.633 
50 1 -0.614 -17.112 -11.477 
51 1 1.472 -10.235 6.361 
52 1 -14.463 -8.976 6.238 
53 1 2.033 -14.363 -15.854 
54 1 13.154 -14.857 -8.585 
55 1 4.994 -2.502 -16.962 
56 1 -4.404 15.071 8.741 
57 1 -0.684 1.306 -14.787 
58 1 7.252 -4.082 -14.115 
59 1 13.377 -9.188 11.933 
60 1 -5.152 -2.757 7.187 
61 1 17.737 3.334 13.745 
62 1 13.247 -0.910 4.997 
63 1 -1.953 -13.861 17.651 
64 1 -1.910 -10.722 -16.320 
65 1 -16.270 0.502 8.202 
66 1 -7.254 1.283 -3.908 
67 1 4.298 -1.637 -6.175 
68 1 -11.518 -10.347 8.319 
69 1 -0.672 -7.565 0.132 
70 1 -13.057 10.144 -4.670 
71 1 -7.533 -15.028 -4.232 
72 1 17.521 15.724 -9.002 
73 1 -5.369 -12.152 -17.573 
74 1 -6.175 17.446 -4.828 
75 1 15.819 3.998 -12.577 
76 1 15.932 12.447 -3.928 
77 1 -14.856 1.598 13.444 
78 1 -1.109 13.468 13.030 
79 1 -13.854 -14.768 3.692 
80 1 -17.949 1.671 -10.370 
81 1 -8.713 -10.007 11.077 
82 1 -1.035 0.770 15.106 
83 1 4.599 -9.162 8.263 
84 1 -8.127 7.915 -16.118 
85 1 1.290 14.962 -1.726 
86 1 -5.231 7.425 11.541 
87 1 -5.655 -4.530 3.824 
88 1 6.886 17.879 -0.139 
89 1 8.105 16.935 3.362 
90 1 9.858 -6.007 -11.950 
91 1 5.406 4.810 -8.525 
92 1 10.811 5.866 14.958 
93 1 5.821 -1.485 5.292 
94 1 -14.374 -17.567 -17.016 
95 1 -4.931 9.838 -16.950 
96 1 17.696 -11.057 -9.339 
97 1 -0.458 -10.655 13.288 
98 1 2.457 0.371 -3.390 
99 1 -9.612 2.070 -0.829 
100 1 15.504 9.330 -12.073 
101 1 3.878 4.738 3.206 
102 1 -6.627 -15.375 -7.936 
103 1 2.089 -11.174 10.363 
104 1 -17.970 -16.919 10.038 
105 1 6.992 -17.034 13.390 
106 1 0.158 -16.753 -7.749 
107 1 12.680 11.166 3.250 
108 1 2.765 16.476 9.567 
109 1 2.327 -5.046 -17.649 
110 1 11.562 1.760 7.133 
111 1 16.883 -14.702 -9.346 
112 1 15.999 -10.219 9.269 
113 1 -14.611 6.483 4.292 
114 1 -2.853 -10.456 16.004 
115 1 11.558 7.314 7.205 
116 1 -3.649 -17.168 7.945 
117 1 15.337 -17.744 -10.900 
118 1 -6.737 4.396 -1.758 
119 1 -12.949 0.310 10.215 
120 1 0.823 6.944 3.854 
121 1 3.123 4.196 -3.253 
122 1 3.490 8.046 1.332 
123 1 -15.330 -8.684 -9.922 
124 1 -0.822 16.247 8.362 
125 1 -10.522 -6.889 9.513 
126 1 -6.538 -10.459 14.477 
127 1 -16.426 6.288 12.179 
128 1 10.777 1.022 -9.025 
129 1 -13.941 7.927 14.484 
130 1 -2.774 -2.953 10.203 
131 1 10.082 9.572 14.433 
132 1 -4.386 12.236 11.423 
133 1 1.474 -14.920 16.446 
134 1 -3.710 -5.241 0.535 
135 1 -0.300 2.844 -2.486 
136 1 -14.255 3.254 6.426 
137 1 16.270 12.388 3.823 
138 1 -12.176 3.764 3.192 
139 1 -8.917 -1.538 -1.940 
140 1 0.459 10.296 11.652 
141 1 -6.776 -5.829 -5.144 
142 1 -14.777 -2.774 -0.438 
143 1 -2.257 8.771 9.531 
144 1 3.425 7.014 -16.994 
145 1 1.359 -17.118 12.280 
146 1 0.450 -11.229 16.796 
147 1 -13.130 8.701 -1.113 
148 1 2.508 -15.167 -5.146 
149 1 -2.477 8.153 5.743 
150 1 -6.108 16.594 1.916 
151 1 4.232 2.131 -6.207 
152 1 16.596 0.465 16.088 
153 1 -1.444 -11.300 0.417 
154 1 -6.628 -17.226 -1.237 
155 1 6.601 -7.355 -5.217 
156 1 8.804 -14.628 15.673 
157 1 -13.794 15.422 16.552 
158 1 -8.952 5.796 11.180 
159 1 10.252 -10.565 2.548 
160 1 13.241 -7.691 8.396 
161 1 -0.422 -7.195 -8.278 
162 1 9.614 -2.296 -10.750 
163 1 13.310 0.278 -3.466 
164 1 4.159 -12.237 17.749 
165 1 2.552 5.876 -10.886 
166 1 0.973 -2.103 16.676 
167 1 -11.323 3.713 8.774 
168 1 16.467 -2.576 -15.977 
169 1 -7.415 -13.397 12.333 
170 1 10.191 -9.534 9.831 
171 1 5.013 -4.594 15.771 
172 1 9.874 0.650 -1.809 
173 1 1.426 1.396 -17.924 
174 1 6.294 -14.313 -0.458 
175 1 14.508 -12.205 -10.932 
176 1 2.602 17.373 -10.053 
177 1 0.112 -0.470 9.917 
178 1 2.227 -17.892 -17.320 
179 1 11.010 -13.192 -11.956 
180 1 -11.568 3.072 12.418 
181 1 -0.325 -2.461 13.113 
182 1 -8.231 9.624 11.155 
183 1 13.489 11.076 15.354 
184 1 9.907 -1.073 1.730 
185 1 1.018 0.281 -6.944 
186 1 13.319 -14.076 -14.873 
187 1 0.474 4.669 -16.198 
188 1 -3.028 4.316 -14.733 
189 1 1.212 -8.521 -16.660 
190 1 8.654 14.520 0.462 
191 1 14.927 0.237 8.264 
192 1 -17.213 9.842 14.147 
193 1 -14.193 -12.715 6.897 
194 1 -10.582 16.625 14.750 
195 1 8.857 9.155 9.141 
196 1 7.923 2.389 -6.860 
197 1 -4.722 2.560 4.819 
198 1 3.486 -4.649 -14.107 
199 1 -11.024 -16.069 -15.814 
200 1 4.996 14.390 -10.115 
ITEM: TIMESTEP
60
ITEM: NUMBER OF ATOMS
200
ITEM: BOX BOUNDS pp pp pp
-17.980597440828447 17.980597440828447
-17.980597440828447 17.980597440828447
-17.980597440828447 17.980597440828447
ITEM: ATOMS id type x y z
1 1 11.993 -16.687 -12.370 
2 1 5.298 5.051 -0.256 
3 1 -7.248 12.526 8.789 
4 1 -7.326 -14.699 -15.832 
5 1 -7.745 -5.038 -17.790 
6 1 13.288 -6.903 4.750 
7 1 -4.223 -8.809 -0.676 
8 1 1.483 4.965 0.225 
9 1 9.960 -6.082 7.829 
10 1 -17.550 -10.272 -12.850 
11 1 1.475 -1.810 -15.637 
12 1 -5.304 -7.607 16.713 
13 1 13.253 6.171 -10.871 
14 1 10.804 -9.361 6.140 
15 1 -0.337 3.790 -12.174 
16 1 -9.441 -17.416 -6.427 
17 1 -5.732 9.110 8.153 
18 1 15.557 -3.864 4.326 
19 1 -14.935 3.613 10.232 
20 1 5.535 3.975 -12.306 
21 1 15.682 4.210 -8.738 
22 1 -7.718 -16.201 14.972 
23 1 -5.146 0.971 -8.534 
24 1 14.186 1.276 -10.631 
25 1 15.509 -8.501 -11.214 
26 1 -12.730 6.603 11.036 
27 1 -14.259 5.434 0.656 
28 1 5.050 -15.951 17.051 
29 1 -14.049 11.690 15.209 
30 1 -4.640 -13.799 14.851 
31 1 -3.219 -14.528 -10.447 
32 1 -4.797 -13.914 9.737 
33 1 -8.568 -4.248 7.365 
34 1 4.172 -14.233 13.792 
35 1 9.412 4.567 5.637 
36 1 -3.416 1.498 -12.027 
37 1 17.161 -0.560 5.358 
38 1 -11.509 2.037 15.885 
39 1 13.099 -3.947 7.215 
40 1 11.855 -9.457 -11.537 
41 1 5.723 -8.937 -17.515 
42 1 1.636 10.490 3.597 
43 1 -6.065 -2.101 -15.822 
44 1 10.405 10.969 6.304 
45 1 -14.061 11.957 5.805 
46 1 10.058 -0.429 -5.536 
47 1 6.151 -9.625 -8.281 
48 1 -16.795 14.542 5.086 
49 1 16.421 0.450 -13.627 
50 1 -0.574 -17.049 -11.591 
51 1 1.482 -10.306 6.629 
52 1 -14.320 -8.953 6.374 
53 1 1.680 -14.017 -16.227 
54 1 13.130 -14.964 -9.177 
55 1 4.925 -2.528 -16.913 
56 1 -4.305 14.897 9.028 
57 1 -0.831 1.114 -14.832 
58 1 7.308 -3.948 -14.022 
59 1 13.391 -9.199 11.892 
60 1 -5.091 -2.675 7.186 
61 1 17.888 3.248 13.585 
62 1 13.222 -0.918 4.871 
63 1 -1.962 -13.882 17.611 
64 1 -1.927 -10.682 -16.436 
65 1 -16.446 0.626 8.310 
66 1 -7.300 1.291 -3.920 
67 1 4.325 -1.536 -6.119 
68 1 -11.425 -10.445 8.417 
69 1 -0.728 -7.514 0.163 
70 1 -13.085 10.118 -4.604 
71 1 -7.549 -14.928 -4.241 
72 1 17.477 15.810 -8.951 
73 1 -5.431 -12.060 -17.739 
74 1 -6.038 17.635 -5.012 
75 1 15.918 4.090 -12.564 
76 1 15.971 12.469 -3.955 
77 1 -14.694 1.582 13.442 
78 1 -1.390 13.661 12.514 
79 1 -13.861 -14.718 3.751 
80 1 -17.964 1.704 -10.405 
81 1 -8.666 -10.003 11.162 
82 1 -0.890 0.693 15.191 
83 1 4.729 -9.197 8.345 
84 1 -8.106 7.875 -16.127 
85 1 1.342 14.994 -1.710 
86 1 -5.218 7.482 11.527 
87 1 -5.761 -4.544 3.924 
88 1 6.857 17.828 -0.151 
89 1 8.099 16.956 3.358 
90 1 9.860 -6.051 -11.941 
91 1 5.478 4.852 -8.583 
92 1 10.875 5.933 14.933 
93 1 6.021 -1.434 5.221 
94 1 -14.224 -17.639 -17.127 
95 1 -4.898 9.775 -16.963 
96 1 17.583 -10.969 -9.212 
97 1 -0.377 -11.008 13.279 
98 1 2.548 0.435 -3.323 
99 1 -9.645 2.064 -0.847 
100 1 15.502 9.047 -12.025 
101 1 3.843 4.750 3.239 
102 1 -6.300 -15.623 -7.821 
103 1 2.145 -11.264 10.293 
104 1 -17.931 -16.881 9.978 
105 1 6.630 -17.118 13.641 
106 1 0.011 -16.627 -7.847 
107 1 12.677 11.147 3.257 
108 1 2.767 16.584 9.843 
109 1 2.208 -5.178 -17.510 
110 1 11.634 1.761 7.066 
111 1 16.907 -14.653 -9.369 
112 1 15.941 -10.234 9.218 
113 1 -14.542 6.417 4.365 
114 1 -2.780 -10.528 15.831 
115 1 11.543 7.402 7.062 
116 1 -3.698 -17.287 8.127 
117 1 15.279 -17.679 -10.857 
118 1 -6.723 4.357 -1.729 
119 1 -12.941 0.521 10.074 
120 1 0.643 6.817 3.637 
121 1 3.118 4.225 -3.216 
122 1 3.467 8.023 1.316 
123 1 -15.495 -8.663 -10.023 
124 1 -0.805 16.203 8.668 
125 1 -10.402 -6.943 9.469 
126 1 -6.593 -10.548 14.585 
127 1 -16.364 6.375 12.279 
128 1 10.730 0.938 -9.059 
129 1 -13.715 7.889 14.494 
130 1 -2.794 -2.935 10.240 
131 1 10.073 9.598 14.255 
132 1 -4.390 11.558 11.079 
133 1 1.404 -14.994 16.124 
134 1 -3.791 -5.250 0.640 
135 1 -0.301 2.821 -2.481 
136 1 -14.307 3.193 6.468 
137 1 16.274 12.351 3.862 
138 1 -12.130 3.653 3.280 
139 1 -8.899 -1.548 -1.934 
140 1 0.409 10.426 11.679 
141 1 -6.728 -5.754 -4.977 
142 1 -14.711 -2.719 -0.422 
143 1 -2.261 8.886 9.550 
144 1 3.370 6.831 -16.845 
145 1 1.560 -16.896 12.614 
146 1 0.520 -11.356 16.810 
147 1 -13.127 8.655 -1.057 
148 1 2.491 -15.264 -5.223 
149 1 -2.424 8.189 5.831 
150 1 -6.095 16.649 1.862 
151 1 4.205 2.231 -6.223 
152 1 16.783 0.488 16.158 
153 1 -1.475 -11.250 0.422 
154 1 -6.644 -17.279 -1.363 
155 1 6.583 -7.295 -5.274 
156 1 8.271 -14.447 15.795 
157 1 -13.684 15.347 16.477 
158 1 -8.953 5.869 11.068 
159 1 10.321 -10.472 2.552 
160 1 13.322 -7.604 8.440 
161 1 -0.381 -7.179 -8.264 
162 1 9.492 -2.319 -10.880 
163 1 13.216 0.311 -3.525 
164 1 4.258 -12.363 17.386 
165 1 2.566 5.853 -10.884 
166 1 1.439 -2.076 16.546 
167 1 -11.370 3.840 8.706 
168 1 16.468 -2.389 -16.176 
169 1 -7.498 -13.437 12.357 
170 1 10.195 -9.375 9.836 
171 1 4.798 -4.507 15.835 
172 1 9.805 0.560 -1.792 
173 1 1.489 1.377 -17.822 
174 1 6.306 -14.357 -0.449 
175 1 14.667 -12.206 -11.299 
176 1 2.579 17.449 -9.994 
177 1 0.059 -0.418 10.005 
178 1 2.163 -17.725 -17.299 
179 1 10.955 -13.117 -11.688 
180 1 -11.571 3.300 12.367 
181 1 -0.340 -2.503 13.173 
182 1 -8.216 9.661 11.064 
183 1 13.517 10.934 15.297 
184 1 10.156 -0.919 1.907 
185 1 0.988 0.359 -6.815 
186 1 13.487 -13.888 -14.437 
187 1 0.536 4.519 -15.822 
188 1 -3.114 4.193 -14.757 
189 1 1.524 -8.772 -16.552 
190 1 8.665 14.500 0.495 
191 1 14.858 0.001 8.250 
192 1 -17.108 9.663 14.069 
193 1 -14.181 -12.712 6.988 
194 1 -10.500 16.892 14.930 
195 1 8.917 9.078 9.295 
196 1 7.900 2.367 -6.913 
197 1 -4.719 2.550 4.876 
198 1 3.552 -4.669 -14.057 
199 1 -10.914 -16.108 -15.983 
200 1 4.947 14.434 -10.118 
ITEM: TIMESTEP
70
ITEM: NUMBER OF ATOMS
200
ITEM: BOX BOUNDS pp pp pp
-17.980597440828447 17.980597440828447
-17.980597440828447 17.980597440828447
-17.980597440828447 17.980597440828447
ITEM: ATOMS id type x y z
1 1 11.889 -16.673 -12.370 
2 1 5.282 5.010 -0.207 
3 1 -7.266 12.546 8.679 
4 1 -7.233 -14.761 -16.216 
5 1 -7.560 -5.082 -17.783 
6 1 12.949 -6.624 4.805 
7 1 -4.265 -8.762 -0.720 
8 1 1.468 4.885 0.208 
9 1 10.065 -6.015 7.533 
10 1 -17.878 -10.695 -12.710 
11 1 1.342 -1.974 -15.658 
12 1 -5.239 -7.985 17.060 
13 1 13.055 5.876 -10.852 
14 1 10.930 -9.472 6.215 
15 1 -0.297 3.632 -12.143 
16 1 -9.329 -17.364 -6.457 
17 1 -5.660 9.141 8.083 
18 1 15.590 -3.874 4.432 
19 1 -14.948 3.703 10.223 
20 1 5.435 3.852 -12.364 
21 1 15.697 4.258 -8.704 
22 1 -7.693 -15.978 15.330 
23 1 -5.051 1.026 -8.526 
24 1 14.082 1.474 -10.697 
25 1 15.586 -8.368 -11.100 
26 1 -12.757 6.773 10.895 
27 1 -14.171 5.378 0.770 
28 1 4.731 -16.089 16.931 
29 1 -13.984 11.642 15.174 
30 1 -4.539 -13.831 14.716 
31 1 -3.125 -14.832 -10.006 
32 1 -4.652 -14.026 10.044 
33 1 -8.355 -4.446 7.150 
34 1 4.213 -13.819 13.759 
35 1 9.411 4.527 5.649 
36 1 -3.425 1.468 -12.016 
37 1 17.147 -0.506 5.378 
38 1 -11.787 2.032 15.789 
39 1 13.156 -3.771 7.332 
40 1 11.940 -9.389 -11.564 
41 1 5.129 -8.657 -17.644 
42 1 1.488 10.345 3.667 
43 1 -5.970 -2.118 -15.853 
44 1 10.359 10.947 6.354 
45 1 -14.156 11.834 5.743 
46 1 9.940 -0.478 -5.521 
47 1 6.225 -9.569 -8.355 
48 1 -16.806 14.529 5.103 
49 1 16.327 0.546 -13.659 
50 1 -0.520 -17.005 -11.750 
51 1 1.526 -10.334 6.790 
52 1 -14.145 -8.922 6.523 
53 1 1.399 -13.637 -16.429 
54 1 13.218 -14.902 -9.259 
55 1 4.833 -2.564 -16.918 
56 1 -4.283 14.757 9.274 
57 1 -0.913 0.998 -14.867 
58 1 7.296 -3.838 -13.975 
59 1 13.405 -9.186 11.855 
60 1 -5.008 -2.563 7.201 
61 1 17.973 3.145 13.387 
62 1 13.229 -0.942 4.733 
63 1 -1.962 -13.878 17.527 
64 1 -1.865 -10.637 -16.561 
65 1 -16.602 0.698 8.483 
66 1 -7.349 1.299 -3.930 
67 1 4.387 -1.403 -6.106 
68 1 -11.316 -10.556 8.526 
69 1 -0.797 -7.450 0.193 
70 1 -13.112 10.087 -4.532 
71 1 -7.456 -14.869 -4.284 
72 1 17.402 15.950 -8.919 
73 1 -5.432 -11.974 -17.797 
74 1 -5.912 17.663 -5.044 
75 1 15.998 4.231 -12.539 
76 1 16.014 12.495 -3.988 
77 1 -14.645 1.479 13.283 
78 1 -1.680 13.818 11.860 
79 1 -13.866 -14.660 3.822 
80 1 17.921 1.700 -10.409 
81 1 -8.603 -9.995 11.257 
82 1 -0.711 0.565 15.349 
83 1 4.839 -9.261 8.408 
84 1 -8.085 7.832 -16.136 
85 1 1.413 15.043 -1.693 
86 1 -5.219 7.491 11.484 
87 1 -5.911 -4.575 4.063 
88 1 6.819 17.763 -0.170 
89 1 8.091 16.983 3.350 
90 1 9.818 -6.073 -11.948 
91 1 5.523 4.872 -8.672 
92 1 10.965 6.040 14.898 
93 1 6.298 -1.364 5.123 
94 1 -14.098 -17.697 -17.273 
95 1 -4.860 9.705 -16.969 
96 1 17.454 -10.906 -8.964 
97 1 -0.275 -11.701 13.122 
98 1 2.693 0.515 -3.241 
99 1 -9.682 2.052 -0.854 
100 1 15.536 8.562 -11.976 
101 1 3.781 4.755 3.273 
102 1 -6.136 -15.674 -7.790 
103 1 2.397 -11.493 10.399 
104 1 -17.886 -16.831 9.902 
105 1 6.147 -17.090 13.596 
106 1 -0.235 -16.452 -7.977 
107 1 12.662 11.116 3.320 
108 1 2.836 16.667 10.129 
109 1 2.159 -5.342 -17.451 
110 1 11.698 1.717 6.972 
111 1 16.986 -14.599 -9.530 
112 1 15.871 -10.254 9.131 
113 1 -14.457 6.358 4.489 
114 1 -2.649 -10.472 15.545 
115 1 11.562 7.391 6.997 
116 1 -3.728 -17.475 8.413 
117 1 15.265 -17.612 -10.991 
118 1 -6.714 4.312 -1.683 
119 1 -12.915 0.675 9.901 
120 1 0.495 6.698 3.508 
121 1 3.111 4.315 -3.212 
122 1 3.389 7.990 1.303 
123 1 -15.758 -8.645 -10.221 
124 1 -0.757 16.157 8.984 
125 1 -10.284 -6.999 9.370 
126 1 -6.560 -10.594 14.607 
127 1 -16.316 6.399 12.361 
128 1 10.681 0.832 -9.072 
129 1 -13.572 7.866 14.457 
130 1 -2.791 -2.928 10.333 
131 1 10.066 9.619 13.946 
132 1 -4.540 11.301 11.068 
133 1 1.345 -14.886 15.913 
134 1 -3.907 -5.269 0.791 
135 1 -0.277 2.783 -2.549 
136 1 -14.361 3.070 6.522 
137 1 16.273 12.306 3.907 
138 1 -12.099 3.553 3.415 
139 1 -8.882 -1.562 -1.921 
140 1 0.249 10.610 11.699 
141 1 -6.675 -5.667 -4.759 
142 1 -14.628 -2.653 -0.407 
143 1 -2.191 8.784 9.512 
144 1 3.420 6.690 -16.675 
145 1 1.971 -16.717 12.780 
146 1 0.740 -11.193 16.771 
147 1 -13.124 8.603 -0.993 
148 1 2.429 -15.410 -5.384 
149 1 -2.376 8.238 5.760 
150 1 -6.090 16.702 1.793 
151 1 4.164 2.353 -6.237 
152 1 17.007 0.505 16.234 
153 1 -1.521 -11.193 0.422 
154 1 -6.681 -17.303 -1.453 
155 1 6.564 -7.223 -5.346 
156 1 7.601 -14.088 15.636 
157 1 -13.581 15.266 16.402 
158 1 -8.968 5.979 10.961 
159 1 10.405 -10.323 2.566 
160 1 13.379 -7.487 8.454 
161 1 -0.332 -7.162 -8.249 
162 1 9.382 -2.330 -10.973 
163 1 13.120 0.353 -3.587 
164 1 4.256 -12.347 17.271 
165 1 2.545 5.819 -10.918 
166 1 1.799 -2.092 16.533 
167 1 -11.404 4.003 8.617 
168 1 16.503 -2.061 -16.471 
169 1 -7.574 -13.516 12.396 
170 1 10.170 -9.131 9.860 
171 1 4.643 -4.548 15.812 
172 1 9.769 0.438 -1.728 
173 1 1.639 1.276 -17.676 
174 1 6.314 -14.417 -0.430 
175 1 14.725 -12.076 -11.304 
176 1 2.501 17.559 -9.868 
177 1 0.023 -0.374 10.175 
178 1 1.747 -17.420 -17.205 
179 1 11.003 -13.044 -11.681 
180 1 -11.636 3.478 12.309 
181 1 -0.253 -2.595 13.279 
182 1 -8.182 9.724 10.987 
183 1 13.522 10.740 15.220 
184 1 10.382 -0.768 2.073 
185 1 0.954 0.434 -6.638 
186 1 13.585 -13.922 -14.339 
187 1 0.584 4.387 -15.737 
188 1 -3.085 4.142 -14.745 
189 1 1.597 -9.011 -16.406 
190 1 8.684 14.480 0.531 
191 1 14.714 -0.360 8.217 
192 1 -17.042 9.635 14.127 
193 1 -14.170 -12.697 7.088 
194 1 -10.472 17.196 15.215 
195 1 9.094 9.026 9.453 
196 1 7.854 2.326 -6.972 
197 1 -4.713 2.521 4.944 
198 1 3.574 -4.705 -14.039 
199 1 -10.770 -16.178 -16.249 
200 1 4.866 14.528 -10.108 
ITEM: TIMESTEP
80
ITEM: NUMBER OF ATOMS
200
ITEM: BOX BOUNDS pp pp pp
-17.980597440828447 17.980597440828447
-17.980597440828447 17.980597440828447
-17.980597440828447 17.980597440828447
ITEM: ATOMS id type x y z
1 1 11.799 -16.655 -12.329 
2 1 5.259 4.984 -0.174 
3 1 -7.257 12.524 8.593 
4 1 -7.116 -14.872 -16.610 
5 1 -7.389 -5.158 -17.779 
6 1 12.803 -6.513 4.765 
7 1 -4.301 -8.721 -0.771 
8 1 1.446 4.796 0.191 
9 1 10.041 -6.009 7.384 
10 1 17.979 -10.994 -12.603 
11 1 1.269 -2.115 -15.660 
12 1 -5.128 -8.213 17.288 
13 1 12.885 5.507 -10.854 
14 1 11.081 -9.530 6.284 
15 1 -0.265 3.494 -12.122 
16 1 -9.273 -17.366 -6.430 
17 1 -5.652 9.120 8.027 
18 1 15.634 -3.921 4.561 
19 1 -14.982 3.765 10.186 
20 1 5.334 3.764 -12.437 
21 1 15.758 4.376 -8.705 
22 1 -7.675 -15.680 15.695 
23 1 -4.992 1.061 -8.494 
24 1 13.981 1.711 -10.753 
25 1 15.716 -8.340 -11.064 
26 1 -12.802 6.875 10.812 
27 1 -14.096 5.341 0.882 
28 1 4.553 -16.052 16.871 
29 1 -13.891 11.599 15.146 
30 1 -4.454 -13.807 14.543 
31 1 -3.103 -14.861 -9.987 
32 1 -4.505 -14.078 10.449 
33 1 -8.266 -4.535 7.144 
34 1 4.020 -13.494 13.677 
35 1 9.423 4.486 5.653 
36 1 -3.446 1.407 -12.034 
37 1 17.152 -0.485 5.416 
38 1 -11.913 2.079 15.713 
39 1 13.110 -3.727 7.374 
40 1 11.994 -9.290 -11.572 
41 1 4.826 -8.357 -17.915 
42 1 1.353 10.228 3.738 
43 1 -5.879 -2.127 -15.868 
44 1 10.314 10.932 6.422 
45 1 -14.241 11.729 5.692 
46 1 9.840 -0.513 -5.503 
47 1 6.289 -9.516 -8.419 
48 1 -16.815 14.513 5.117 
49 1 16.229 0.665 -13.693 
50 1 -0.463 -16.960 -11.803 
51 1 1.573 -10.399 6.993 
52 1 -13.992 -8.888 6.641 
53 1 1.252 -13.332 -16.465 
54 1 13.267 -14.890 -9.284 
55 1 4.788 -2.628 -16.916 
56 1 -4.267 14.714 9.224 
57 1 -0.941 0.919 -14.900 
58 1 7.261 -3.812 -13.993 
59 1 13.401 -9.167 11.805 
60 1 -4.972 -2.531 7.218 
61 1 -17.947 3.075 13.219 
62 1 13.283 -0.980 4.720 
63 1 -2.099 -13.758 17.467 
64 1 -1.944 -10.522 -16.743 
65 1 -16.709 0.729 8.623 
66 1 -7.380 1.300 -3.939 
67 1 4.456 -1.276 -6.112 
68 1 -11.238 -10.666 8.602 
69 1 -0.848 -7.403 0.212 
70 1 -13.134 10.063 -4.475 
71 1 -7.387 -14.847 -4.294 
72 1 17.332 16.090 -8.912 
73 1 -5.277 -11.962 17.885 
74 1 -5.843 17.670 -5.045 
75 1 16.080 4.331 -12.537 
76 1 16.048 12.516 -4.015 
77 1 -14.640 1.363 13.110 
78 1 -1.764 13.835 11.879 
79 1 -13.869 -14.615 3.880 
80 1 17.833 1.701 -10.411 
81 1 -8.551 -10.011 11.300 
82 1 -0.615 0.497 15.459 
83 1 4.922 -9.342 8.506 
84 1 -8.070 7.799 -16.144 
85 1 1.475 15.088 -1.682 
86 1 -5.252 7.454 11.420 
87 1 -5.909 -4.575 4.099 
88 1 6.783 17.706 -0.186 
89 1 8.084 17.007 3.339 
90 1 9.762 -6.066 -11.963 
91 1 5.547 4.872 -8.766 
92 1 11.059 6.174 14.866 
93 1 6.582 -1.296 5.021 
94 1 -14.020 -17.724 -17.420 
95 1 -4.832 9.651 -16.972 
96 1 17.351 -10.902 -8.806 
97 1 -0.173 -12.419 13.255 
98 1 2.857 0.598 -3.169 
99 1 -9.708 2.034 -0.859 
100 1 15.565 8.063 -11.888 
101 1 3.730 4.744 3.292 
102 1 -6.104 -15.680 -7.790 
103 1 2.540 -11.669 10.579 
104 1 -17.847 -16.786 9.838 
105 1 5.847 -16.903 13.442 
106 1 -0.315 -16.470 -7.986 
107 1 12.647 11.080 3.399 
108 1 2.869 16.634 10.231 
109 1 2.150 -5.491 -17.436 
110 1 11.727 1.673 6.918 
111 1 17.046 -14.528 -9.741 
112 1 15.797 -10.267 9.044 
113 1 -14.386 6.291 4.622 
114 1 -2.750 -10.569 15.466 
115 1 11.557 7.383 6.971 
116 1 -3.760 -17.471 8.609 
117 1 15.270 -17.531 -11.143 
118 1 -6.711 4.273 -1.647 
119 1 -12.912 0.779 9.721 
120 1 0.393 6.595 3.449 
121 1 3.109 4.409 -3.220 
122 1 3.295 7.953 1.295 
123 1 -16.057 -8.598 -10.358 
124 1 -0.741 16.169 9.051 
125 1 -10.225 -7.079 9.299 
126 1 -6.504 -10.594 14.574 
127 1 -16.300 6.409 12.433 
128 1 10.674 0.786 -9.054 
129 1 -13.480 7.837 14.432 
130 1 -2.786 -2.921 10.396 
131 1 10.064 9.619 13.580 
132 1 -4.551 11.277 11.015 
133 1 1.386 -14.715 15.828 
134 1 -3.975 -5.284 0.851 
135 1 -0.233 2.737 -2.666 
136 1 -14.387 2.930 6.551 
137 1 16.271 12.266 3.944 
138 1 -12.054 3.482 3.528 
139 1 -8.864 -1.578 -1.917 
140 1 0.171 10.626 11.699 
141 1 -6.633 -5.596 -4.554 
142 1 -14.554 -2.597 -0.397 
143 1 -2.202 8.740 9.488 
144 1 3.501 6.584 -16.511 
145 1 2.107 -16.642 12.825 
146 1 0.771 -10.954 16.586 
147 1 -13.124 8.559 -0.944 
148 1 2.427 -15.531 -5.510 
149 1 -2.318 8.313 5.718 
150 1 -6.082 16.722 1.766 
151 1 4.115 2.463 -6.259 
152 1 17.176 0.563 16.210 
153 1 -1.567 -11.144 0.418 
154 1 -6.722 -17.314 -1.479 
155 1 6.552 -7.167 -5.404 
156 1 7.333 -13.936 15.526 
157 1 -13.495 15.212 16.337 
158 1 -9.015 6.017 10.913 
159 1 10.479 -10.153 2.607 
160 1 13.397 -7.396 8.429 
161 1 -0.292 -7.149 -8.238 
162 1 9.325 -2.329 -10.988 
163 1 13.048 0.385 -3.643 
164 1 4.218 -12.292 17.285 
165 1 2.515 5.796 -10.959 
166 1 1.874 -2.198 16.554 
167 1 -11.449 4.129 8.541 
168 1 16.540 -1.788 -16.641 
169 1 -7.657 -13.547 12.501 
170 1 10.142 -8.937 9.866 
171 1 4.678 -4.742 15.877 
172 1 9.750 0.355 -1.690 
173 1 1.770 1.155 -17.574 
174 1 6.323 -14.466 -0.409 
175 1 14.645 -11.987 -11.209 
176 1 2.485 17.640 -9.765 
177 1 0.004 -0.333 10.322 
178 1 1.465 -17.115 -17.202 
179 1 11.018 -12.982 -11.692 
180 1 -11.728 3.576 12.244 
181 1 -0.216 -2.655 13.342 
182 1 -8.180 9.737 10.941 
183 1 13.470 10.538 15.142 
184 1 10.387 -0.678 2.147 
185 1 0.924 0.498 -6.447 
186 1 13.725 -14.003 -14.202 
187 1 0.626 4.289 -15.700 
188 1 -3.047 4.113 -14.714 
189 1 1.575 -9.149 -16.221 
190 1 8.698 14.463 0.561 
191 1 14.721 -0.376 8.249 
192 1 -16.990 9.631 14.199 
193 1 -14.170 -12.676 7.159 
194 1 -10.501 17.533 15.623 
195 1 9.295 9.021 9.644 
196 1 7.791 2.273 -7.027 
197 1 -4.709 2.483 5.002 
198 1 3.565 -4.781 -14.041 
199 1 -10.617 -16.303 -16.644 
200 1 4.801 14.604 -10.098 
ITEM: TIMESTEP
90
ITEM: NUMBER OF ATOMS
200
ITEM: BOX BOUNDS pp pp pp
-17.980597440828447 17.980597440828447
-17.980597440828447 17.980597440828447
-17.980597440828447 17.980597440828447
ITEM: ATOMS id type x y z
1 1 11.701 -16.656 -12.285 
2 1 5.235 4.963 -0.148 
3 1 -7.241 12.513 8.530 
4 1 -6.965 -14.928 -16.542 
5 1 -7.233 -5.232 -17.773 
6 1 12.765 -6.481 4.737 
7 1 -4.326 -8.686 -0.826 
8 1 1.425 4.709 0.173 
9 1 10.008 -6.010 7.315 
10 1 17.949 -11.249 -12.486 
11 1 1.218 -2.217 -15.653 
12 1 -4.986 -8.303 17.350 
13 1 12.794 5.349 -10.910 
14 1 11.183 -9.549 6.344 
15 1 -0.232 3.377 -12.113 
16 1 -9.232 -17.370 -6.397 
17 1 -5.644 9.106 7.981 
18 1 15.668 -3.955 4.679 
19 1 -15.029 3.823 10.156 
20 1 5.232 3.709 -12.531 
21 1 15.786 4.490 -8.788 
22 1 -7.700 -15.508 15.776 
23 1 -4.943 1.086 -8.477 
24 1 13.961 1.724 -10.738 
25 1 15.809 -8.348 -11.094 
26 1 -12.850 6.945 10.752 
27 1 -14.031 5.318 0.996 
28 1 4.522 -16.042 16.870 
29 1 -13.801 11.557 15.119 
30 1 -4.420 -13.837 14.497 
31 1 -3.115 -14.853 -10.033 
32 1 -4.373 -14.096 10.703 
33 1 -8.215 -4.577 7.180 
34 1 3.925 -13.376 13.712 
35 1 9.433 4.454 5.647 
36 1 -3.453 1.350 -12.053 
37 1 17.181 -0.485 5.449 
38 1 -12.022 2.135 15.643 
39 1 13.035 -3.681 7.376 
40 1 12.008 -9.199 -11.572 
41 1 4.653 -8.294 17.834 
42 1 1.222 10.121 3.807 
43 1 -5.797 -2.142 -15.878 
44 1 10.284 10.930 6.472 
45 1 -14.315 11.642 5.650 
46 1 9.757 -0.542 -5.490 
47 1 6.346 -9.469 -8.475 
48 1 -16.822 14.500 5.128 
49 1 16.158 0.681 -13.708 
50 1 -0.417 -16.919 -11.806 
51 1 1.594 -10.450 7.125 
52 1 -13.852 -8.856 6.743 
53 1 1.124 -13.106 -16.477 
54 1 13.303 -14.903 -9.313 
55 1 4.754 -2.687 -16.896 
56 1 -4.243 14.688 9.166 
57 1 -0.959 0.851 -14.934 
58 1 7.229 -3.799 -14.000 
59 1 13.397 -9.145 11.762 
60 1 -4.951 -2.515 7.239 
61 1 -17.914 3.029 13.039 
62 1 13.330 -0.996 4.700 
63 1 -2.125 -13.727 17.403 
64 1 -1.984 -10.446 -16.909 
65 1 -16.791 0.750 8.746 
66 1 -7.401 1.298 -3.946 
67 1 4.529 -1.150 -6.120 
68 1 -11.176 -10.776 8.654 
69 1 -0.884 -7.374 0.218 
70 1 -13.151 10.044 -4.430 
71 1 -7.330 -14.829 -4.302 
72 1 17.260 16.232 -8.931 
73 1 -5.280 -12.042 17.768 
74 1 -5.786 17.682 -5.044 
75 1 16.091 4.292 -12.582 
76 1 16.074 12.533 -4.035 
77 1 -14.639 1.278 12.976 
78 1 -1.823 13.856 11.910 
79 1 -13.870 -14.580 3.926 
80 1 17.777 1.674 -10.398 
81 1 -8.516 -10.002 11.307 
82 1 -0.553 0.446 15.544 
83 1 4.973 -9.435 8.624 
84 1 -8.060 7.774 -16.150 
85 1 1.530 15.129 -1.675 
86 1 -5.279 7.434 11.376 
87 1 -5.890 -4.564 4.124 
88 1 6.748 17.657 -0.202 
89 1 8.080 17.030 3.325 
90 1 9.709 -6.052 -11.969 
91 1 5.562 4.852 -8.870 
92 1 11.172 6.325 14.846 
93 1 6.896 -1.221 4.893 
94 1 -13.897 -17.713 -17.561 
95 1 -4.810 9.607 -16.971 
96 1 17.299 -10.907 -8.701 
97 1 -0.278 -12.660 13.215 
98 1 3.029 0.686 -3.103 
99 1 -9.726 2.010 -0.865 
100 1 15.536 7.901 -11.699 
101 1 3.686 4.726 3.303 
102 1 -6.079 -15.687 -7.799 
103 1 2.492 -11.707 10.645 
104 1 -17.813 -16.749 9.785 
105 1 5.730 -16.754 13.351 
106 1 -0.411 -16.506 -7.970 
107 1 12.639 11.043 3.477 
108 1 2.862 16.688 10.373 
109 1 2.046 -5.554 -17.410 
110 1 11.729 1.629 6.883 
111 1 17.080 -14.450 -9.963 
112 1 15.710 -10.269 8.946 
113 1 -14.318 6.230 4.760 
114 1 -2.738 -10.600 15.329 
115 1 11.557 7.374 6.944 
116 1 -3.762 -17.456 8.790 
117 1 15.264 -17.449 -11.313 
118 1 -6.713 4.239 -1.619 
119 1 -12.917 0.846 9.600 
120 1 0.310 6.495 3.408 
121 1 3.110 4.501 -3.228 
122 1 3.202 7.915 1.290 
123 1 -16.287 -8.535 -10.438 
124 1 -0.725 16.189 9.111 
125 1 -10.225 -7.154 9.239 
126 1 -6.458 -10.580 14.517 
127 1 -16.276 6.395 12.469 
128 1 10.671 0.763 -9.028 
129 1 -13.408 7.799 14.416 
130 1 -2.780 -2.911 10.431 
131 1 10.059 9.646 13.398 
132 1 -4.544 11.258 10.970 
133 1 1.435 -14.644 15.895 
134 1 -4.022 -5.279 0.851 
135 1 -0.172 2.684 -2.797 
136 1 -14.434 2.819 6.555 
137 1 16.271 12.233 3.974 
138 1 -12.002 3.430 3.638 
139 1 -8.843 -1.599 -1.918 
140 1 0.091 10.639 11.692 
141 1 -6.597 -5.538 -4.360 
142 1 -14.489 -2.551 -0.392 
143 1 -2.209 8.693 9.461 
144 1 3.585 6.484 -16.328 
145 1 1.970 -16.470 12.830 
146 1 0.790 -10.868 16.434 
147 1 -13.124 8.519 -0.905 
148 1 2.456 -15.641 -5.621 
149 1 -2.248 8.401 5.677 
150 1 -6.076 16.732 1.751 
151 1 4.059 2.568 -6.284 
152 1 17.316 0.643 16.117 
153 1 -1.613 -11.110 0.413 
154 1 -6.760 -17.327 -1.497 
155 1 6.543 -7.123 -5.451 
156 1 7.234 -13.833 15.477 
157 1 -13.414 15.170 16.275 
158 1 -9.067 6.046 10.870 
159 1 10.560 -9.971 2.653 
160 1 13.400 -7.309 8.423 
161 1 -0.258 -7.141 -8.235 
162 1 9.279 -2.318 -10.987 
163 1 12.986 0.410 -3.695 
164 1 4.160 -12.249 17.315 
165 1 2.484 5.784 -11.002 
166 1 1.905 -2.281 16.561 
167 1 -11.516 4.228 8.454 
168 1 16.569 -1.627 -16.734 
169 1 -7.697 -13.544 12.513 
170 1 10.119 -8.838 9.872 
171 1 4.670 -4.872 15.949 
172 1 9.735 0.295 -1.657 
173 1 1.870 1.043 -17.500 
174 1 6.334 -14.510 -0.391 
175 1 14.568 -11.895 -11.094 
176 1 2.493 17.718 -9.681 
177 1 -0.010 -0.297 10.436 
178 1 1.350 -16.914 -17.112 
179 1 11.020 -12.944 -11.700 
180 1 -11.801 3.637 12.179 
181 1 -0.217 -2.698 13.385 
182 1 -8.178 9.751 10.898 
183 1 13.410 10.330 15.085 
184 1 10.326 -0.621 2.258 
185 1 0.897 0.561 -6.247 
186 1 13.899 -14.120 -13.986 
187 1 0.672 4.196 -15.680 
188 1 -3.005 4.084 -14.693 
189 1 1.587 -9.269 -16.215 
190 1 8.708 14.451 0.584 
191 1 14.731 -0.376 8.260 
192 1 -16.933 9.619 14.254 
193 1 -14.182 -12.651 7.210 
194 1 -10.591 17.730 15.852 
195 1 9.415 9.002 9.678 
196 1 7.714 2.208 -7.076 
197 1 -4.706 2.443 5.049 
198 1 3.553 -4.859 -14.041 
199 1 -10.444 -16.298 -16.918 
200 1 4.760 14.651 -10.090 
ITEM: TIMESTEP
100
ITEM: NUMBER OF ATOMS
200
ITEM: BOX BOUNDS pp pp pp
-17.980597440828447 17.980597440828447
-17.980597440828447 17.980597440828447
-17.980597440828447 17.980597440828447
ITEM: ATOMS id type x y z
1 1 11.581 -16.680 -12.238 
2 1 5.209 4.940 -0.125 
3 1 -7.217 12.508 8.475 
4 1 -6.762 -14.997 -16.445 
5 1 -7.091 -5.280 -17.758 
6 1 12.752 -6.475 4.722 
7 1 -4.351 -8.642 -0.899 
8 1 1.406 4.612 0.156 
9 1 9.972 -6.026 7.250 
10 1 17.902 -11.394 -12.401 
11 1 1.167 -2.308 -15.636 
12 1 -4.898 -8.344 17.336 
13 1 12.704 5.253 -10.977 
14 1 11.291 -9.570 6.416 
15 1 -0.188 3.253 -12.109 
16 1 -9.187 -17.374 -6.358 
17 1 -5.637 9.095 7.935 
18 1 15.694 -3.980 4.814 
19 1 -15.066 3.870 10.097 
20 1 5.096 3.683 -12.683 
21 1 15.784 4.596 -8.895 
22 1 -7.763 -15.338 15.890 
23 1 -4.892 1.110 -8.469 
24 1 13.957 1.696 -10.699 
25 1 15.822 -8.337 -11.144 
26 1 -12.902 7.009 10.689 
27 1 -13.960 5.303 1.137 
28 1 4.540 -16.043 16.901 
29 1 -13.700 11.506 15.085 
30 1 -4.444 -13.888 14.515 
31 1 -3.130 -14.837 -10.096 
32 1 -4.250 -14.063 10.775 
33 1 -8.168 -4.617 7.223 
34 1 3.875 -13.237 13.756 
35 1 9.444 4.420 5.637 
36 1 -3.454 1.291 -12.075 
37 1 17.229 -0.485 5.485 
38 1 -12.138 2.204 15.572 
39 1 12.929 -3.620 7.356 
40 1 11.972 -9.118 -11.581 
41 1 4.542 -8.367 17.660 
42 1 1.097 10.006 3.870 
43 1 -5.702 -2.155 -15.885 
44 1 10.261 10.940 6.494 
45 1 -14.397 11.549 5.609 
46 1 9.660 -0.575 -5.467 
47 1 6.412 -9.414 -8.538 
48 1 -16.826 14.484 5.140 
49 1 16.106 0.632 -13.696 
50 1 -0.363 -16.881 -11.795 
51 1 1.611 -10.463 7.176 
52 1 -13.683 -8.810 6.864 
53 1 1.020 -12.991 -16.479 
54 1 13.340 -14.929 -9.372 
55 1 4.712 -2.720 -16.871 
56 1 -4.203 14.661 9.108 
57 1 -0.979 0.785 -14.975 
58 1 7.186 -3.786 -13.995 
59 1 13.396 -9.127 11.725 
60 1 -4.935 -2.497 7.261 
61 1 -17.908 2.978 12.802 
62 1 13.388 -0.999 4.660 
63 1 -2.152 -13.742 17.378 
64 1 -1.981 -10.406 -17.021 
65 1 -16.858 0.765 8.885 
66 1 -7.419 1.292 -3.953 
67 1 4.646 -0.985 -6.128 
68 1 -11.110 -10.909 8.700 
69 1 -0.923 -7.343 0.219 
70 1 -13.168 10.024 -4.381 
71 1 -7.268 -14.810 -4.310 
72 1 17.164 16.413 -8.986 
73 1 -5.323 -12.062 17.723 
74 1 -5.722 17.696 -5.042 
75 1 16.041 4.249 -12.653 
76 1 16.099 12.547 -4.053 
77 1 -14.650 1.223 12.854 
78 1 -1.887 13.892 11.954 
79 1 -13.869 -14.547 3.974 
80 1 17.746 1.682 -10.401 
81 1 -8.479 -9.987 11.299 
82 1 -0.513 0.412 15.628 
83 1 4.996 -9.533 8.738 
84 1 -8.051 7.750 -16.157 
85 1 1.592 15.175 -1.669 
86 1 -5.306 7.418 11.333 
87 1 -5.870 -4.550 4.148 
88 1 6.706 17.603 -0.219 
89 1 8.074 17.057 3.307 
90 1 9.645 -6.028 -11.963 
91 1 5.569 4.805 -9.003 
92 1 11.341 6.519 14.842 
93 1 7.261 -1.130 4.765 
94 1 -13.722 -17.674 -17.690 
95 1 -4.788 9.563 -16.968 
96 1 17.275 -10.897 -8.634 
97 1 -0.381 -12.858 13.215 
98 1 3.219 0.809 -3.047 
99 1 -9.740 1.976 -0.873 
100 1 15.532 7.770 -11.450 
101 1 3.636 4.700 3.313 
102 1 -6.050 -15.696 -7.812 
103 1 2.380 -11.739 10.686 
104 1 -17.776 -16.707 9.730 
105 1 5.563 -16.639 13.297 
106 1 -0.535 -16.549 -7.951 
107 1 12.648 10.990 3.541 
108 1 2.860 16.781 10.537 
109 1 1.992 -5.608 -17.417 
110 1 11.704 1.560 6.843 
111 1 17.069 -14.394 -10.152 
112 1 15.589 -10.268 8.826 
113 1 -14.231 6.188 4.929 
114 1 -2.732 -10.642 15.237 
115 1 11.575 7.377 6.865 
116 1 -3.754 -17.467 8.959 
117 1 15.249 -17.370 -11.524 
118 1 -6.717 4.204 -1.593 
119 1 -12.911 0.897 9.513 
120 1 0.219 6.385 3.368 
121 1 3.108 4.615 -3.234 
122 1 3.097 7.867 1.284 
123 1 -16.377 -8.535 -10.495 
124 1 -0.695 16.207 9.181 
125 1 -10.272 -7.240 9.148 
126 1 -6.432 -10.575 14.481 
127 1 -16.252 6.368 12.510 
128 1 10.659 0.745 -8.988 
129 1 -13.329 7.743 14.395 
130 1 -2.774 -2.898 10.459 
131 1 10.002 9.719 13.328 
132 1 -4.522 11.238 10.922 
133 1 1.433 -14.599 15.957 
134 1 -4.076 -5.264 0.832 
135 1 -0.099 2.649 -2.892 
136 1 -14.529 2.718 6.533 
137 1 16.277 12.198 4.007 
138 1 -11.945 3.387 3.777 
139 1 -8.811 -1.629 -1.923 
140 1 -0.013 10.659 11.679 
141 1 -6.552 -5.479 -4.124 
142 1 -14.417 -2.502 -0.388 
143 1 -2.215 8.633 9.426 
144 1 3.699 6.352 -16.061 
145 1 1.806 -16.251 12.745 
146 1 0.824 -10.844 16.321 
147 1 -13.127 8.472 -0.866 
148 1 2.493 -15.787 -5.787 
149 1 -2.180 8.487 5.636 
150 1 -6.069 16.741 1.734 
151 1 3.979 2.698 -6.314 
152 1 17.466 0.718 15.995 
153 1 -1.668 -11.076 0.403 
154 1 -6.805 -17.343 -1.519 
155 1 6.537 -7.080 -5.501 
156 1 7.170 -13.774 15.468 
157 1 -13.356 15.129 16.225 
158 1 -9.127 6.075 10.807 
159 1 10.664 -9.734 2.712 
160 1 13.396 -7.206 8.436 
161 1 -0.223 -7.134 -8.234 
162 1 9.230 -2.299 -10.978 
163 1 12.913 0.434 -3.751 
164 1 4.125 -12.246 17.394 
165 1 2.443 5.783 -11.059 
166 1 1.898 -2.343 16.579 
167 1 -11.619 4.314 8.340 
168 1 16.604 -1.493 -16.839 
169 1 -7.670 -13.551 12.497 
170 1 10.103 -8.761 9.883 
171 1 4.651 -4.912 15.973 
172 1 9.723 0.234 -1.613 
173 1 1.965 0.937 -17.429 
174 1 6.345 -14.558 -0.369 
175 1 14.490 -11.787 -10.949 
176 1 2.507 17.821 -9.555 
177 1 -0.027 -0.256 10.552 
178 1 1.319 -16.784 -16.982 
179 1 11.033 -12.928 -11.730 
180 1 -11.868 3.691 12.104 
181 1 -0.236 -2.731 13.431 
182 1 -8.176 9.766 10.852 
183 1 13.369 10.064 15.056 
184 1 10.268 -0.561 2.386 
185 1 0.902 0.589 -6.068 
186 1 14.154 -14.301 -13.625 
187 1 0.725 4.101 -15.660 
188 1 -2.954 4.054 -14.672 
189 1 1.568 -9.268 -16.250 
190 1 8.715 14.439 0.606 
191 1 14.738 -0.380 8.257 
192 1 -16.867 9.599 14.306 
193 1 -14.206 -12.611 7.252 
194 1 -10.634 17.818 15.824 
195 1 9.463 8.939 9.647 
196 1 7.596 2.105 -7.127 
197 1 -4.704 2.392 5.099 
198 1 3.532 -4.943 -14.051 
199 1 -10.309 -16.145 -16.994 
200 1 4.710 14.712 -10.079 
