ITEM: TIMESTEP
0
ITEM: NUMBER OF ATOMS
200
ITEM: BOX BOUNDS pp pp pp
-11.693307158924013 11.693307158924013
-11.693307158924013 11.693307158924013
-11.693307158924013 11.693307158924013
ITEM: ATOMS id type x y z
1 1 3.254 3.075 2.404 
2 1 3.525 9.638 1.086 
3 1 2.556 1.381 -8.857 
4 1 -1.733 5.593 6.361 
5 1 -8.110 -2.661 3.030 
6 1 2.870 10.414 7.301 
7 1 3.604 -2.588 4.278 
8 1 1.520 8.883 9.322 
9 1 3.665 10.126 3.162 
10 1 -5.850 5.899 -1.414 
11 1 -0.864 -9.045 3.833 
12 1 8.924 10.171 6.088 
13 1 -6.361 -5.214 -1.635 
14 1 -11.452 -6.963 5.225 
15 1 5.637 1.328 9.301 
16 1 -0.171 11.132 -7.629 
17 1 -2.548 -8.241 0.943 
18 1 -0.066 -8.753 -3.829 
19 1 -5.437 1.588 4.548 
20 1 -1.017 0.863 -3.595 
21 1 0.640 -3.402 -10.628 
22 1 -1.578 -6.408 -7.270 
23 1 7.352 7.325 -7.892 
24 1 10.202 7.913 -5.988 
25 1 -7.858 8.600 8.445 
26 1 4.817 -9.446 -10.515 
27 1 -11.471 1.251 3.176 
28 1 -9.833 8.841 -5.856 
29 1 -0.415 4.188 -4.503 
30 1 -7.727 -3.080 5.522 
31 1 -6.198 1.646 3.321 
32 1 0.362 9.101 4.867 
33 1 0.425 -0.715 -7.611 
34 1 -10.174 5.895 9.329 
35 1 -2.957 -9.079 6.058 
36 1 -9.082 1.751 9.616 
37 1 3.244 -6.581 10.987 
38 1 -2.420 -8.476 2.835 
39 1 -6.410 3.698 5.718 
40 1 0.069 3.424 -10.065 
41 1 -0.880 -6.231 -3.150 
42 1 11.545 -11.466 -8.100 
43 1 -11.541 -2.413 1.836 
44 1 1.970 -1.543 -7.861 
45 1 4.238 -10.967 -3.250 
46 1 -5.095 11.241 6.245 
47 1 -7.871 -6.740 6.340 
48 1 2.147 -11.097 2.318 
49 1 4.400 1.012 8.304 
50 1 3.939 7.457 -8.484 
51 1 -4.926 8.383 4.339 
52 1 1.851 5.249 7.778 
53 1 4.972 -9.056 -7.518 
54 1 8.826 9.946 0.988 
55 1 3.069 -3.708 -9.188 
56 1 -7.939 0.778 10.511 
57 1 4.680 7.455 5.137 
58 1 11.088 -1.901 -6.796 
59 1 4.234 -8.570 -8.803 
60 1 -0.095 1.934 -0.656 
61 1 10.161 8.935 3.045 
62 1 -8.925 -4.675 -8.677 
63 1 4.737 11.049 6.995 
64 1 -6.730 -8.033 2.294 
65 1 -5.910 4.930 7.290 
66 1 -7.329 10.032 -3.012 
67 1 9.004 2.142 4.412 
68 1 9.760 3.536 -5.176 
69 1 1.515 -5.828 -11.592 
70 1 -5.405 8.110 5.582 
71 1 11.510 0.972 3.149 
72 1 7.441 -10.376 1.727 
73 1 -6.836 -11.209 1.176 
74 1 -7.795 0.789 -10.057 
75 1 0.499 -8.358 0.604 
76 1 7.709 10.855 10.415 
77 1 -2.919 -6.357 1.128 
78 1 2.211 -7.583 -8.287 
79 1 4.362 -8.277 -11.438 
80 1 -11.302 -1.963 3.646 
81 1 -1.408 -3.925 -7.454 
82 1 -5.398 10.289 5.067 
83 1 -3.803 -9.369 -2.744 
84 1 -4.573 1.096 6.941 
85 1 -10.978 8.072 -9.962 
86 1 -2.538 -7.560 -5.431 
87 1 -4.052 7.841 -6.733 
88 1 -0.301 2.776 -3.764 
89 1 -2.290 -2.036 -4.698 
90 1 3.337 2.947 -1.580 
91 1 10.380 -8.518 2.081 
92 1 0.057 10.343 4.741 
93 1 -6.413 3.320 -6.404 
94 1 9.629 4.531 -5.850 
95 1 0.769 10.978 3.722 
96 1 -7.413 4.504 -3.345 
97 1 -3.413 4.112 5.948 
98 1 -9.896 2.178 -6.455 
99 1 -4.543 8.108 -2.077 
100 1 2.711 -1.642 -4.166 
101 1 -0.518 9.425 4.961 
102 1 -8.250 -6.627 2.562 
103 1 11.626 -3.424 -6.863 
104 1 -7.329 8.252 -9.627 
105 1 -4.547 -9.468 7.555 
106 1 5.783 -4.780 -8.831 
107 1 -0.524 -1.741 0.984 
108 1 6.595 8.860 -9.915 
109 1 -6.015 6.685 3.737 
110 1 -1.172 3.929 8.005 
111 1 1.108 -3.438 8.267 
112 1 7.294 10.929 7.570 
113 1 -10.166 3.349 -9.063 
114 1 6.747 4.250 7.122 
115 1 -7.032 -7.356 -9.656 
116 1 0.599 -2.347 -0.800 
117 1 7.584 -3.314 3.630 
118 1 -6.110 -3.188 -2.366 
119 1 8.358 -8.634 -8.586 
120 1 -3.078 -1.744 6.796 
121 1 3.983 2.472 -11.238 
122 1 -5.989 7.427 -4.480 
123 1 -4.438 8.580 2.459 
124 1 3.127 2.390 4.844 
125 1 0.615 -2.349 -7.549 
126 1 -7.968 -6.157 6.595 
127 1 -3.659 1.948 6.555 
128 1 10.839 9.737 -3.324 
129 1 0.535 9.003 11.005 
130 1 8.179 -3.021 -8.568 
131 1 -3.764 0.122 3.427 
132 1 -8.467 8.894 5.406 
133 1 6.252 -1.471 -8.256 
134 1 10.186 -11.395 9.856 
135 1 9.694 -4.093 3.665 
136 1 -2.263 -1.512 8.508 
137 1 0.985 4.630 1.111 
138 1 -0.988 10.594 -2.413 
139 1 -4.220 -9.003 -9.135 
140 1 -1.818 11.368 7.803 
141 1 -4.658 0.181 -4.077 
142 1 -8.114 1.065 5.247 
143 1 -4.548 -5.355 -2.258 
144 1 -2.299 11.313 7.149 
145 1 -6.031 6.811 4.939 
146 1 -5.317 -3.428 -6.495 
147 1 -10.190 -3.837 -5.093 
148 1 0.127 6.237 5.471 
149 1 -5.110 -2.764 -9.535 
150 1 -3.307 -8.792 4.932 
151 1 4.489 1.523 -0.328 
152 1 -6.369 2.667 4.416 
153 1 2.247 -2.089 6.612 
154 1 -2.957 -9.580 -11.535 
155 1 -3.988 6.525 10.994 
156 1 -0.789 5.788 -1.041 
157 1 9.581 7.308 -11.082 
158 1 -2.623 -2.164 9.840 
159 1 -10.264 6.167 -8.925 
160 1 -6.329 -3.088 8.968 
161 1 -4.831 -9.889 -11.575 
162 1 3.876 -7.707 4.533 
163 1 -0.512 -4.883 -5.247 
164 1 4.280 9.857 7.239 
165 1 -4.314 8.247 -5.195 
166 1 -4.270 -3.723 -9.149 
167 1 -2.807 2.927 3.309 
168 1 -0.617 5.586 0.143 
169 1 -3.939 -0.235 3.112 
170 1 -5.825 7.588 4.306 
171 1 3.091 1.176 -1.165 
172 1 2.884 8.536 5.094 
173 1 -2.489 6.219 -0.825 
174 1 -11.474 -3.473 -10.248 
175 1 8.332 -3.083 9.482 
176 1 3.616 1.752 10.304 
177 1 8.961 10.639 -7.843 
178 1 2.690 2.249 3.862 
179 1 -4.948 -10.618 5.961 
180 1 -3.129 -4.673 -2.344 
181 1 8.779 -9.101 7.301 
182 1 -5.733 -4.074 3.080 
183 1 4.206 2.298 2.804 
184 1 -2.167 7.349 -6.930 
185 1 10.004 0.190 -0.353 
186 1 -1.211 10.671 -6.541 
187 1 -3.164 -10.442 9.886 
188 1 6.108 5.079 5.216 
189 1 9.429 7.360 7.603 
190 1 3.394 -9.049 4.421 
191 1 -2.425 -11.087 3.535 
192 1 -4.416 -3.511 -8.541 
193 1 -6.264 -8.845 -8.538 
194 1 3.904 8.819 -3.619 
195 1 -9.963 1.506 7.015 
196 1 -4.215 7.112 10.030 
197 1 -3.977 1.564 8.744 
198 1 -1.185 0.727 10.934 
199 1 7.632 0.276 0.357 
200 1 5.027 -9.709 -6.033 
ITEM: TIMESTEP
10
ITEM: NUMBER OF ATOMS
200
ITEM: BOX BOUNDS pp pp pp
-11.693307158924013 11.693307158924013
-11.693307158924013 11.693307158924013
-11.693307158924013 11.693307158924013
ITEM: ATOMS id type x y z
1 1 3.092 3.255 2.284 
2 1 3.525 9.637 1.083 
3 1 2.556 1.381 -8.857 
4 1 -1.734 5.594 6.362 
5 1 -8.110 -2.661 3.030 
6 1 2.749 10.470 7.305 
7 1 3.604 -2.588 4.278 
8 1 1.525 8.882 9.313 
9 1 3.665 10.127 3.165 
10 1 -5.850 5.899 -1.414 
11 1 -0.855 -9.048 3.839 
12 1 8.925 10.171 6.087 
13 1 -6.375 -5.216 -1.630 
14 1 -11.452 -6.963 5.225 
15 1 5.702 1.344 9.352 
16 1 -0.101 11.163 -7.702 
17 1 -2.546 -8.251 0.929 
18 1 -0.066 -8.753 -3.829 
19 1 -5.265 1.468 4.681 
20 1 -1.019 0.858 -3.594 
21 1 0.640 -3.402 -10.628 
22 1 -1.578 -6.408 -7.271 
23 1 7.353 7.325 -7.892 
24 1 10.202 7.913 -5.988 
25 1 -7.858 8.600 8.445 
26 1 4.853 -9.536 -10.453 
27 1 -10.937 1.620 3.211 
28 1 -9.833 8.841 -5.856 
29 1 -0.422 4.272 -4.547 
30 1 -7.727 -3.080 5.522 
31 1 -6.259 1.578 3.123 
32 1 0.738 8.876 4.833 
33 1 0.394 -0.637 -7.610 
34 1 -10.174 5.895 9.329 
35 1 -2.871 -9.148 6.325 
36 1 -9.107 1.772 9.597 
37 1 3.248 -6.581 10.984 
38 1 -2.427 -8.474 2.840 
39 1 -6.411 3.758 5.799 
40 1 0.069 3.424 -10.065 
41 1 -0.880 -6.232 -3.149 
42 1 11.545 -11.466 -8.100 
43 1 -11.543 -2.417 1.820 
44 1 2.065 -1.514 -7.881 
45 1 4.238 -10.967 -3.250 
46 1 -5.080 11.198 6.375 
47 1 -7.785 -7.260 6.113 
48 1 2.148 -11.096 2.317 
49 1 4.337 0.995 8.252 
50 1 3.939 7.457 -8.484 
51 1 -4.515 8.645 4.282 
52 1 1.851 5.249 7.778 
53 1 5.032 -9.055 -7.504 
54 1 8.826 9.946 0.988 
55 1 3.069 -3.708 -9.188 
56 1 -7.914 0.757 10.531 
57 1 4.683 7.453 5.137 
58 1 11.060 -1.821 -6.792 
59 1 4.170 -8.527 -8.904 
60 1 -0.095 1.934 -0.656 
61 1 10.161 8.934 3.046 
62 1 -8.925 -4.675 -8.677 
63 1 4.822 11.276 6.949 
64 1 -6.727 -8.035 2.294 
65 1 -5.908 4.933 7.294 
66 1 -7.329 10.032 -3.012 
67 1 9.004 2.142 4.412 
68 1 9.792 3.295 -5.013 
69 1 1.511 -5.826 -11.590 
70 1 -5.398 8.141 5.797 
71 1 10.976 0.603 3.114 
72 1 7.441 -10.376 1.727 
73 1 -6.836 -11.209 1.176 
74 1 -7.795 0.789 -10.057 
75 1 0.499 -8.358 0.604 
76 1 7.709 10.855 10.415 
77 1 -2.921 -6.346 1.129 
78 1 2.210 -7.582 -8.287 
79 1 4.329 -8.191 -11.506 
80 1 -11.300 -1.959 3.661 
81 1 -1.409 -3.924 -7.454 
82 1 -5.428 10.215 4.964 
83 1 -3.803 -9.369 -2.744 
84 1 -4.746 0.936 7.005 
85 1 -10.979 8.073 -9.963 
86 1 -2.538 -7.561 -5.430 
87 1 -4.047 7.821 -6.816 
88 1 -0.292 2.698 -3.721 
89 1 -2.290 -2.036 -4.698 
90 1 3.339 2.968 -1.585 
91 1 10.380 -8.518 2.081 
92 1 0.086 10.612 4.921 
93 1 -6.413 3.320 -6.404 
94 1 9.598 4.771 -6.013 
95 1 0.923 11.095 3.478 
96 1 -7.413 4.504 -3.345 
97 1 -3.413 4.114 5.947 
98 1 -9.896 2.177 -6.455 
99 1 -4.543 8.109 -2.077 
100 1 2.711 -1.642 -4.166 
101 1 -1.079 9.262 5.059 
102 1 -8.253 -6.625 2.562 
103 1 11.654 -3.504 -6.867 
104 1 -7.329 8.252 -9.627 
105 1 -4.548 -9.465 7.563 
106 1 5.783 -4.781 -8.831 
107 1 -0.525 -1.740 0.986 
108 1 6.595 8.860 -9.915 
109 1 -6.042 6.270 3.390 
110 1 -1.172 3.929 8.006 
111 1 1.108 -3.438 8.267 
112 1 7.293 10.930 7.571 
113 1 -10.166 3.349 -9.063 
114 1 6.747 4.249 7.124 
115 1 -7.034 -7.351 -9.660 
116 1 0.600 -2.347 -0.802 
117 1 7.583 -3.314 3.630 
118 1 -6.110 -3.185 -2.366 
119 1 8.358 -8.634 -8.586 
120 1 -3.085 -1.746 6.782 
121 1 3.984 2.474 -11.232 
122 1 -5.995 7.424 -4.478 
123 1 -4.436 8.580 2.439 
124 1 3.273 2.437 5.169 
125 1 0.552 -2.456 -7.530 
126 1 -8.054 -5.636 6.823 
127 1 -3.489 2.104 6.483 
128 1 10.839 9.737 -3.324 
129 1 0.530 9.004 11.014 
130 1 8.180 -3.021 -8.568 
131 1 -3.540 0.573 3.826 
132 1 -8.467 8.894 5.406 
133 1 6.251 -1.471 -8.256 
134 1 10.186 -11.395 9.856 
135 1 9.695 -4.094 3.665 
136 1 -2.225 -1.453 8.404 
137 1 0.991 4.626 1.114 
138 1 -0.988 10.594 -2.413 
139 1 -4.217 -9.003 -9.136 
140 1 -1.528 11.402 8.196 
141 1 -4.658 0.181 -4.077 
142 1 -8.114 1.064 5.247 
143 1 -4.630 -5.402 -2.257 
144 1 -2.589 11.280 6.756 
145 1 -6.096 6.485 5.302 
146 1 -5.330 -3.428 -6.471 
147 1 -10.189 -3.837 -5.092 
148 1 0.129 6.238 5.470 
149 1 -5.234 -2.622 -9.586 
150 1 -3.392 -8.723 4.665 
151 1 4.543 1.535 -0.295 
152 1 -6.482 2.793 4.395 
153 1 2.247 -2.088 6.611 
154 1 -2.943 -9.576 -11.532 
155 1 -3.924 6.361 11.263 
156 1 -0.797 5.829 -1.332 
157 1 9.581 7.308 -11.082 
158 1 -2.655 -2.221 9.957 
159 1 -10.263 6.166 -8.925 
160 1 -6.329 -3.088 8.968 
161 1 -4.845 -9.891 -11.575 
162 1 3.938 -7.536 4.548 
163 1 -0.512 -4.883 -5.247 
164 1 4.316 9.575 7.281 
165 1 -4.322 8.273 -5.114 
166 1 -4.046 -4.020 -9.643 
167 1 -2.807 2.928 3.309 
168 1 -0.582 5.542 0.424 
169 1 -4.162 -0.687 2.713 
170 1 -6.151 8.029 4.150 
171 1 3.035 1.142 -1.192 
172 1 2.882 8.537 5.095 
173 1 -2.521 6.227 -0.819 
174 1 -11.474 -3.473 -10.248 
175 1 8.332 -3.083 9.482 
176 1 3.614 1.750 10.300 
177 1 8.961 10.639 -7.843 
178 1 2.513 2.170 3.586 
179 1 -4.938 -10.498 5.929 
180 1 -3.033 -4.626 -2.350 
181 1 8.779 -9.101 7.301 
182 1 -5.733 -4.074 3.080 
183 1 4.400 2.150 2.875 
184 1 -2.157 7.346 -6.931 
185 1 10.005 0.190 -0.353 
186 1 -1.281 10.640 -6.467 
187 1 -3.164 -10.443 9.883 
188 1 6.108 5.079 5.214 
189 1 9.429 7.360 7.603 
190 1 3.332 -9.221 4.407 
191 1 -2.426 -11.087 3.535 
192 1 -4.504 -3.354 -8.020 
193 1 -6.265 -8.850 -8.533 
194 1 3.904 8.819 -3.619 
195 1 -9.963 1.506 7.015 
196 1 -4.278 7.276 9.761 
197 1 -3.974 1.566 8.753 
198 1 -1.185 0.727 10.934 
199 1 7.631 0.276 0.358 
200 1 5.030 -9.750 -5.941 
ITEM: TIMESTEP
20
ITEM: NUMBER OF ATOMS
200
ITEM: BOX BOUNDS pp pp pp
-11.693307158924013 11.693307158924013
-11.693307158924013 11.693307158924013
-11.693307158924013 11.693307158924013
ITEM: ATOMS id type x y z
1 1 3.805 3.721 2.074 
2 1 3.486 9.511 0.613 
3 1 2.506 1.439 -8.808 
4 1 -1.898 6.101 6.647 
5 1 -8.236 -2.566 2.783 
6 1 2.264 10.898 7.270 
7 1 3.701 -2.631 4.109 
8 1 1.723 8.645 9.022 
9 1 3.923 10.458 3.334 
10 1 -5.936 5.786 -1.296 
11 1 -0.192 -9.216 4.232 
12 1 9.191 10.063 5.830 
13 1 -7.180 -5.380 -1.191 
14 1 -11.451 -6.963 5.225 
15 1 6.270 1.424 9.632 
16 1 0.301 11.341 -8.123 
17 1 -2.554 -8.704 -0.268 
18 1 0.012 -8.941 -3.875 
19 1 -5.331 1.541 4.752 
20 1 -1.307 0.267 -3.559 
21 1 0.493 -3.110 -10.599 
22 1 -1.440 -6.734 -7.608 
23 1 7.398 7.225 -7.764 
24 1 10.225 8.000 -5.986 
25 1 -7.871 8.598 8.500 
26 1 5.342 -10.575 -10.330 
27 1 -10.448 1.969 3.237 
28 1 -9.827 8.842 -5.857 
29 1 -0.537 4.973 -5.003 
30 1 -7.651 -2.901 5.626 
31 1 -6.296 0.761 2.043 
32 1 0.741 8.537 4.207 
33 1 0.007 -0.005 -7.574 
34 1 -10.174 5.894 9.329 
35 1 -2.142 -9.215 6.796 
36 1 -9.449 2.212 9.591 
37 1 3.323 -6.014 10.239 
38 1 -2.250 -8.175 2.713 
39 1 -7.095 2.908 6.252 
40 1 0.065 3.427 -10.067 
41 1 -0.835 -6.375 -2.879 
42 1 11.614 -11.433 -8.107 
43 1 -11.605 -2.544 1.295 
44 1 2.890 -1.228 -7.943 
45 1 4.080 -11.161 -2.815 
46 1 -5.328 11.044 7.550 
47 1 -7.688 -7.828 5.860 
48 1 2.556 -10.619 1.764 
49 1 4.094 0.662 7.627 
50 1 3.927 7.453 -8.481 
51 1 -4.160 8.265 4.243 
52 1 1.891 5.235 7.827 
53 1 5.832 -8.933 -7.653 
54 1 8.740 10.007 0.850 
55 1 3.114 -3.868 -9.255 
56 1 -7.468 0.361 10.632 
57 1 5.289 7.415 5.072 
58 1 10.866 -1.227 -6.749 
59 1 3.797 -8.066 -9.323 
60 1 -0.137 1.917 -0.551 
61 1 10.255 8.862 3.170 
62 1 -8.910 -4.668 -8.665 
63 1 4.826 -11.465 6.707 
64 1 -6.392 -8.318 2.242 
65 1 -5.481 5.500 8.818 
66 1 -7.336 10.046 -3.007 
67 1 8.917 2.238 4.484 
68 1 9.860 2.790 -4.670 
69 1 1.031 -5.942 -11.356 
70 1 -5.393 8.219 6.761 
71 1 10.507 0.243 2.980 
72 1 7.433 -10.373 1.729 
73 1 -6.837 -11.232 1.169 
74 1 -7.808 0.811 -9.840 
75 1 0.534 -8.349 0.602 
76 1 7.631 10.800 10.610 
77 1 -3.048 -5.775 1.113 
78 1 1.509 -7.303 -7.901 
79 1 4.683 -8.272 11.326 
80 1 -11.172 -1.894 4.220 
81 1 -1.389 -4.194 -7.597 
82 1 -5.800 10.607 4.347 
83 1 -3.818 -9.386 -2.755 
84 1 -5.389 0.195 7.329 
85 1 -11.071 8.407 -10.129 
86 1 -2.726 -7.724 -5.171 
87 1 -4.562 7.757 -7.466 
88 1 0.174 2.698 -3.375 
89 1 -2.331 -2.131 -4.759 
90 1 3.356 3.499 -1.747 
91 1 10.384 -8.515 2.082 
92 1 0.090 11.364 5.724 
93 1 -6.410 3.319 -6.410 
94 1 9.513 5.174 -6.364 
95 1 0.773 10.928 2.880 
96 1 -7.485 4.428 -3.405 
97 1 -3.966 4.394 5.607 
98 1 -9.890 2.141 -6.371 
99 1 -4.572 8.377 -2.018 
100 1 2.708 -1.642 -4.168 
101 1 -1.610 8.999 5.492 
102 1 -8.585 -6.318 2.620 
103 1 11.611 -4.099 -7.172 
104 1 -7.328 8.252 -9.627 
105 1 -4.996 -9.137 8.039 
106 1 5.826 -4.847 -8.824 
107 1 -0.731 -1.628 1.313 
108 1 6.548 8.967 -10.053 
109 1 -5.826 5.713 2.616 
110 1 -1.076 3.698 8.229 
111 1 0.959 -3.619 8.485 
112 1 7.309 10.981 7.773 
113 1 -10.174 3.175 -9.168 
114 1 6.879 4.085 7.542 
115 1 -7.182 -6.986 -9.966 
116 1 0.803 -2.459 -1.130 
117 1 7.231 -3.182 3.624 
118 1 -6.032 -2.866 -2.489 
119 1 8.431 -8.625 -8.614 
120 1 -3.434 -1.948 6.217 
121 1 4.207 2.761 -10.743 
122 1 -6.456 7.178 -4.424 
123 1 -4.502 8.598 1.526 
124 1 3.540 2.678 5.647 
125 1 0.911 -2.816 -7.326 
126 1 -8.194 -5.286 7.209 
127 1 -2.821 1.872 6.515 
128 1 10.841 9.745 -3.313 
129 1 0.250 9.044 11.491 
130 1 8.413 -3.149 -8.597 
131 1 -2.701 0.396 3.994 
132 1 -8.739 8.989 5.579 
133 1 6.063 -1.311 -8.224 
134 1 10.289 -11.349 9.832 
135 1 10.031 -4.242 3.674 
136 1 -1.625 -0.956 8.359 
137 1 0.992 4.454 0.882 
138 1 -0.989 10.594 -2.413 
139 1 -3.872 -8.921 -8.980 
140 1 -0.972 11.314 8.666 
141 1 -4.672 0.188 -4.076 
142 1 -8.111 0.814 5.080 
143 1 -4.627 -5.998 -2.567 
144 1 -2.845 11.372 6.318 
145 1 -6.472 6.135 5.188 
146 1 -5.907 -3.516 -5.631 
147 1 -9.961 -3.835 -4.807 
148 1 0.640 5.920 5.260 
149 1 -5.747 -2.148 -10.067 
150 1 -3.971 -8.013 4.684 
151 1 4.989 1.606 -0.020 
152 1 -7.207 3.373 3.266 
153 1 2.295 -1.866 6.564 
154 1 -2.239 -9.360 -11.363 
155 1 -3.820 6.041 -11.642 
156 1 -0.356 5.806 -2.023 
157 1 9.552 7.297 -11.094 
158 1 -2.884 -2.566 10.538 
159 1 -10.145 6.055 -8.723 
160 1 -6.324 -3.082 8.973 
161 1 -5.380 -9.985 -11.620 
162 1 4.147 -6.952 4.594 
163 1 -0.340 -4.779 -5.214 
164 1 4.778 8.916 7.679 
165 1 -3.852 8.725 -4.764 
166 1 -3.703 -4.601 -10.327 
167 1 -2.729 3.269 3.135 
168 1 -1.178 5.953 1.127 
169 1 -4.328 -1.294 2.286 
170 1 -6.816 8.199 3.583 
171 1 2.535 0.556 -1.375 
172 1 2.984 8.750 5.475 
173 1 -3.180 6.311 -0.868 
174 1 -11.487 -3.463 -10.274 
175 1 8.332 -3.083 9.482 
176 1 3.162 1.689 10.168 
177 1 8.892 10.610 -7.838 
178 1 1.790 1.660 3.459 
179 1 -5.413 -10.361 5.514 
180 1 -2.447 -4.028 -2.273 
181 1 8.779 -9.100 7.299 
182 1 -5.634 -4.142 3.082 
183 1 5.091 1.648 3.095 
184 1 -1.636 7.227 -6.904 
185 1 10.259 0.183 -0.435 
186 1 -1.675 10.479 -6.050 
187 1 -3.210 -10.657 9.738 
188 1 6.252 4.649 4.753 
189 1 9.430 7.344 7.613 
190 1 3.170 -9.729 4.523 
191 1 -2.490 -11.206 3.455 
192 1 -4.753 -2.845 -7.823 
193 1 -6.574 -9.233 -8.070 
194 1 3.904 8.817 -3.619 
195 1 -10.257 1.494 6.888 
196 1 -3.931 8.286 9.749 
197 1 -3.808 1.754 9.315 
198 1 -1.172 0.738 10.957 
199 1 7.451 0.246 0.450 
200 1 5.023 -10.038 -5.315 
ITEM: TIMESTEP
30
ITEM: NUMBER OF ATOMS
200
ITEM: BOX BOUNDS pp pp pp
-11.693307158924013 11.693307158924013
-11.693307158924013 11.693307158924013
-11.693307158924013 11.693307158924013
ITEM: ATOMS id type x y z
1 1 4.055 4.249 2.169 
2 1 3.382 9.338 0.262 
3 1 2.256 2.235 -8.683 
4 1 -1.996 6.084 7.374 
5 1 -8.300 -2.425 2.297 
6 1 2.559 11.423 8.094 
7 1 3.710 -2.713 3.714 
8 1 1.655 8.233 9.082 
9 1 4.324 10.552 3.411 
10 1 -6.559 5.815 -1.037 
11 1 0.181 -8.636 4.390 
12 1 9.623 10.175 5.525 
13 1 -7.572 -5.494 -0.877 
14 1 -11.413 -7.018 5.281 
15 1 6.572 1.384 9.965 
16 1 0.656 11.490 -8.531 
17 1 -2.713 -9.088 -0.439 
18 1 0.203 -9.373 -4.052 
19 1 -5.084 1.386 4.394 
20 1 -1.378 0.086 -3.282 
21 1 0.136 -2.676 -10.811 
22 1 -1.459 -7.158 -8.165 
23 1 7.261 7.119 -7.524 
24 1 10.309 8.206 -6.070 
25 1 -8.058 8.537 9.021 
26 1 5.368 -10.999 -10.199 
27 1 -10.666 2.173 3.104 
28 1 -9.664 8.886 -5.877 
29 1 -0.652 5.004 -5.341 
30 1 -7.399 -2.790 5.741 
31 1 -6.677 0.718 1.387 
32 1 0.746 8.179 3.187 
33 1 -0.487 0.279 -7.489 
34 1 -10.250 5.908 9.319 
35 1 -1.846 -8.798 7.156 
36 1 -9.582 2.557 9.918 
37 1 3.441 -5.607 9.908 
38 1 -2.370 -7.937 2.597 
39 1 -7.334 2.984 6.958 
40 1 -0.273 3.711 -10.255 
41 1 -0.821 -6.593 -1.964 
42 1 -11.515 -11.342 -8.126 
43 1 -11.581 -2.684 1.017 
44 1 3.583 -0.872 -7.844 
45 1 3.782 -11.379 -2.061 
46 1 -6.182 11.295 8.214 
47 1 -8.046 -7.868 5.599 
48 1 3.250 -10.343 1.088 
49 1 4.479 0.334 7.427 
50 1 3.721 7.378 -8.410 
51 1 -3.723 7.517 4.114 
52 1 2.271 5.059 8.195 
53 1 6.097 -8.622 -7.661 
54 1 8.592 10.027 0.541 
55 1 3.104 -4.133 -9.649 
56 1 -7.256 0.162 10.435 
57 1 5.881 7.699 4.888 
58 1 10.855 -0.924 -6.690 
59 1 3.573 -7.866 -9.841 
60 1 -0.638 1.615 -0.198 
61 1 10.674 8.411 2.903 
62 1 -8.732 -4.480 -8.510 
63 1 5.284 -11.061 6.444 
64 1 -6.083 -8.255 2.204 
65 1 -5.532 5.329 8.900 
66 1 -7.664 10.313 -3.079 
67 1 8.980 2.332 4.787 
68 1 9.946 2.348 -4.345 
69 1 0.697 -6.264 -11.203 
70 1 -5.204 8.261 6.972 
71 1 10.226 -0.077 2.770 
72 1 7.272 -10.297 1.797 
73 1 -6.871 -11.503 1.014 
74 1 -7.710 0.792 -9.481 
75 1 0.685 -8.167 0.659 
76 1 7.743 10.912 11.206 
77 1 -3.204 -5.278 0.814 
78 1 1.712 -7.053 -7.141 
79 1 5.172 -8.549 10.604 
80 1 -10.958 -1.933 4.709 
81 1 -1.826 -3.909 -8.099 
82 1 -5.766 10.334 4.085 
83 1 -4.414 -10.046 -3.113 
84 1 -5.677 -0.044 7.465 
85 1 -11.033 8.906 -10.283 
86 1 -2.920 -7.708 -5.146 
87 1 -4.842 7.571 -7.852 
88 1 0.715 2.661 -3.431 
89 1 -2.539 -2.394 -5.156 
90 1 3.418 4.046 -1.974 
91 1 10.449 -8.465 2.106 
92 1 0.292 11.659 5.577 
93 1 -6.315 3.282 -6.607 
94 1 9.641 4.859 -6.655 
95 1 0.495 11.329 2.134 
96 1 -7.924 3.949 -3.549 
97 1 -4.274 4.479 5.546 
98 1 -9.886 2.050 -6.096 
99 1 -4.830 8.906 -1.904 
100 1 2.731 -1.699 -4.321 
101 1 -1.269 8.854 5.866 
102 1 -8.884 -6.081 2.636 
103 1 11.470 -4.564 -7.073 
104 1 -7.498 8.321 -9.807 
105 1 -5.342 -8.422 8.409 
106 1 6.158 -5.290 -8.709 
107 1 -0.715 -1.693 1.369 
108 1 6.205 8.930 -10.106 
109 1 -5.201 5.466 2.036 
110 1 -0.687 3.431 8.903 
111 1 0.632 -3.891 8.826 
112 1 7.733 11.020 8.010 
113 1 -10.434 2.941 -9.571 
114 1 6.946 4.176 7.805 
115 1 -7.038 -6.953 -10.279 
116 1 0.886 -2.763 -1.393 
117 1 7.112 -3.022 3.591 
118 1 -5.939 -2.533 -2.116 
119 1 9.239 -8.572 -8.940 
120 1 -3.577 -2.337 5.929 
121 1 4.817 3.197 -10.769 
122 1 -6.720 7.092 -4.604 
123 1 -4.381 9.003 1.288 
124 1 3.441 3.120 5.697 
125 1 1.108 -2.898 -7.080 
126 1 -8.525 -5.319 7.746 
127 1 -2.543 1.764 6.655 
128 1 10.899 9.892 -3.069 
129 1 -0.012 9.119 -11.437 
130 1 9.010 -3.425 -8.836 
131 1 -1.916 0.122 3.841 
132 1 -9.096 9.188 5.671 
133 1 6.654 -0.861 -8.247 
134 1 10.603 -11.242 9.758 
135 1 10.197 -4.501 3.656 
136 1 -1.179 -0.919 8.186 
137 1 1.094 4.366 0.788 
138 1 -1.008 10.596 -2.361 
139 1 -4.015 -9.121 -8.776 
140 1 -0.635 10.868 8.926 
141 1 -4.845 0.279 -4.125 
142 1 -8.242 0.314 4.771 
143 1 -4.653 -6.189 -2.629 
144 1 -3.169 11.458 6.496 
145 1 -7.272 6.090 5.420 
146 1 -6.341 -3.989 -5.288 
147 1 -9.753 -3.767 -4.519 
148 1 0.707 5.235 4.994 
149 1 -6.079 -2.123 -10.788 
150 1 -4.235 -6.962 5.167 
151 1 5.044 1.790 -0.028 
152 1 -7.618 3.511 3.239 
153 1 1.921 -1.713 6.471 
154 1 -1.593 -9.089 -11.320 
155 1 -3.762 5.797 -11.358 
156 1 0.132 6.023 -2.051 
157 1 9.359 7.193 -11.163 
158 1 -2.966 -2.559 10.613 
159 1 -10.023 6.146 -8.315 
160 1 -6.204 -3.093 9.130 
161 1 -5.833 -9.988 -11.531 
162 1 4.300 -6.504 4.598 
163 1 -0.395 -5.153 -4.992 
164 1 5.132 8.719 8.290 
165 1 -3.646 8.660 -4.899 
166 1 -3.909 -5.053 -10.515 
167 1 -2.532 3.306 2.735 
168 1 -1.519 6.342 1.735 
169 1 -4.247 -1.674 1.948 
170 1 -7.683 8.022 2.576 
171 1 2.396 0.345 -1.510 
172 1 2.679 8.613 5.839 
173 1 -3.163 5.931 -1.125 
174 1 -11.513 -3.349 -10.573 
175 1 8.324 -3.075 9.494 
176 1 2.643 1.704 10.194 
177 1 8.590 10.665 -7.904 
178 1 1.504 1.477 3.238 
179 1 -5.631 -10.006 5.327 
180 1 -2.447 -3.519 -1.944 
181 1 8.785 -9.039 7.255 
182 1 -5.626 -4.553 3.261 
183 1 5.402 1.050 3.425 
184 1 -1.400 7.554 -7.383 
185 1 10.717 0.280 -0.797 
186 1 -1.507 10.967 -5.952 
187 1 -3.370 -10.938 9.799 
188 1 6.429 4.419 4.413 
189 1 9.404 7.230 7.709 
190 1 3.177 -9.739 4.427 
191 1 -2.739 -11.372 3.080 
192 1 -4.712 -2.287 -7.756 
193 1 -7.171 -9.530 -7.677 
194 1 3.889 8.736 -3.646 
195 1 -10.775 1.500 6.774 
196 1 -3.662 8.651 9.936 
197 1 -4.002 2.004 9.814 
198 1 -0.967 0.755 11.279 
199 1 7.582 -0.226 0.732 
200 1 4.882 -10.265 -5.045 
ITEM: TIMESTEP
40
ITEM: NUMBER OF ATOMS
200
ITEM: BOX BOUNDS pp pp pp
-11.693307158924013 11.693307158924013
-11.693307158924013 11.693307158924013
-11.693307158924013 11.693307158924013
ITEM: ATOMS id type x y z
1 1 4.035 4.604 2.192 
2 1 3.279 9.059 0.106 
3 1 2.176 2.569 -8.481 
4 1 -2.246 6.008 7.836 
5 1 -8.231 -2.338 2.091 
6 1 2.901 11.621 8.425 
7 1 3.494 -2.622 3.320 
8 1 1.606 8.135 9.383 
9 1 4.383 10.523 3.310 
10 1 -7.008 6.124 -1.064 
11 1 0.250 -7.828 4.672 
12 1 9.881 10.376 5.207 
13 1 -7.715 -5.446 -0.660 
14 1 -11.634 -7.173 5.557 
15 1 6.750 1.230 10.191 
16 1 0.912 -11.680 -8.742 
17 1 -2.711 -9.509 -0.520 
18 1 0.296 -9.358 -4.014 
19 1 -4.937 1.161 4.049 
20 1 -1.245 -0.024 -3.180 
21 1 0.217 -2.482 -10.894 
22 1 -1.110 -7.253 -8.252 
23 1 7.075 7.044 -7.333 
24 1 10.367 8.245 -6.223 
25 1 -8.038 8.502 9.392 
26 1 5.068 -11.138 -10.050 
27 1 -11.010 2.333 2.981 
28 1 -9.518 9.132 -6.073 
29 1 -0.984 5.074 -5.545 
30 1 -7.383 -2.943 5.763 
31 1 -6.855 0.844 0.912 
32 1 1.204 8.159 2.882 
33 1 -0.636 0.181 -7.455 
34 1 -10.646 6.019 9.168 
35 1 -1.841 -8.850 7.469 
36 1 -9.805 2.643 10.097 
37 1 3.627 -5.543 10.030 
38 1 -2.690 -7.969 2.754 
39 1 -7.535 2.909 7.098 
40 1 -0.519 4.054 -10.382 
41 1 -0.961 -6.554 -1.715 
42 1 -11.373 -11.370 -8.044 
43 1 -11.530 -2.893 0.723 
44 1 3.610 -0.707 -8.038 
45 1 3.354 -11.571 -2.196 
46 1 -6.592 11.623 8.131 
47 1 -8.006 -7.740 5.514 
48 1 3.718 -10.130 0.945 
49 1 4.761 0.184 7.308 
50 1 3.277 7.196 -8.205 
51 1 -3.497 7.541 4.151 
52 1 2.656 4.970 8.376 
53 1 6.285 -8.661 -7.694 
54 1 8.524 9.989 0.441 
55 1 3.175 -4.079 -9.901 
56 1 -7.271 0.170 10.439 
57 1 6.309 7.978 5.072 
58 1 10.904 -0.917 -6.727 
59 1 3.486 -7.814 -10.098 
60 1 -1.020 1.418 0.024 
61 1 10.983 8.023 2.652 
62 1 -8.475 -4.145 -8.268 
63 1 5.753 -10.976 6.354 
64 1 -6.198 -8.124 1.963 
65 1 -5.672 5.335 9.076 
66 1 -8.011 10.629 -3.087 
67 1 9.234 2.156 5.215 
68 1 10.046 2.071 -4.208 
69 1 0.456 -6.093 -11.333 
70 1 -5.239 8.367 7.308 
71 1 10.112 -0.482 2.897 
72 1 7.163 -10.282 2.050 
73 1 -6.788 -11.653 0.869 
74 1 -7.603 0.724 -9.229 
75 1 0.647 -8.206 0.967 
76 1 8.218 11.186 -11.637 
77 1 -3.284 -5.179 0.766 
78 1 2.194 -6.998 -6.790 
79 1 5.459 -8.869 10.265 
80 1 -10.887 -2.201 4.990 
81 1 -2.059 -3.770 -8.426 
82 1 -6.038 10.162 4.213 
83 1 -4.743 -10.529 -3.369 
84 1 -5.472 -0.090 7.371 
85 1 -11.198 9.092 -10.308 
86 1 -3.008 -7.911 -5.259 
87 1 -4.871 7.217 -8.008 
88 1 0.876 2.738 -3.527 
89 1 -2.674 -2.462 -5.331 
90 1 3.581 4.558 -1.957 
91 1 10.512 -8.375 2.175 
92 1 0.405 -11.484 5.517 
93 1 -6.252 3.341 -6.764 
94 1 9.979 4.606 -6.954 
95 1 0.544 11.572 1.771 
96 1 -8.083 3.657 -3.525 
97 1 -4.651 4.418 5.510 
98 1 -9.977 1.981 -6.201 
99 1 -5.002 9.098 -2.174 
100 1 2.944 -1.524 -4.365 
101 1 -0.631 8.652 6.040 
102 1 -9.333 -5.902 2.621 
103 1 11.497 -4.891 -6.970 
104 1 -7.585 8.433 -10.120 
105 1 -5.581 -8.160 8.615 
106 1 6.166 -5.300 -8.651 
107 1 -0.554 -2.044 1.209 
108 1 5.886 8.683 -10.393 
109 1 -4.988 5.429 1.842 
110 1 -0.468 3.352 9.324 
111 1 0.351 -4.055 8.977 
112 1 8.071 10.668 8.250 
113 1 -10.685 2.869 -9.709 
114 1 6.815 4.300 8.003 
115 1 -7.217 -6.928 -10.320 
116 1 1.139 -3.284 -1.723 
117 1 7.131 -2.747 3.653 
118 1 -6.030 -2.410 -1.879 
119 1 9.570 -8.616 -9.154 
120 1 -3.582 -2.720 5.763 
121 1 4.969 3.438 -10.781 
122 1 -6.752 7.006 -4.701 
123 1 -4.120 9.119 1.416 
124 1 3.504 3.102 5.540 
125 1 1.092 -3.099 -7.083 
126 1 -8.927 -5.372 8.118 
127 1 -2.472 2.076 6.674 
128 1 11.006 9.970 -2.931 
129 1 -0.294 9.076 -11.121 
130 1 9.054 -3.327 -9.162 
131 1 -1.542 -0.182 4.078 
132 1 -9.333 9.486 5.745 
133 1 7.191 -0.370 -8.235 
134 1 11.063 -11.114 9.684 
135 1 10.230 -4.651 3.473 
136 1 -1.180 -0.830 8.182 
137 1 0.938 4.284 0.727 
138 1 -1.097 10.597 -2.198 
139 1 -4.066 -9.321 -8.683 
140 1 -0.574 10.895 8.980 
141 1 -4.976 0.368 -4.271 
142 1 -8.335 0.325 4.621 
143 1 -4.619 -6.239 -2.483 
144 1 -3.113 11.151 6.552 
145 1 -7.672 6.319 5.616 
146 1 -6.133 -4.253 -5.251 
147 1 -9.681 -3.590 -4.240 
148 1 0.401 5.132 4.926 
149 1 -6.326 -2.594 -10.852 
150 1 -4.127 -6.483 5.737 
151 1 5.216 1.963 -0.011 
152 1 -7.674 3.597 3.271 
153 1 1.750 -1.637 6.317 
154 1 -1.351 -9.209 -11.315 
155 1 -3.676 5.656 -11.221 
156 1 0.309 6.434 -2.195 
157 1 9.209 7.158 -11.185 
158 1 -2.988 -2.491 10.761 
159 1 -10.045 6.126 -8.112 
160 1 -6.034 -3.349 9.047 
161 1 -6.398 -10.263 -11.490 
162 1 4.398 -6.161 4.628 
163 1 -0.485 -5.266 -4.990 
164 1 5.249 8.474 8.658 
165 1 -3.233 8.359 -4.942 
166 1 -3.927 -5.590 -10.863 
167 1 -2.216 3.277 2.873 
168 1 -1.657 6.634 1.465 
169 1 -4.240 -1.671 1.782 
170 1 -7.883 7.852 2.167 
171 1 2.243 0.260 -1.190 
172 1 2.804 8.623 6.001 
173 1 -3.313 5.694 -1.613 
174 1 -11.118 -3.277 -10.804 
175 1 8.293 -3.027 9.562 
176 1 2.622 1.595 10.222 
177 1 8.354 10.804 -8.052 
178 1 1.556 1.392 2.977 
179 1 -5.361 -9.775 5.135 
180 1 -2.473 -3.152 -1.859 
181 1 8.799 -9.039 7.200 
182 1 -5.808 -4.719 3.157 
183 1 5.510 0.807 3.527 
184 1 -1.086 7.863 -7.871 
185 1 10.845 0.387 -0.854 
186 1 -1.539 11.439 -5.956 
187 1 -3.549 -10.953 9.920 
188 1 6.767 4.485 4.368 
189 1 9.321 7.245 7.722 
190 1 3.223 -9.576 4.367 
191 1 -2.828 -11.497 3.008 
192 1 -5.091 -1.665 -7.679 
193 1 -7.565 -9.625 -7.561 
194 1 3.814 8.499 -3.727 
195 1 -10.985 1.482 6.790 
196 1 -3.434 8.778 10.253 
197 1 -4.057 2.114 10.049 
198 1 -1.021 0.663 11.616 
199 1 7.466 -0.767 0.511 
200 1 4.701 -10.503 -5.226 
ITEM: TIMESTEP
50
ITEM: NUMBER OF ATOMS
200
ITEM: BOX BOUNDS pp pp pp
-11.693307158924013 11.693307158924013
-11.693307158924013 11.693307158924013
-11.693307158924013 11.693307158924013
ITEM: ATOMS id type x y z
1 1 3.825 5.062 2.199 
2 1 3.226 8.703 -0.073 
3 1 2.142 2.705 -8.244 
4 1 -2.468 5.954 7.941 
5 1 -8.126 -2.299 1.918 
6 1 3.155 11.572 8.452 
7 1 3.310 -2.322 2.916 
8 1 1.564 8.138 9.442 
9 1 4.315 10.464 3.097 
10 1 -7.117 6.319 -1.079 
11 1 0.309 -7.346 4.975 
12 1 9.778 10.572 5.073 
13 1 -7.690 -5.335 -0.389 
14 1 -11.569 -7.139 5.757 
15 1 6.753 1.152 10.313 
16 1 1.052 -11.370 -8.723 
17 1 -2.750 -9.716 -0.366 
18 1 0.307 -9.240 -4.033 
19 1 -4.831 1.199 3.903 
20 1 -0.947 -0.100 -3.357 
21 1 0.410 -2.285 -10.905 
22 1 -0.937 -7.301 -8.180 
23 1 7.038 7.066 -7.460 
24 1 10.541 8.282 -6.539 
25 1 -8.126 8.616 9.559 
26 1 4.820 -11.328 -10.067 
27 1 -11.177 2.290 3.001 
28 1 -9.256 9.349 -6.332 
29 1 -1.206 4.934 -5.545 
30 1 -7.380 -2.984 5.819 
31 1 -6.835 0.986 0.713 
32 1 1.365 8.044 3.044 
33 1 -0.699 0.086 -7.540 
34 1 -10.750 6.091 8.926 
35 1 -1.923 -8.953 7.518 
36 1 -9.768 2.713 10.149 
37 1 3.609 -5.663 9.999 
38 1 -2.717 -8.048 3.002 
39 1 -7.589 2.775 7.107 
40 1 -0.387 4.427 -10.285 
41 1 -0.961 -6.646 -1.612 
42 1 -11.423 -11.404 -7.901 
43 1 -11.469 -3.034 0.545 
44 1 3.571 -0.733 -8.308 
45 1 2.518 11.658 -2.261 
46 1 -6.771 -11.677 7.879 
47 1 -7.787 -7.346 5.459 
48 1 3.931 -10.032 0.708 
49 1 4.934 0.148 7.196 
50 1 3.046 7.129 -8.199 
51 1 -3.213 7.620 4.198 
52 1 2.995 4.932 8.540 
53 1 6.364 -8.882 -7.796 
54 1 8.492 9.959 0.604 
55 1 3.313 -4.142 -9.979 
56 1 -7.190 0.039 10.432 
57 1 6.700 8.348 5.246 
58 1 11.046 -0.984 -6.839 
59 1 3.445 -7.866 -10.212 
60 1 -1.516 1.102 0.196 
61 1 11.205 7.937 2.725 
62 1 -8.399 -3.899 -7.907 
63 1 5.928 -11.262 6.038 
64 1 -6.263 -8.210 1.761 
65 1 -6.061 5.313 9.211 
66 1 -8.295 10.782 -2.968 
67 1 8.962 1.857 5.431 
68 1 10.165 1.910 -4.295 
69 1 0.281 -5.985 -11.356 
70 1 -5.358 8.281 7.225 
71 1 10.049 -0.709 2.913 
72 1 7.226 -10.409 2.616 
73 1 -6.789 -11.658 0.612 
74 1 -7.817 0.715 -9.255 
75 1 0.606 -8.275 1.294 
76 1 8.362 11.344 -11.443 
77 1 -3.208 -5.248 1.006 
78 1 2.503 -6.969 -6.709 
79 1 5.582 -9.232 10.123 
80 1 -10.872 -2.414 5.034 
81 1 -2.304 -3.774 -8.819 
82 1 -6.070 10.256 4.268 
83 1 -4.751 -10.751 -3.390 
84 1 -5.262 -0.103 7.330 
85 1 -11.279 9.101 -10.250 
86 1 -3.094 -8.076 -5.271 
87 1 -4.728 7.015 -7.953 
88 1 1.116 2.981 -3.360 
89 1 -2.589 -2.473 -5.329 
90 1 3.709 5.080 -1.758 
91 1 10.599 -8.329 2.328 
92 1 0.325 -11.349 5.395 
93 1 -6.299 3.474 -6.839 
94 1 10.124 4.507 -7.173 
95 1 0.773 11.404 1.518 
96 1 -7.943 3.495 -3.433 
97 1 -4.931 4.596 5.464 
98 1 -9.933 1.998 -6.254 
99 1 -5.123 9.220 -2.316 
100 1 2.738 -1.140 -4.494 
101 1 -0.398 8.592 6.394 
102 1 -9.667 -5.664 2.767 
103 1 11.484 -4.898 -7.036 
104 1 -7.540 8.472 -10.074 
105 1 -5.805 -7.996 8.839 
106 1 6.340 -5.300 -8.431 
107 1 -0.338 -2.279 1.227 
108 1 5.724 8.548 -10.652 
109 1 -4.843 5.387 1.716 
110 1 -0.299 3.454 9.413 
111 1 0.209 -3.996 8.898 
112 1 8.153 10.562 8.405 
113 1 -10.938 2.859 -9.710 
114 1 6.595 4.307 8.043 
115 1 -7.293 -6.780 -10.302 
116 1 1.145 -3.456 -2.014 
117 1 6.981 -2.710 3.892 
118 1 -6.142 -2.264 -1.740 
119 1 9.708 -8.760 -9.406 
120 1 -3.571 -2.746 5.544 
121 1 4.881 3.670 -10.847 
122 1 -6.721 6.931 -4.782 
123 1 -4.221 8.842 1.362 
124 1 3.519 3.109 5.436 
125 1 1.046 -3.195 -7.220 
126 1 -9.096 -5.328 8.267 
127 1 -2.301 2.360 6.569 
128 1 11.216 9.939 -3.035 
129 1 -0.331 9.364 -11.130 
130 1 9.184 -3.146 -9.475 
131 1 -1.369 -0.207 4.112 
132 1 -9.524 9.749 5.908 
133 1 7.356 -0.103 -8.209 
134 1 11.299 -11.148 9.642 
135 1 10.111 -4.702 3.376 
136 1 -1.401 -0.658 8.270 
137 1 0.886 3.937 0.365 
138 1 -1.215 10.563 -2.124 
139 1 -4.081 -9.280 -8.833 
140 1 -0.462 11.225 9.104 
141 1 -4.964 0.385 -4.294 
142 1 -8.322 0.286 4.477 
143 1 -4.619 -6.316 -2.341 
144 1 -3.160 10.989 6.606 
145 1 -8.138 6.320 5.879 
146 1 -5.893 -4.233 -5.156 
147 1 -9.508 -3.425 -4.204 
148 1 0.373 5.123 5.220 
149 1 -6.403 -2.986 -10.856 
150 1 -4.079 -6.295 6.055 
151 1 5.068 2.088 0.108 
152 1 -7.771 3.703 3.272 
153 1 1.632 -1.457 6.175 
154 1 -1.127 -9.469 -11.313 
155 1 -3.736 5.537 -11.310 
156 1 0.295 6.786 -2.285 
157 1 9.111 7.138 -11.268 
158 1 -2.999 -2.450 11.079 
159 1 -9.892 6.097 -8.045 
160 1 -5.708 -3.712 8.934 
161 1 -6.821 -10.424 -11.377 
162 1 4.371 -5.861 4.614 
163 1 -0.539 -5.449 -4.928 
164 1 5.422 8.124 8.978 
165 1 -2.859 8.169 -4.844 
166 1 -3.706 -6.134 -11.267 
167 1 -2.004 3.441 2.997 
168 1 -1.566 6.781 1.148 
169 1 -4.205 -1.710 1.652 
170 1 -7.916 7.753 2.286 
171 1 1.999 0.172 -0.892 
172 1 3.169 8.623 6.112 
173 1 -3.413 5.739 -1.905 
174 1 -10.672 -3.230 -10.824 
175 1 8.203 -2.860 9.737 
176 1 2.717 1.397 10.256 
177 1 8.100 10.889 -7.849 
178 1 1.753 1.229 2.722 
179 1 -5.109 -9.723 5.163 
180 1 -2.505 -2.960 -1.904 
181 1 8.864 -9.226 7.232 
182 1 -5.878 -4.917 3.144 
183 1 5.682 0.780 3.522 
184 1 -0.879 7.822 -7.839 
185 1 10.894 0.454 -0.655 
186 1 -1.763 11.643 -5.986 
187 1 -3.814 -10.941 10.021 
188 1 6.830 4.636 4.320 
189 1 9.217 7.089 7.683 
190 1 3.248 -9.481 4.270 
191 1 -2.659 11.657 2.998 
192 1 -5.252 -1.419 -7.715 
193 1 -7.702 -9.751 -7.637 
194 1 3.602 8.318 -3.855 
195 1 -11.016 1.283 6.809 
196 1 -3.414 8.786 10.251 
197 1 -4.006 2.254 9.940 
198 1 -1.155 0.887 -11.480 
199 1 7.334 -0.970 0.429 
200 1 4.268 -10.805 -5.474 
ITEM: TIMESTEP
60
ITEM: NUMBER OF ATOMS
200
ITEM: BOX BOUNDS pp pp pp
-11.693307158924013 11.693307158924013
-11.693307158924013 11.693307158924013
-11.693307158924013 11.693307158924013
ITEM: ATOMS id type x y z
1 1 3.560 5.234 2.286 
2 1 2.965 8.542 -0.071 
3 1 2.098 2.790 -8.087 
4 1 -2.595 5.922 8.015 
5 1 -8.023 -2.248 1.830 
6 1 3.228 11.445 8.559 
7 1 3.279 -2.135 2.744 
8 1 1.664 8.185 9.673 
9 1 4.247 10.378 3.018 
10 1 -7.140 6.371 -1.014 
11 1 0.445 -7.205 5.150 
12 1 9.686 10.839 5.021 
13 1 -7.607 -5.347 -0.273 
14 1 -11.511 -6.998 5.868 
15 1 6.646 1.134 10.438 
16 1 1.132 -11.004 -8.524 
17 1 -2.815 -9.725 -0.192 
18 1 0.318 -9.184 -4.256 
19 1 -4.788 1.364 3.840 
20 1 -0.977 0.021 -3.340 
21 1 0.533 -2.126 -10.889 
22 1 -0.814 -7.460 -8.148 
23 1 7.129 7.090 -7.611 
24 1 10.680 8.337 -6.825 
25 1 -8.150 8.705 9.637 
26 1 4.699 -11.456 -10.076 
27 1 -11.272 2.198 3.073 
28 1 -9.049 9.420 -6.496 
29 1 -1.295 4.756 -5.532 
30 1 -7.294 -2.992 5.890 
31 1 -6.734 1.093 0.647 
32 1 1.179 8.053 3.235 
33 1 -0.596 0.050 -7.624 
34 1 -10.720 6.091 8.881 
35 1 -1.984 -8.979 7.458 
36 1 -9.594 2.739 10.149 
37 1 3.450 -5.815 9.957 
38 1 -2.577 -8.077 3.202 
39 1 -7.530 2.652 7.061 
40 1 -0.210 4.708 -10.303 
41 1 -0.839 -6.749 -1.539 
42 1 -11.569 -11.471 -7.812 
43 1 -11.421 -3.035 0.580 
44 1 3.433 -0.726 -8.519 
45 1 2.185 11.549 -2.244 
46 1 -6.755 -11.673 7.894 
47 1 -7.702 -7.148 5.547 
48 1 3.995 -10.136 0.584 
49 1 5.057 0.177 7.160 
50 1 3.010 6.988 -8.291 
51 1 -3.003 7.595 4.182 
52 1 3.037 4.942 8.656 
53 1 6.212 -8.981 -7.801 
54 1 8.441 9.892 1.020 
55 1 3.368 -4.281 -9.970 
56 1 -7.058 -0.044 10.401 
57 1 6.828 8.412 5.179 
58 1 11.262 -0.951 -7.049 
59 1 3.258 -8.027 -10.271 
60 1 -1.743 0.930 0.276 
61 1 11.389 8.024 3.016 
62 1 -8.266 -3.742 -7.764 
63 1 5.856 -11.437 6.051 
64 1 -6.036 -8.267 1.733 
65 1 -6.321 5.341 9.256 
66 1 -8.322 10.814 -3.006 
67 1 8.740 1.733 5.585 
68 1 10.255 1.779 -4.379 
69 1 0.189 -5.861 -11.313 
70 1 -5.495 8.149 7.103 
71 1 9.938 -0.815 3.001 
72 1 7.212 -10.400 2.791 
73 1 -6.643 -11.680 0.398 
74 1 -7.976 0.580 -9.295 
75 1 0.667 -8.399 1.481 
76 1 8.342 11.317 -11.367 
77 1 -3.034 -5.212 1.117 
78 1 2.616 -6.976 -6.740 
79 1 5.726 -9.494 10.134 
80 1 -10.788 -2.515 4.945 
81 1 -2.329 -3.940 -8.912 
82 1 -6.055 10.325 4.178 
83 1 -4.718 -10.701 -3.293 
84 1 -5.131 -0.159 7.253 
85 1 -11.218 9.052 -10.241 
86 1 -3.227 -8.014 -5.368 
87 1 -4.550 6.903 -7.945 
88 1 1.273 2.991 -3.400 
89 1 -2.427 -2.472 -5.498 
90 1 3.705 5.271 -1.669 
91 1 10.624 -8.375 2.541 
92 1 0.305 -11.327 5.320 
93 1 -6.379 3.543 -6.944 
94 1 10.173 4.541 -7.182 
95 1 0.753 11.283 1.384 
96 1 -7.685 3.370 -3.355 
97 1 -5.003 4.731 5.446 
98 1 -9.869 2.132 -6.286 
99 1 -5.106 9.205 -2.459 
100 1 2.416 -0.827 -4.712 
101 1 -0.274 8.631 6.683 
102 1 -9.690 -5.525 2.871 
103 1 11.529 -4.784 -7.164 
104 1 -7.458 8.500 -9.964 
105 1 -5.910 -7.908 8.970 
106 1 6.483 -5.320 -8.326 
107 1 -0.317 -2.418 1.234 
108 1 5.609 8.450 -10.753 
109 1 -4.798 5.228 1.675 
110 1 -0.278 3.469 9.427 
111 1 0.102 -3.880 8.888 
112 1 8.129 10.471 8.468 
113 1 -11.041 2.834 -9.759 
114 1 6.586 4.107 7.974 
115 1 -7.177 -6.792 -10.265 
116 1 1.037 -3.380 -2.207 
117 1 6.818 -2.687 4.054 
118 1 -6.248 -2.155 -1.655 
119 1 9.577 -8.916 -9.549 
120 1 -3.510 -2.737 5.275 
121 1 4.641 3.909 -11.006 
122 1 -6.681 6.840 -4.815 
123 1 -4.287 8.708 1.350 
124 1 3.543 3.164 5.489 
125 1 1.011 -3.311 -7.294 
126 1 -9.023 -5.219 8.419 
127 1 -2.299 2.502 6.467 
128 1 11.377 9.866 -3.349 
129 1 -0.416 9.689 -10.975 
130 1 9.248 -3.049 -9.685 
131 1 -1.347 -0.094 3.989 
132 1 -9.515 9.742 5.970 
133 1 7.393 -0.047 -8.251 
134 1 11.351 -11.317 9.644 
135 1 9.989 -4.696 3.368 
136 1 -1.452 -0.505 8.323 
137 1 0.790 3.815 0.201 
138 1 -1.460 10.497 -2.007 
139 1 -4.104 -9.214 -9.021 
140 1 -0.426 11.379 9.115 
141 1 -4.863 0.298 -4.285 
142 1 -8.280 0.252 4.407 
143 1 -4.537 -6.431 -2.176 
144 1 -3.188 10.956 6.670 
145 1 -8.376 6.200 6.001 
146 1 -5.704 -4.151 -4.981 
147 1 -9.375 -3.260 -4.145 
148 1 0.366 5.140 5.561 
149 1 -6.383 -3.140 -10.927 
150 1 -4.073 -6.215 6.162 
151 1 4.717 2.193 0.242 
152 1 -7.841 3.739 3.237 
153 1 1.608 -1.214 6.101 
154 1 -0.973 -9.495 -11.345 
155 1 -3.666 5.545 -11.471 
156 1 0.241 6.847 -2.420 
157 1 9.071 7.226 -11.391 
158 1 -2.946 -2.387 11.139 
159 1 -9.699 5.977 -7.942 
160 1 -5.421 -3.973 8.888 
161 1 -7.008 -10.476 -11.442 
162 1 4.180 -5.688 4.556 
163 1 -0.537 -5.555 -4.895 
164 1 5.558 7.839 8.962 
165 1 -2.715 8.181 -4.771 
166 1 -3.634 -6.289 -11.581 
167 1 -1.787 3.554 2.977 
168 1 -1.447 6.803 0.987 
169 1 -4.192 -1.695 1.642 
170 1 -7.861 7.565 2.500 
171 1 1.831 0.089 -0.818 
172 1 3.222 8.523 6.171 
173 1 -3.476 5.750 -1.982 
174 1 -10.408 -3.136 -10.759 
175 1 8.072 -2.611 9.940 
176 1 2.700 1.294 10.227 
177 1 7.928 10.901 -7.756 
178 1 1.826 1.336 2.746 
179 1 -5.099 -9.704 5.272 
180 1 -2.627 -2.968 -1.874 
181 1 8.907 -9.414 7.125 
182 1 -5.804 -4.945 3.084 
183 1 5.694 0.851 3.530 
184 1 -0.727 7.703 -7.899 
185 1 10.879 0.479 -0.486 
186 1 -1.876 -11.667 -6.021 
187 1 -3.841 -10.837 10.103 
188 1 6.771 4.692 4.259 
189 1 9.154 6.967 7.743 
190 1 3.313 -9.468 4.169 
191 1 -2.661 11.529 3.004 
192 1 -5.185 -1.442 -7.763 
193 1 -7.739 -9.908 -7.705 
194 1 3.367 8.371 -4.029 
195 1 -11.039 1.180 6.778 
196 1 -3.369 8.880 10.096 
197 1 -4.003 2.365 9.787 
198 1 -1.249 1.042 -11.341 
199 1 7.149 -0.923 0.522 
200 1 3.735 -10.923 -5.713 
ITEM: TIMESTEP
70
ITEM: NUMBER OF ATOMS
200
ITEM: BOX BOUNDS pp pp pp
-11.693307158924013 11.693307158924013
-11.693307158924013 11.693307158924013
-11.693307158924013 11.693307158924013
ITEM: ATOMS id type x y z
1 1 3.348 5.288 2.370 
2 1 2.708 8.491 -0.035 
3 1 2.063 2.874 -7.973 
4 1 -2.689 5.907 8.028 
5 1 -7.989 -2.239 1.805 
6 1 3.279 11.338 8.673 
7 1 3.256 -2.003 2.644 
8 1 1.719 8.185 9.917 
9 1 4.186 10.307 3.038 
10 1 -7.125 6.378 -0.979 
11 1 0.537 -7.165 5.252 
12 1 9.646 10.917 4.980 
13 1 -7.538 -5.360 -0.261 
14 1 -11.478 -6.855 5.961 
15 1 6.526 1.182 10.584 
16 1 1.056 -10.836 -8.466 
17 1 -2.776 -9.701 -0.094 
18 1 0.318 -9.182 -4.444 
19 1 -4.743 1.446 3.756 
20 1 -1.107 0.136 -3.267 
21 1 0.573 -2.061 -10.901 
22 1 -0.770 -7.534 -8.122 
23 1 7.186 7.076 -7.760 
24 1 10.723 8.298 -7.004 
25 1 -8.171 8.756 9.702 
26 1 4.609 -11.538 -10.074 
27 1 -11.286 2.122 3.103 
28 1 -9.001 9.447 -6.569 
29 1 -1.346 4.691 -5.539 
30 1 -7.255 -3.013 5.929 
31 1 -6.663 1.147 0.579 
32 1 0.994 8.141 3.369 
33 1 -0.497 0.045 -7.659 
34 1 -10.751 6.129 9.027 
35 1 -1.982 -8.985 7.407 
36 1 -9.456 2.757 10.166 
37 1 3.302 -5.905 9.934 
38 1 -2.480 -8.147 3.351 
39 1 -7.439 2.603 7.058 
40 1 -0.021 4.814 -10.431 
41 1 -0.735 -6.815 -1.522 
42 1 -11.638 -11.518 -7.820 
43 1 -11.421 -2.995 0.663 
44 1 3.341 -0.685 -8.635 
45 1 2.001 11.523 -2.274 
46 1 -6.723 -11.672 7.949 
47 1 -7.683 -7.048 5.614 
48 1 3.956 -10.265 0.542 
49 1 5.164 0.204 7.194 
50 1 3.015 6.788 -8.397 
51 1 -2.835 7.590 4.323 
52 1 3.017 4.949 8.751 
53 1 6.036 -8.984 -7.824 
54 1 8.342 9.787 1.479 
55 1 3.394 -4.358 -9.978 
56 1 -6.951 -0.101 10.373 
57 1 6.858 8.399 5.138 
58 1 11.473 -0.859 -7.281 
59 1 3.063 -8.128 -10.329 
60 1 -1.858 0.967 0.333 
61 1 11.549 8.056 3.284 
62 1 -8.141 -3.664 -7.691 
63 1 5.809 -11.507 6.083 
64 1 -5.873 -8.280 1.715 
65 1 -6.419 5.361 9.291 
66 1 -8.262 10.864 -3.087 
67 1 8.672 1.683 5.681 
68 1 10.308 1.677 -4.440 
69 1 0.139 -5.784 -11.258 
70 1 -5.554 8.155 7.036 
71 1 9.848 -0.838 3.073 
72 1 7.121 -10.317 2.866 
73 1 -6.421 -11.648 0.265 
74 1 -8.102 0.359 -9.286 
75 1 0.713 -8.416 1.558 
76 1 8.301 11.189 -11.358 
77 1 -2.861 -5.261 1.113 
78 1 2.676 -6.999 -6.777 
79 1 5.865 -9.686 10.151 
80 1 -10.747 -2.507 4.882 
81 1 -2.358 -4.063 -8.916 
82 1 -6.082 10.369 4.153 
83 1 -4.670 -10.651 -3.199 
84 1 -5.032 -0.190 7.179 
85 1 -11.118 9.056 -10.359 
86 1 -3.333 -7.995 -5.448 
87 1 -4.450 6.820 -7.946 
88 1 1.364 2.941 -3.529 
89 1 -2.296 -2.451 -5.545 
90 1 3.666 5.327 -1.694 
91 1 10.610 -8.430 2.746 
92 1 0.297 -11.375 5.270 
93 1 -6.389 3.570 -7.024 
94 1 10.248 4.526 -7.160 
95 1 0.656 11.278 1.364 
96 1 -7.454 3.288 -3.325 
97 1 -5.027 4.817 5.380 
98 1 -9.827 2.239 -6.284 
99 1 -5.102 9.177 -2.418 
100 1 2.182 -0.664 -4.873 
101 1 -0.343 8.607 6.863 
102 1 -9.672 -5.519 2.879 
103 1 11.623 -4.692 -7.254 
104 1 -7.363 8.485 -9.933 
105 1 -5.960 -7.885 8.976 
106 1 6.571 -5.317 -8.321 
107 1 -0.352 -2.417 1.194 
108 1 5.494 8.367 -10.836 
109 1 -4.758 5.044 1.629 
110 1 -0.302 3.460 9.384 
111 1 0.028 -3.831 8.908 
112 1 8.130 10.397 8.455 
113 1 -11.037 2.797 -9.777 
114 1 6.527 3.996 7.945 
115 1 -7.080 -6.855 -10.253 
116 1 0.925 -3.288 -2.343 
117 1 6.720 -2.644 4.162 
118 1 -6.326 -2.082 -1.624 
119 1 9.419 -9.025 -9.570 
120 1 -3.448 -2.776 5.174 
121 1 4.407 4.120 -11.129 
122 1 -6.668 6.798 -4.845 
123 1 -4.424 8.690 1.220 
124 1 3.525 3.175 5.579 
125 1 1.010 -3.392 -7.340 
126 1 -8.940 -5.152 8.563 
127 1 -2.325 2.539 6.414 
128 1 11.507 9.850 -3.643 
129 1 -0.483 9.914 -10.891 
130 1 9.310 -2.995 -9.753 
131 1 -1.345 -0.063 3.957 
132 1 -9.446 9.703 6.026 
133 1 7.396 -0.034 -8.326 
134 1 11.372 -11.492 9.665 
135 1 9.948 -4.693 3.400 
136 1 -1.379 -0.374 8.400 
137 1 0.742 3.780 0.062 
138 1 -1.577 10.410 -1.832 
139 1 -4.091 -9.194 -9.169 
140 1 -0.397 11.470 9.133 
141 1 -4.835 0.199 -4.286 
142 1 -8.210 0.233 4.399 
143 1 -4.456 -6.552 -2.087 
144 1 -3.191 10.928 6.683 
145 1 -8.488 6.100 6.065 
146 1 -5.562 -4.079 -4.847 
147 1 -9.261 -3.139 -4.098 
148 1 0.389 5.169 5.723 
149 1 -6.338 -3.206 -10.938 
150 1 -4.057 -6.204 6.175 
151 1 4.553 2.259 0.291 
152 1 -7.860 3.716 3.217 
153 1 1.660 -0.994 6.064 
154 1 -0.874 -9.428 -11.389 
155 1 -3.567 5.592 -11.570 
156 1 0.188 6.794 -2.526 
157 1 9.048 7.372 -11.543 
158 1 -2.910 -2.336 11.179 
159 1 -9.574 5.919 -7.880 
160 1 -5.310 -3.981 8.892 
161 1 -7.100 -10.543 -11.533 
162 1 4.028 -5.593 4.491 
163 1 -0.571 -5.598 -4.922 
164 1 5.619 7.702 8.937 
165 1 -2.618 8.171 -4.811 
166 1 -3.603 -6.314 11.628 
167 1 -1.633 3.650 2.988 
168 1 -1.326 6.813 0.875 
169 1 -4.202 -1.718 1.612 
170 1 -7.780 7.464 2.615 
171 1 1.723 0.095 -0.792 
172 1 3.264 8.418 6.225 
173 1 -3.504 5.723 -2.024 
174 1 -10.283 -2.984 -10.674 
175 1 7.944 -2.426 10.020 
176 1 2.637 1.241 10.187 
177 1 7.860 10.911 -7.729 
178 1 1.788 1.464 2.782 
179 1 -5.131 -9.668 5.299 
180 1 -2.740 -3.010 -1.879 
181 1 8.911 -9.456 7.105 
182 1 -5.826 -4.940 3.097 
183 1 5.648 0.915 3.555 
184 1 -0.664 7.650 -7.923 
185 1 10.843 0.496 -0.379 
186 1 -1.974 -11.638 -6.068 
187 1 -3.818 -10.734 10.161 
188 1 6.711 4.672 4.222 
189 1 9.134 6.862 7.744 
190 1 3.345 -9.479 4.144 
191 1 -2.700 11.484 3.006 
192 1 -5.067 -1.439 -7.815 
193 1 -7.730 -10.072 -7.765 
194 1 3.231 8.401 -4.107 
195 1 -11.001 1.132 6.774 
196 1 -3.318 8.968 10.009 
197 1 -4.034 2.412 9.714 
198 1 -1.290 1.124 -11.296 
199 1 7.031 -0.894 0.591 
200 1 3.569 -10.956 -5.735 
ITEM: TIMESTEP
80
ITEM: NUMBER OF ATOMS
200
ITEM: BOX BOUNDS pp pp pp
-11.693307158924013 11.693307158924013
-11.693307158924013 11.693307158924013
-11.693307158924013 11.693307158924013
ITEM: ATOMS id type x y z
1 1 3.003 5.312 2.529 
2 1 2.329 8.409 0.016 
3 1 1.938 2.942 -7.823 
4 1 -2.826 5.912 7.990 
5 1 -8.004 -2.170 1.814 
6 1 3.388 11.090 8.856 
7 1 3.192 -1.807 2.534 
8 1 1.691 8.115 10.273 
9 1 4.092 10.209 3.100 
10 1 -7.102 6.325 -0.919 
11 1 0.607 -7.163 5.372 
12 1 9.627 10.954 5.043 
13 1 -7.396 -5.377 -0.281 
14 1 -11.420 -6.602 6.087 
15 1 6.301 1.321 10.822 
16 1 0.981 -10.815 -8.378 
17 1 -2.554 -9.718 -0.035 
18 1 0.256 -9.200 -4.644 
19 1 -4.648 1.519 3.653 
20 1 -1.243 0.263 -3.141 
21 1 0.634 -1.965 -11.001 
22 1 -0.811 -7.542 -8.144 
23 1 7.250 7.048 -7.999 
24 1 10.784 8.222 -7.329 
25 1 -8.200 8.846 9.827 
26 1 4.480 -11.615 -10.129 
27 1 -11.248 1.958 3.132 
28 1 -8.937 9.454 -6.669 
29 1 -1.444 4.648 -5.582 
30 1 -7.252 -3.000 6.010 
31 1 -6.562 1.216 0.477 
32 1 0.809 8.309 3.539 
33 1 -0.525 0.033 -7.829 
34 1 -10.781 6.224 9.278 
35 1 -1.977 -9.030 7.383 
36 1 -9.285 2.787 10.183 
37 1 3.080 -5.969 9.874 
38 1 -2.282 -8.232 3.423 
39 1 -7.216 2.657 7.185 
40 1 0.299 4.938 -10.662 
41 1 -0.581 -6.837 -1.589 
42 1 -11.677 -11.584 -7.918 
43 1 -11.469 -2.926 0.798 
44 1 3.293 -0.616 -8.712 
45 1 1.758 11.502 -2.279 
46 1 -6.627 -11.641 8.017 
47 1 -7.712 -6.910 5.702 
48 1 3.890 -10.423 0.531 
49 1 5.326 0.214 7.301 
50 1 3.021 6.671 -8.431 
51 1 -2.794 7.670 4.374 
52 1 2.933 5.024 8.747 
53 1 5.800 -8.975 -7.900 
54 1 8.054 9.617 1.891 
55 1 3.438 -4.404 -10.021 
56 1 -6.828 -0.201 10.341 
57 1 6.821 8.348 5.232 
58 1 -11.615 -0.704 -7.617 
59 1 2.860 -8.199 -10.397 
60 1 -2.034 1.101 0.437 
61 1 -11.690 8.004 3.660 
62 1 -7.962 -3.553 -7.619 
63 1 5.763 -11.578 6.143 
64 1 -5.674 -8.237 1.677 
65 1 -6.455 5.440 9.373 
66 1 -8.133 11.001 -3.213 
67 1 8.651 1.684 5.748 
68 1 10.387 1.497 -4.569 
69 1 0.097 -5.652 -11.185 
70 1 -5.666 8.174 7.008 
71 1 9.706 -0.852 3.149 
72 1 7.013 -10.281 2.935 
73 1 -6.058 -11.687 0.216 
74 1 -8.154 0.106 -9.209 
75 1 0.793 -8.331 1.626 
76 1 8.233 11.052 -11.330 
77 1 -2.781 -5.372 1.182 
78 1 2.639 -6.994 -6.848 
79 1 6.050 -9.925 10.098 
80 1 -10.682 -2.451 4.762 
81 1 -2.475 -4.149 -8.865 
82 1 -6.094 10.450 4.115 
83 1 -4.477 -10.669 -3.136 
84 1 -4.870 -0.251 7.111 
85 1 -10.993 9.086 -10.635 
86 1 -3.471 -7.972 -5.571 
87 1 -4.339 6.742 -7.945 
88 1 1.393 2.957 -3.672 
89 1 -2.157 -2.302 -5.524 
90 1 3.611 5.393 -1.736 
91 1 10.529 -8.516 3.119 
92 1 0.272 -11.479 5.231 
93 1 -6.296 3.551 -7.080 
94 1 10.367 4.455 -7.141 
95 1 0.568 11.369 1.388 
96 1 -7.101 3.218 -3.292 
97 1 -5.084 4.911 5.244 
98 1 -9.712 2.321 -6.233 
99 1 -5.108 9.109 -2.399 
100 1 1.935 -0.590 -5.030 
101 1 -0.353 8.529 7.099 
102 1 -9.655 -5.544 2.856 
103 1 -11.607 -4.521 -7.325 
104 1 -7.242 8.449 -9.918 
105 1 -5.984 -7.874 9.001 
106 1 6.681 -5.327 -8.374 
107 1 -0.440 -2.352 1.111 
108 1 5.341 8.285 -10.957 
109 1 -4.684 4.828 1.514 
110 1 -0.357 3.511 9.311 
111 1 -0.144 -3.803 8.927 
112 1 8.145 10.290 8.465 
113 1 -10.947 2.685 -9.760 
114 1 6.442 3.932 7.967 
115 1 -6.968 -6.973 -10.329 
116 1 0.757 -3.153 -2.493 
117 1 6.573 -2.575 4.290 
118 1 -6.384 -1.982 -1.613 
119 1 9.194 -9.161 -9.569 
120 1 -3.366 -2.860 5.087 
121 1 4.133 4.258 -11.182 
122 1 -6.643 6.753 -4.883 
123 1 -4.454 8.532 1.180 
124 1 3.423 3.072 5.712 
125 1 0.994 -3.433 -7.494 
126 1 -8.791 -5.078 8.778 
127 1 -2.378 2.578 6.337 
128 1 11.680 9.911 -4.069 
129 1 -0.640 10.105 -10.826 
130 1 9.397 -2.923 -9.830 
131 1 -1.324 -0.023 3.955 
132 1 -9.298 9.643 6.185 
133 1 7.357 0.003 -8.525 
134 1 11.443 11.548 9.757 
135 1 9.892 -4.690 3.475 
136 1 -1.245 -0.211 8.508 
137 1 0.646 3.795 -0.094 
138 1 -1.668 10.128 -1.480 
139 1 -4.021 -9.268 -9.339 
140 1 -0.324 11.584 9.160 
141 1 -4.869 0.077 -4.333 
142 1 -8.094 0.078 4.399 
143 1 -4.343 -6.726 -2.039 
144 1 -3.221 10.951 6.642 
145 1 -8.610 5.953 6.176 
146 1 -5.381 -4.006 -4.730 
147 1 -9.120 -2.986 -4.081 
148 1 0.398 5.237 5.828 
149 1 -6.274 -3.299 -10.926 
150 1 -4.031 -6.105 6.213 
151 1 4.445 2.368 0.356 
152 1 -7.861 3.722 3.162 
153 1 1.789 -0.557 6.040 
154 1 -0.740 -9.325 -11.441 
155 1 -3.375 5.619 -11.626 
156 1 0.128 6.680 -2.644 
157 1 9.024 7.450 11.563 
158 1 -2.889 -2.216 11.270 
159 1 -9.450 5.880 -7.874 
160 1 -5.164 -3.913 8.885 
161 1 -7.167 -10.675 -11.640 
162 1 3.900 -5.484 4.345 
163 1 -0.667 -5.685 -4.936 
164 1 5.688 7.583 8.902 
165 1 -2.570 8.209 -4.830 
166 1 -3.539 -6.315 11.502 
167 1 -1.490 3.792 3.013 
168 1 -1.257 6.905 0.810 
169 1 -4.217 -1.753 1.567 
170 1 -7.664 7.286 2.787 
171 1 1.638 0.159 -0.759 
172 1 3.184 8.235 6.275 
173 1 -3.504 5.678 -2.069 
174 1 -10.163 -2.814 -10.604 
175 1 7.731 -2.172 10.077 
176 1 2.494 1.218 10.096 
177 1 7.780 10.932 -7.693 
178 1 1.699 1.638 2.778 
179 1 -5.269 -9.752 5.343 
180 1 -2.871 -3.078 -1.892 
181 1 8.861 -9.480 7.172 
182 1 -5.750 -4.981 3.056 
183 1 5.578 0.981 3.621 
184 1 -0.608 7.594 -7.981 
185 1 10.756 0.521 -0.266 
186 1 -2.152 -11.604 -6.218 
187 1 -3.751 -10.644 10.242 
188 1 6.539 4.657 4.241 
189 1 9.175 6.731 7.670 
190 1 3.343 -9.521 4.152 
191 1 -2.788 11.393 2.972 
192 1 -4.878 -1.373 -7.903 
193 1 -7.666 -10.330 -7.868 
194 1 3.058 8.458 -4.197 
195 1 -10.895 1.115 6.814 
196 1 -3.285 9.027 9.940 
197 1 -4.082 2.456 9.663 
198 1 -1.298 1.259 -11.305 
199 1 6.866 -0.877 0.676 
200 1 3.524 -11.062 -5.690 
ITEM: TIMESTEP
90
ITEM: NUMBER OF ATOMS
200
ITEM: BOX BOUNDS pp pp pp
-11.693307158924013 11.693307158924013
-11.693307158924013 11.693307158924013
-11.693307158924013 11.693307158924013
ITEM: ATOMS id type x y z
1 1 2.779 5.361 2.634 
2 1 2.163 8.408 0.046 
3 1 1.778 2.981 -7.776 
4 1 -2.923 5.898 7.940 
5 1 -7.972 -2.239 1.779 
6 1 3.489 10.821 9.031 
7 1 3.136 -1.709 2.498 
8 1 1.585 8.042 10.536 
9 1 4.048 10.157 3.158 
10 1 -7.099 6.279 -0.883 
11 1 0.649 -7.175 5.475 
12 1 9.584 10.926 5.051 
13 1 -7.272 -5.321 -0.278 
14 1 -11.375 -6.383 6.163 
15 1 6.142 1.387 10.956 
16 1 0.978 -10.794 -8.372 
17 1 -2.382 -9.725 -0.026 
18 1 0.171 -9.235 -4.733 
19 1 -4.656 1.508 3.600 
20 1 -1.323 0.349 -3.036 
21 1 0.710 -1.863 -11.152 
22 1 -0.868 -7.567 -8.171 
23 1 7.300 7.042 -8.178 
24 1 10.838 8.165 -7.504 
25 1 -8.173 8.957 9.873 
26 1 4.400 -11.636 -10.230 
27 1 -11.182 1.784 3.162 
28 1 -8.870 9.428 -6.759 
29 1 -1.547 4.646 -5.618 
30 1 -7.164 -3.128 5.977 
31 1 -6.453 1.274 0.408 
32 1 0.699 8.421 3.576 
33 1 -0.610 -0.006 -7.987 
34 1 -10.794 6.320 9.447 
35 1 -2.019 -8.999 7.376 
36 1 -9.191 2.817 10.203 
37 1 2.907 -5.980 9.828 
38 1 -2.312 -8.381 3.566 
39 1 -7.082 2.573 7.141 
40 1 0.405 5.020 -10.744 
41 1 -0.529 -6.786 -1.551 
42 1 -11.674 -11.636 -8.039 
43 1 -11.497 -2.885 0.883 
44 1 3.253 -0.560 -8.736 
45 1 1.583 11.508 -2.269 
46 1 -6.588 -11.658 8.060 
47 1 -7.658 -6.871 5.760 
48 1 3.887 -10.500 0.528 
49 1 5.405 0.211 7.378 
50 1 3.057 6.677 -8.376 
51 1 -2.823 7.718 4.440 
52 1 2.902 5.107 8.761 
53 1 5.658 -8.995 -7.938 
54 1 7.848 9.562 1.976 
55 1 3.489 -4.390 -10.068 
56 1 -6.756 -0.269 10.323 
57 1 6.771 8.324 5.323 
58 1 -11.519 -0.628 -7.722 
59 1 2.806 -8.178 -10.425 
60 1 -2.162 1.200 0.496 
61 1 -11.646 7.890 3.936 
62 1 -7.842 -3.457 -7.605 
63 1 5.710 -11.611 6.224 
64 1 -5.497 -8.235 1.625 
65 1 -6.468 5.514 9.471 
66 1 -8.046 11.105 -3.349 
67 1 8.658 1.746 5.763 
68 1 10.450 1.382 -4.668 
69 1 0.082 -5.547 -11.094 
70 1 -5.732 8.185 6.984 
71 1 9.599 -0.874 3.203 
72 1 6.952 -10.303 3.002 
73 1 -5.802 -11.661 0.245 
74 1 -8.035 0.114 -9.203 
75 1 0.874 -8.211 1.629 
76 1 8.217 10.958 -11.290 
77 1 -2.724 -5.442 1.177 
78 1 2.563 -6.972 -6.880 
79 1 6.130 -10.063 10.025 
80 1 -10.688 -2.422 4.698 
81 1 -2.592 -4.226 -8.793 
82 1 -6.166 10.362 4.078 
83 1 -4.273 -10.720 -3.140 
84 1 -4.778 -0.290 7.090 
85 1 -10.908 9.009 -10.746 
86 1 -3.586 -7.965 -5.651 
87 1 -4.285 6.705 -7.948 
88 1 1.352 2.987 -3.738 
89 1 -2.055 -2.293 -5.488 
90 1 3.556 5.441 -1.754 
91 1 10.438 -8.576 3.438 
92 1 0.221 -11.497 5.249 
93 1 -6.181 3.484 -7.087 
94 1 10.460 4.411 -7.140 
95 1 0.558 11.463 1.449 
96 1 -6.852 3.207 -3.251 
97 1 -5.092 4.975 5.143 
98 1 -9.608 2.335 -6.190 
99 1 -5.138 9.072 -2.397 
100 1 1.752 -0.554 -5.128 
101 1 -0.399 8.580 7.275 
102 1 -9.616 -5.533 2.841 
103 1 -11.504 -4.404 -7.343 
104 1 -7.146 8.421 -9.942 
105 1 -5.950 -7.880 9.022 
106 1 6.749 -5.374 -8.456 
107 1 -0.515 -2.310 1.064 
108 1 5.245 8.262 -11.024 
109 1 -4.643 4.670 1.412 
110 1 -0.414 3.612 9.247 
111 1 -0.369 -3.836 8.947 
112 1 8.171 10.233 8.484 
113 1 -10.846 2.647 -9.749 
114 1 6.398 3.903 8.010 
115 1 -6.908 -7.073 -10.455 
116 1 0.680 -3.089 -2.563 
117 1 6.460 -2.550 4.366 
118 1 -6.409 -1.933 -1.604 
119 1 9.066 -9.216 -9.559 
120 1 -3.273 -2.760 4.972 
121 1 4.085 4.329 -11.198 
122 1 -6.618 6.705 -4.916 
123 1 -4.511 8.417 1.181 
124 1 3.352 3.060 5.813 
125 1 0.899 -3.484 -7.583 
126 1 -8.643 -5.027 8.957 
127 1 -2.401 2.625 6.379 
128 1 -11.657 9.996 -4.309 
129 1 -0.807 10.228 -10.783 
130 1 9.459 -2.873 -9.878 
131 1 -1.308 -0.045 3.977 
132 1 -9.232 9.612 6.286 
133 1 7.279 0.036 -8.742 
134 1 11.529 11.285 9.755 
135 1 9.857 -4.682 3.529 
136 1 -1.174 -0.136 8.545 
137 1 0.583 3.792 -0.144 
138 1 -1.727 9.987 -1.260 
139 1 -3.987 -9.350 -9.415 
140 1 -0.241 11.575 9.161 
141 1 -4.890 0.041 -4.403 
142 1 -7.946 0.262 4.553 
143 1 -4.249 -6.818 -2.037 
144 1 -3.166 10.878 6.646 
145 1 -8.687 5.871 6.271 
146 1 -5.293 -4.002 -4.732 
147 1 -9.069 -2.886 -4.124 
148 1 0.393 5.242 5.838 
149 1 -6.208 -3.374 -10.933 
150 1 -4.031 -6.325 6.237 
151 1 4.410 2.462 0.419 
152 1 -7.895 3.543 3.146 
153 1 1.841 -0.369 6.065 
154 1 -0.694 -9.240 -11.475 
155 1 -3.244 5.621 -11.653 
156 1 0.074 6.635 -2.675 
157 1 9.022 7.431 11.381 
158 1 -2.889 -2.094 11.380 
159 1 -9.353 5.842 -7.903 
160 1 -5.031 -3.832 8.904 
161 1 -7.178 -10.810 -11.683 
162 1 3.814 -5.454 4.208 
163 1 -0.752 -5.604 -5.022 
164 1 5.728 7.517 8.858 
165 1 -2.540 8.267 -4.849 
166 1 -3.477 -6.321 11.460 
167 1 -1.456 3.870 3.025 
168 1 -1.233 6.868 0.850 
169 1 -4.242 -1.766 1.550 
170 1 -7.577 7.273 2.929 
171 1 1.613 0.206 -0.749 
172 1 3.184 8.085 6.304 
173 1 -3.519 5.655 -2.107 
174 1 -10.056 -2.797 -10.633 
175 1 7.584 -2.021 10.120 
176 1 2.407 1.239 9.984 
177 1 7.726 10.931 -7.655 
178 1 1.683 1.732 2.777 
179 1 -5.188 -9.537 5.265 
180 1 -2.916 -3.142 -1.861 
181 1 8.829 -9.512 7.185 
182 1 -5.822 -4.913 3.114 
183 1 5.532 1.011 3.686 
184 1 -0.588 7.576 -8.028 
185 1 10.660 0.528 -0.203 
186 1 -2.262 -11.561 -6.414 
187 1 -3.723 -10.647 10.299 
188 1 6.380 4.685 4.284 
189 1 9.238 6.659 7.590 
190 1 3.310 -9.573 4.155 
191 1 -2.772 11.332 2.900 
192 1 -4.731 -1.288 -7.987 
193 1 -7.582 -10.472 -7.916 
194 1 2.920 8.497 -4.262 
195 1 -10.770 1.144 6.856 
196 1 -3.316 9.050 9.913 
197 1 -4.086 2.480 9.649 
198 1 -1.274 1.386 -11.336 
199 1 6.739 -0.863 0.728 
200 1 3.478 -11.130 -5.648 
ITEM: TIMESTEP
100
ITEM: NUMBER OF ATOMS
200
ITEM: BOX BOUNDS pp pp pp
-11.693307158924013 11.693307158924013
-11.693307158924013 11.693307158924013
-11.693307158924013 11.693307158924013
ITEM: ATOMS id type x y z
1 1 2.634 5.427 2.686 
2 1 2.066 8.451 0.072 
3 1 1.609 2.967 -7.729 
4 1 -2.989 5.930 7.909 
5 1 -7.959 -2.170 1.818 
6 1 3.588 10.588 9.194 
7 1 3.072 -1.662 2.494 
8 1 1.406 8.043 10.721 
9 1 4.001 10.135 3.197 
10 1 -7.115 6.243 -0.837 
11 1 0.666 -7.195 5.574 
12 1 9.554 10.873 5.026 
13 1 -7.146 -5.285 -0.283 
14 1 -11.296 -6.161 6.226 
15 1 6.007 1.429 11.004 
16 1 1.001 -10.768 -8.418 
17 1 -2.233 -9.693 -0.027 
18 1 0.046 -9.251 -4.769 
19 1 -4.612 1.500 3.618 
20 1 -1.401 0.383 -2.956 
21 1 0.786 -1.771 -11.342 
22 1 -0.931 -7.609 -8.179 
23 1 7.347 7.052 -8.366 
24 1 10.877 8.104 -7.564 
25 1 -8.112 9.000 9.893 
26 1 4.338 -11.621 -10.336 
27 1 -11.107 1.547 3.172 
28 1 -8.828 9.383 -6.856 
29 1 -1.648 4.681 -5.630 
30 1 -7.144 -3.140 6.030 
31 1 -6.359 1.298 0.348 
32 1 0.626 8.507 3.632 
33 1 -0.719 -0.090 -8.135 
34 1 -10.795 6.420 9.542 
35 1 -2.022 -9.044 7.463 
36 1 -9.101 2.849 10.186 
37 1 2.701 -5.952 9.784 
38 1 -2.167 -8.484 3.582 
39 1 -6.952 2.604 7.169 
40 1 0.423 4.980 -10.718 
41 1 -0.466 -6.710 -1.574 
42 1 -11.674 11.690 -8.182 
43 1 -11.507 -2.830 0.951 
44 1 3.180 -0.518 -8.760 
45 1 1.442 11.533 -2.242 
46 1 -6.530 -11.622 8.008 
47 1 -7.654 -6.867 5.818 
48 1 3.914 -10.547 0.521 
49 1 5.411 0.217 7.418 
50 1 3.063 6.682 -8.323 
51 1 -2.839 7.742 4.478 
52 1 2.857 5.204 8.825 
53 1 5.538 -9.036 -7.942 
54 1 7.673 9.549 1.972 
55 1 3.527 -4.332 -10.112 
56 1 -6.688 -0.333 10.315 
57 1 6.756 8.329 5.345 
58 1 -11.408 -0.581 -7.795 
59 1 2.787 -8.116 -10.452 
60 1 -2.265 1.254 0.543 
61 1 -11.675 7.714 4.231 
62 1 -7.709 -3.339 -7.618 
63 1 5.625 -11.651 6.304 
64 1 -5.369 -8.217 1.596 
65 1 -6.453 5.560 9.527 
66 1 -7.943 11.188 -3.543 
67 1 8.649 1.818 5.758 
68 1 10.525 1.301 -4.738 
69 1 0.061 -5.430 -10.987 
70 1 -5.773 8.169 6.957 
71 1 9.490 -0.894 3.255 
72 1 6.900 -10.326 3.094 
73 1 -5.567 -11.660 0.238 
74 1 -7.920 0.164 -9.230 
75 1 0.938 -8.083 1.645 
76 1 8.202 10.869 -11.264 
77 1 -2.670 -5.486 1.233 
78 1 2.477 -6.959 -6.895 
79 1 6.171 -10.167 9.980 
80 1 -10.661 -2.345 4.686 
81 1 -2.749 -4.338 -8.694 
82 1 -6.138 10.430 4.074 
83 1 -4.045 -10.788 -3.174 
84 1 -4.714 -0.312 7.088 
85 1 -10.801 8.874 -10.756 
86 1 -3.694 -7.958 -5.716 
87 1 -4.240 6.669 -7.956 
88 1 1.273 3.020 -3.755 
89 1 -2.028 -2.230 -5.465 
90 1 3.480 5.486 -1.753 
91 1 10.355 -8.604 3.739 
92 1 0.165 -11.445 5.283 
93 1 -6.045 3.399 -7.067 
94 1 10.562 4.363 -7.145 
95 1 0.598 11.571 1.508 
96 1 -6.625 3.216 -3.201 
97 1 -5.112 4.959 5.054 
98 1 -9.503 2.328 -6.178 
99 1 -5.163 9.046 -2.392 
100 1 1.573 -0.511 -5.216 
101 1 -0.387 8.531 7.333 
102 1 -9.569 -5.491 2.866 
103 1 -11.381 -4.319 -7.355 
104 1 -7.019 8.390 -9.989 
105 1 -5.872 -7.917 9.024 
106 1 6.808 -5.462 -8.575 
107 1 -0.553 -2.274 1.034 
108 1 5.138 8.262 -11.101 
109 1 -4.615 4.571 1.348 
110 1 -0.430 3.708 9.247 
111 1 -0.703 -3.918 8.989 
112 1 8.196 10.191 8.480 
113 1 -10.728 2.669 -9.766 
114 1 6.362 3.874 8.046 
115 1 -6.861 -7.178 -10.604 
116 1 0.633 -3.042 -2.602 
117 1 6.336 -2.536 4.426 
118 1 -6.399 -1.886 -1.629 
119 1 8.949 -9.258 -9.551 
120 1 -3.247 -2.922 4.982 
121 1 4.117 4.437 -11.183 
122 1 -6.574 6.663 -4.943 
123 1 -4.550 8.322 1.199 
124 1 3.297 3.082 5.908 
125 1 0.816 -3.506 -7.698 
126 1 -8.433 -4.981 9.124 
127 1 -2.431 2.606 6.355 
128 1 -11.626 10.114 -4.482 
129 1 -1.028 10.370 -10.735 
130 1 9.533 -2.835 -9.901 
131 1 -1.274 0.002 3.985 
132 1 -9.232 9.603 6.352 
133 1 7.176 0.018 -8.960 
134 1 11.650 11.004 9.661 
135 1 9.849 -4.675 3.567 
136 1 -1.145 -0.122 8.590 
137 1 0.533 3.776 -0.148 
138 1 -1.796 9.969 -1.093 
139 1 -3.975 -9.412 -9.474 
140 1 -0.168 11.620 9.208 
141 1 -4.918 0.012 -4.494 
142 1 -7.870 0.146 4.611 
143 1 -4.174 -6.888 -2.041 
144 1 -3.183 10.894 6.630 
145 1 -8.724 5.805 6.365 
146 1 -5.231 -4.023 -4.749 
147 1 -9.031 -2.769 -4.189 
148 1 0.346 5.303 5.865 
149 1 -6.143 -3.473 -10.970 
150 1 -3.981 -6.208 6.190 
151 1 4.380 2.551 0.474 
152 1 -7.886 3.517 3.125 
153 1 1.853 -0.346 6.083 
154 1 -0.683 -9.149 -11.546 
155 1 -3.179 5.626 -11.681 
156 1 0.001 6.638 -2.653 
157 1 9.028 7.392 11.258 
158 1 -2.883 -1.963 11.548 
159 1 -9.246 5.801 -7.951 
160 1 -4.809 -3.774 8.876 
161 1 -7.168 -10.959 11.693 
162 1 3.705 -5.455 4.051 
163 1 -0.846 -5.615 -5.058 
164 1 5.803 7.453 8.838 
165 1 -2.530 8.348 -4.862 
166 1 -3.413 -6.322 11.423 
167 1 -1.471 3.863 3.075 
168 1 -1.256 6.836 0.899 
169 1 -4.252 -1.784 1.541 
170 1 -7.555 7.180 3.070 
171 1 1.608 0.234 -0.730 
172 1 3.157 7.996 6.280 
173 1 -3.557 5.634 -2.149 
174 1 -9.940 -2.767 -10.667 
175 1 7.474 -1.941 10.204 
176 1 2.362 1.311 9.855 
177 1 7.690 10.920 -7.628 
178 1 1.659 1.777 2.831 
179 1 -5.198 -9.615 5.242 
180 1 -2.945 -3.204 -1.839 
181 1 8.777 -9.569 7.168 
182 1 -5.785 -4.915 3.156 
183 1 5.467 1.050 3.751 
184 1 -0.577 7.604 -8.067 
185 1 10.539 0.525 -0.146 
186 1 -2.324 -11.531 -6.628 
187 1 -3.685 -10.693 10.331 
188 1 6.258 4.729 4.325 
189 1 9.311 6.623 7.485 
190 1 3.265 -9.614 4.154 
191 1 -2.773 11.240 2.868 
192 1 -4.577 -1.177 -8.117 
193 1 -7.466 -10.568 -7.936 
194 1 2.769 8.527 -4.318 
195 1 -10.661 1.205 6.906 
196 1 -3.388 9.023 9.903 
197 1 -4.090 2.476 9.680 
198 1 -1.240 1.501 -11.366 
199 1 6.623 -0.841 0.780 
200 1 3.393 -11.154 -5.598 
