ITEM: TIMESTEP
0
ITEM: NUMBER OF ATOMS
200
ITEM: BOX BOUNDS pp pp pp
-11.693307158924013 11.693307158924013
-11.693307158924013 11.693307158924013
-11.693307158924013 11.693307158924013
ITEM: ATOMS id type x y z
1 1 2.634 5.427 2.686 
2 1 2.066 8.451 0.072 
3 1 1.609 2.967 -7.729 
4 1 -2.989 5.930 7.909 
5 1 -7.959 -2.170 1.818 
6 1 3.588 10.588 9.194 
7 1 3.072 -1.662 2.494 
8 1 1.406 8.043 10.721 
9 1 4.001 10.135 3.197 
10 1 -7.115 6.243 -0.837 
11 1 0.666 -7.195 5.574 
12 1 9.554 10.873 5.026 
13 1 -7.146 -5.285 -0.283 
14 1 -11.296 -6.161 6.226 
15 1 6.007 1.429 11.004 
16 1 1.001 -10.768 -8.418 
17 1 -2.233 -9.693 -0.027 
18 1 0.046 -9.251 -4.769 
19 1 -4.612 1.500 3.618 
20 1 -1.401 0.383 -2.956 
21 1 0.786 -1.771 -11.342 
22 1 -0.931 -7.609 -8.179 
23 1 7.347 7.052 -8.366 
24 1 10.877 8.104 -7.564 
25 1 -8.112 9.000 9.893 
26 1 4.338 -11.621 -10.336 
27 1 -11.107 1.547 3.172 
28 1 -8.828 9.383 -6.856 
29 1 -1.648 4.681 -5.630 
30 1 -7.144 -3.140 6.030 
31 1 -6.359 1.298 0.348 
32 1 0.626 8.507 3.632 
33 1 -0.719 -0.090 -8.135 
34 1 -10.795 6.420 9.542 
35 1 -2.022 -9.044 7.463 
36 1 -9.101 2.849 10.186 
37 1 2.701 -5.952 9.784 
38 1 -2.167 -8.484 3.582 
39 1 -6.952 2.604 7.169 
40 1 0.423 4.980 -10.718 
41 1 -0.466 -6.710 -1.574 
42 1 -11.674 11.690 -8.182 
43 1 -11.507 -2.830 0.951 
44 1 3.180 -0.518 -8.760 
45 1 1.442 11.533 -2.242 
46 1 -6.530 -11.622 8.008 
47 1 -7.654 -6.867 5.818 
48 1 3.914 -10.547 0.521 
49 1 5.411 0.217 7.418 
50 1 3.063 6.682 -8.323 
51 1 -2.839 7.742 4.478 
52 1 2.857 5.204 8.825 
53 1 5.538 -9.036 -7.942 
54 1 7.673 9.549 1.972 
55 1 3.527 -4.332 -10.112 
56 1 -6.688 -0.333 10.315 
57 1 6.756 8.329 5.345 
58 1 -11.408 -0.581 -7.795 
59 1 2.787 -8.116 -10.452 
60 1 -2.265 1.254 0.543 
61 1 -11.675 7.714 4.231 
62 1 -7.872 -3.450 -7.351 
63 1 5.625 -11.651 6.304 
64 1 -5.369 -8.217 1.596 
65 1 -6.453 5.560 9.527 
66 1 -7.943 11.188 -3.543 
67 1 8.929 1.895 5.771 
68 1 10.525 1.301 -4.738 
69 1 0.061 -5.430 -10.987 
70 1 -5.773 8.169 6.957 
71 1 9.490 -0.894 3.255 
72 1 6.900 -10.326 3.094 
73 1 -5.567 -11.660 0.238 
74 1 -7.920 0.164 -9.230 
75 1 0.938 -8.083 1.645 
76 1 8.202 10.869 -11.264 
77 1 -2.670 -5.486 1.233 
78 1 2.477 -6.959 -6.895 
79 1 6.171 -10.167 9.980 
80 1 -10.661 -2.345 4.686 
81 1 -2.749 -4.338 -8.694 
82 1 -6.138 10.430 4.074 
83 1 -4.045 -10.788 -3.174 
84 1 -4.714 -0.312 7.088 
85 1 -10.801 8.874 -10.756 
86 1 -3.694 -7.958 -5.716 
87 1 -4.240 6.669 -7.956 
88 1 1.273 3.020 -3.755 
89 1 -2.028 -2.230 -5.465 
90 1 3.480 5.486 -1.753 
91 1 10.355 -8.604 3.739 
92 1 0.165 -11.445 5.283 
93 1 -6.045 3.399 -7.067 
94 1 10.562 4.363 -7.145 
95 1 0.598 11.571 1.508 
96 1 -6.625 3.216 -3.201 
97 1 -5.112 4.959 5.054 
98 1 -9.503 2.328 -6.178 
99 1 -5.163 9.046 -2.392 
100 1 1.573 -0.511 -5.216 
101 1 -0.387 8.531 7.333 
102 1 -9.569 -5.491 2.866 
103 1 -11.381 -4.319 -7.355 
104 1 -7.019 8.390 -9.989 
105 1 -5.872 -7.917 9.024 
106 1 6.808 -5.462 -8.575 
107 1 -0.553 -2.274 1.034 
108 1 5.138 8.262 -11.101 
109 1 -4.615 4.571 1.348 
110 1 -0.430 3.708 9.247 
111 1 -0.703 -3.918 8.989 
112 1 8.196 10.191 8.480 
113 1 -10.728 2.669 -9.766 
114 1 6.362 3.874 8.046 
115 1 -6.861 -7.178 -10.604 
116 1 0.633 -3.042 -2.602 
117 1 6.336 -2.536 4.426 
118 1 -6.399 -1.886 -1.629 
119 1 8.949 -9.258 -9.551 
120 1 -3.247 -2.922 4.982 
121 1 4.117 4.437 -11.183 
122 1 -6.574 6.663 -4.943 
123 1 -4.550 8.322 1.199 
124 1 3.297 3.082 5.908 
125 1 0.816 -3.506 -7.698 
126 1 -8.433 -4.981 9.124 
127 1 -2.431 2.606 6.355 
128 1 -11.626 10.114 -4.482 
129 1 -1.028 10.370 -10.735 
130 1 9.533 -2.835 -9.901 
131 1 -1.274 0.002 3.985 
132 1 -9.232 9.603 6.352 
133 1 7.176 0.018 -8.960 
134 1 11.650 11.004 9.661 
135 1 9.849 -4.675 3.567 
136 1 -1.145 -0.122 8.590 
137 1 0.533 3.776 -0.148 
138 1 -1.796 9.969 -1.093 
139 1 -3.975 -9.412 -9.474 
140 1 -0.168 11.620 9.208 
141 1 -4.918 0.012 -4.494 
142 1 -7.870 0.146 4.611 
143 1 -4.174 -6.888 -2.041 
144 1 -3.183 10.894 6.630 
145 1 -8.724 5.805 6.365 
146 1 -5.231 -4.023 -4.749 
147 1 -9.031 -2.769 -4.189 
148 1 0.346 5.303 5.865 
149 1 -6.143 -3.473 -10.970 
150 1 -3.981 -6.208 6.190 
151 1 4.380 2.551 0.474 
152 1 -7.886 3.517 3.125 
153 1 1.853 -0.346 6.083 
154 1 -0.683 -9.149 -11.546 
155 1 -3.179 5.626 -11.681 
156 1 0.001 6.638 -2.653 
157 1 9.028 7.392 11.258 
158 1 -2.883 -1.963 11.548 
159 1 -9.246 5.801 -7.951 
160 1 -4.809 -3.774 8.876 
161 1 -7.168 -10.959 11.693 
162 1 3.705 -5.455 4.051 
163 1 -0.846 -5.615 -5.058 
164 1 5.803 7.453 8.838 
165 1 -2.530 8.348 -4.862 
166 1 -3.413 -6.322 11.423 
167 1 -1.471 3.863 3.075 
168 1 -1.256 6.836 0.899 
169 1 -4.252 -1.784 1.541 
170 1 -7.555 7.180 3.070 
171 1 1.608 0.234 -0.730 
172 1 3.157 7.996 6.280 
173 1 -3.557 5.634 -2.149 
174 1 -9.940 -2.767 -10.667 
175 1 7.474 -1.941 10.204 
176 1 2.362 1.311 9.855 
177 1 7.690 10.920 -7.628 
178 1 1.659 1.777 2.831 
179 1 -5.198 -9.615 5.242 
180 1 -2.945 -3.204 -1.839 
181 1 8.777 -9.569 7.168 
182 1 -5.785 -4.915 3.156 
183 1 5.467 1.050 3.751 
184 1 -0.577 7.604 -8.067 
185 1 10.539 0.525 -0.146 
186 1 -2.324 -11.531 -6.628 
187 1 -3.685 -10.693 10.331 
188 1 6.258 4.729 4.325 
189 1 9.311 6.623 7.485 
190 1 3.265 -9.614 4.154 
191 1 -2.773 11.240 2.868 
192 1 -4.577 -1.177 -8.117 
193 1 -7.466 -10.568 -7.936 
194 1 2.769 8.527 -4.318 
195 1 -10.661 1.205 6.906 
196 1 -3.388 9.023 9.903 
197 1 -4.090 2.476 9.680 
198 1 -1.240 1.501 -11.366 
199 1 6.623 -0.841 0.780 
200 1 3.393 -11.154 -5.598 
ITEM: TIMESTEP
1000
ITEM: NUMBER OF ATOMS
200
ITEM: BOX BOUNDS pp pp pp
-11.693307158924013 11.693307158924013
-11.693307158924013 11.693307158924013
-11.693307158924013 11.693307158924013
ITEM: ATOMS id type x y z
1 1 3.543 5.840 2.262 
2 1 2.198 8.251 -0.515 
3 1 1.661 2.745 -7.675 
4 1 -3.148 5.992 7.682 
5 1 -7.719 -1.554 1.782 
6 1 3.389 10.778 8.995 
7 1 3.074 -2.435 3.244 
8 1 1.983 9.155 11.555 
9 1 3.267 10.516 2.181 
10 1 -6.616 6.490 -1.479 
11 1 0.863 -8.092 5.258 
12 1 9.979 10.786 5.420 
13 1 -6.081 -4.671 -0.178 
14 1 -10.518 -6.300 6.364 
15 1 5.940 1.795 10.982 
16 1 1.087 -10.562 -9.224 
17 1 -2.228 -9.672 0.129 
18 1 -0.485 -9.886 -4.517 
19 1 -5.319 1.782 2.928 
20 1 -2.151 0.254 -3.122 
21 1 1.079 -1.900 11.461 
22 1 -1.022 -7.551 -7.752 
23 1 6.840 6.317 -8.845 
24 1 11.035 8.017 -7.165 
25 1 -8.606 9.422 9.841 
26 1 4.957 -11.452 -9.621 
27 1 -11.645 1.945 3.735 
28 1 -8.941 9.529 -7.262 
29 1 -1.513 5.192 -5.397 
30 1 -6.979 -3.371 5.338 
31 1 -6.960 1.848 -0.166 
32 1 0.804 8.441 3.494 
33 1 -0.673 -0.617 -8.120 
34 1 -10.847 6.334 9.576 
35 1 -1.299 -8.571 7.866 
36 1 -9.358 2.590 10.276 
37 1 3.330 -5.143 10.092 
38 1 -2.097 -8.029 3.287 
39 1 -6.985 2.804 7.350 
40 1 1.135 5.573 -11.671 
41 1 -0.192 -7.236 -1.960 
42 1 10.714 -11.664 -8.160 
43 1 11.573 -3.503 0.687 
44 1 3.210 0.111 -8.722 
45 1 1.414 11.289 -2.324 
46 1 -7.149 -11.542 7.930 
47 1 -7.465 -6.902 5.853 
48 1 3.708 -9.788 -0.529 
49 1 5.760 0.569 7.497 
50 1 2.643 6.064 -8.341 
51 1 -2.357 7.910 4.723 
52 1 2.640 5.256 8.641 
53 1 5.242 -8.901 -7.101 
54 1 7.464 9.283 2.646 
55 1 3.432 -4.034 -9.524 
56 1 -6.728 -0.371 10.221 
57 1 7.291 8.085 5.913 
58 1 11.437 -0.678 -8.625 
59 1 3.275 -8.552 -10.947 
60 1 -2.243 0.837 0.255 
61 1 10.478 7.598 3.812 
62 1 -8.523 -3.996 -7.092 
63 1 5.689 11.617 6.394 
64 1 -7.012 -9.267 1.925 
65 1 -6.068 6.679 10.488 
66 1 -8.223 10.442 -3.240 
67 1 9.159 1.829 5.705 
68 1 9.793 1.625 -4.099 
69 1 0.486 -5.925 -10.778 
70 1 -5.836 8.248 7.020 
71 1 8.825 -0.535 3.072 
72 1 6.850 -10.443 3.568 
73 1 -5.215 -11.304 0.023 
74 1 -7.458 -0.032 -8.883 
75 1 0.600 -7.809 1.477 
76 1 8.536 10.759 -11.231 
77 1 -2.605 -5.363 0.853 
78 1 2.582 -6.920 -7.390 
79 1 6.681 -10.510 10.438 
80 1 -10.428 -1.964 5.227 
81 1 -2.308 -3.842 -8.648 
82 1 -5.664 10.224 4.443 
83 1 -3.667 -10.984 -3.396 
84 1 -5.499 -0.356 6.817 
85 1 -10.627 8.223 -10.994 
86 1 -3.919 -7.218 -5.811 
87 1 -4.260 6.175 -8.343 
88 1 1.001 3.423 -3.376 
89 1 -2.152 -2.645 -5.474 
90 1 4.201 5.044 -2.197 
91 1 11.186 -10.011 3.836 
92 1 0.912 -11.359 5.355 
93 1 -7.371 3.358 -7.863 
94 1 10.608 4.778 -7.459 
95 1 0.395 11.518 0.993 
96 1 -7.201 3.052 -3.840 
97 1 -4.886 5.308 5.041 
98 1 -10.394 3.661 -5.092 
99 1 -4.518 8.820 -2.402 
100 1 2.181 0.362 -5.246 
101 1 -0.163 7.949 7.558 
102 1 -9.530 -5.619 3.072 
103 1 11.167 -4.357 -7.692 
104 1 -6.387 8.633 -9.663 
105 1 -5.455 -8.253 9.567 
106 1 6.125 -6.040 -8.783 
107 1 0.125 -3.570 1.401 
108 1 5.208 8.764 -10.859 
109 1 -4.654 4.956 1.397 
110 1 -0.483 3.368 9.322 
111 1 -0.352 -3.838 9.036 
112 1 8.472 10.579 8.527 
113 1 -11.352 2.489 -10.187 
114 1 6.282 3.849 8.513 
115 1 -7.087 -8.206 -10.087 
116 1 1.509 -4.206 -2.416 
117 1 6.324 -2.099 4.605 
118 1 -5.883 -1.427 -1.631 
119 1 7.980 -9.813 -9.735 
120 1 -2.769 -3.560 5.216 
121 1 5.233 4.858 11.634 
122 1 -6.645 7.397 -5.733 
123 1 -4.419 8.504 1.725 
124 1 3.650 2.755 6.273 
125 1 1.034 -3.541 -7.296 
126 1 -8.559 -5.933 9.151 
127 1 -2.459 2.737 6.221 
128 1 10.640 10.153 -4.998 
129 1 -2.143 10.512 -10.235 
130 1 9.258 -3.273 -10.639 
131 1 -2.028 0.091 4.386 
132 1 -9.309 10.370 5.611 
133 1 7.462 0.136 -9.041 
134 1 -11.237 11.021 10.290 
135 1 9.266 -4.881 3.400 
136 1 -1.059 0.228 8.841 
137 1 0.160 3.668 0.044 
138 1 -1.773 9.810 -1.038 
139 1 -4.011 -9.563 -9.433 
140 1 -0.334 11.011 9.953 
141 1 -5.411 -0.292 -4.626 
142 1 -8.147 0.619 4.042 
143 1 -4.057 -7.630 -1.731 
144 1 -2.996 10.964 6.330 
145 1 -8.708 6.515 6.469 
146 1 -5.569 -4.649 -4.307 
147 1 -8.505 -3.119 -3.043 
148 1 0.450 5.218 5.096 
149 1 -5.702 -2.977 -10.621 
150 1 -3.691 -6.461 6.459 
151 1 4.199 3.034 0.431 
152 1 -9.005 3.465 2.222 
153 1 1.116 -0.785 5.173 
154 1 -1.056 -9.391 11.275 
155 1 -2.636 5.041 -11.686 
156 1 0.212 6.485 -2.371 
157 1 8.788 7.517 11.223 
158 1 -2.623 -2.451 11.490 
159 1 -9.356 6.317 -8.505 
160 1 -4.102 -3.898 8.636 
161 1 -6.977 -11.432 11.637 
162 1 4.000 -5.938 4.900 
163 1 -0.133 -5.658 -5.028 
164 1 5.711 7.912 8.757 
165 1 -3.180 8.331 -5.347 
166 1 -3.266 -5.875 11.331 
167 1 -2.228 3.777 3.290 
168 1 -0.937 6.905 0.714 
169 1 -3.879 -1.703 1.455 
170 1 -7.458 6.870 2.050 
171 1 1.495 0.175 -1.306 
172 1 3.273 7.270 6.269 
173 1 -3.121 5.339 -1.983 
174 1 -10.191 -2.710 11.686 
175 1 7.038 -1.659 10.289 
176 1 1.968 1.162 10.147 
177 1 6.220 10.649 -5.788 
178 1 1.488 2.055 2.580 
179 1 -5.512 -9.461 5.096 
180 1 -2.933 -3.022 -2.367 
181 1 9.995 -9.271 7.371 
182 1 -5.251 -6.398 3.050 
183 1 6.061 1.694 3.376 
184 1 -1.166 7.968 -7.958 
185 1 10.725 0.771 -0.703 
186 1 -2.735 11.644 -6.910 
187 1 -3.826 -10.900 10.293 
188 1 6.668 5.008 4.136 
189 1 9.196 5.857 8.002 
190 1 3.518 -9.594 4.096 
191 1 -2.346 11.082 2.601 
192 1 -4.026 -0.302 -8.446 
193 1 -6.834 -11.539 -8.140 
194 1 1.804 8.495 -4.840 
195 1 -10.878 1.423 7.094 
196 1 -3.796 9.143 9.772 
197 1 -4.574 2.215 9.524 
198 1 -1.293 1.644 -11.353 
199 1 6.190 -1.797 1.103 
200 1 2.902 -10.856 -5.193 
ITEM: TIMESTEP
2000
ITEM: NUMBER OF ATOMS
200
ITEM: BOX BOUNDS pp pp pp
-11.693307158924013 11.693307158924013
-11.693307158924013 11.693307158924013
-11.693307158924013 11.693307158924013
ITEM: ATOMS id type x y z
1 1 3.023 6.186 2.264 
2 1 1.559 8.504 -0.457 
3 1 1.368 3.162 -7.576 
4 1 -2.965 6.029 8.090 
5 1 -8.173 -1.628 1.780 
6 1 3.399 10.278 8.731 
7 1 3.115 -3.508 2.921 
8 1 2.204 8.141 11.205 
9 1 3.647 10.324 2.212 
10 1 -6.867 6.672 -1.828 
11 1 0.311 -8.352 4.913 
12 1 10.187 10.956 5.797 
13 1 -7.308 -5.641 -0.879 
14 1 -11.348 -6.411 7.099 
15 1 5.286 1.780 11.414 
16 1 1.351 -11.267 -9.327 
17 1 -2.256 -9.891 0.179 
18 1 -0.712 -9.495 -4.556 
19 1 -5.517 1.711 3.563 
20 1 -1.607 0.775 -3.447 
21 1 1.625 -1.808 -11.388 
22 1 -0.756 -8.317 -7.380 
23 1 7.503 6.229 -8.018 
24 1 10.356 8.160 -7.201 
25 1 -7.893 9.564 10.157 
26 1 5.027 11.473 -9.580 
27 1 -11.437 1.834 3.709 
28 1 -9.397 10.014 -7.431 
29 1 -1.814 4.297 -6.059 
30 1 -6.272 -3.559 4.804 
31 1 -6.849 1.535 -0.171 
32 1 0.700 7.976 3.735 
33 1 -1.017 0.305 -8.951 
34 1 -10.702 6.719 9.433 
35 1 -1.403 -8.884 7.799 
36 1 -9.614 2.574 10.662 
37 1 3.981 -3.891 10.343 
38 1 -3.040 -8.473 3.778 
39 1 -7.205 3.636 7.636 
40 1 1.260 5.092 -11.533 
41 1 -0.842 -7.226 -2.211 
42 1 11.134 11.246 -7.734 
43 1 11.341 -3.059 0.213 
44 1 3.499 0.441 -8.828 
45 1 0.582 11.343 -2.322 
46 1 -7.764 -11.192 7.926 
47 1 -8.347 -7.606 5.686 
48 1 3.116 -9.470 -0.226 
49 1 5.402 0.481 7.702 
50 1 2.775 6.898 -9.237 
51 1 -2.636 8.326 5.488 
52 1 2.490 5.228 8.675 
53 1 4.693 -9.391 -7.609 
54 1 7.068 8.488 1.267 
55 1 3.686 -3.997 -9.582 
56 1 -6.607 -0.606 11.078 
57 1 7.169 7.932 5.898 
58 1 -11.480 -1.267 -8.211 
59 1 2.752 -8.110 -11.023 
60 1 -2.895 1.221 0.139 
61 1 10.634 7.871 3.888 
62 1 -8.718 -3.407 -6.670 
63 1 5.936 -10.778 6.495 
64 1 -7.320 -8.937 1.432 
65 1 -6.055 6.151 10.504 
66 1 -8.984 9.724 -3.283 
67 1 8.687 2.026 5.699 
68 1 9.401 2.711 -3.081 
69 1 -0.083 -6.135 -10.763 
70 1 -5.780 7.707 7.026 
71 1 8.387 -1.111 1.843 
72 1 7.192 11.604 3.364 
73 1 -5.554 -11.413 -0.391 
74 1 -7.940 -0.226 -8.410 
75 1 0.828 -7.379 1.088 
76 1 9.548 11.026 -11.678 
77 1 -2.538 -5.702 0.725 
78 1 2.399 -7.284 -6.931 
79 1 6.318 -9.875 10.638 
80 1 -10.122 -1.929 6.197 
81 1 -1.297 -3.557 -8.825 
82 1 -6.187 10.072 4.915 
83 1 -3.663 -10.657 -3.790 
84 1 -5.439 -0.479 7.403 
85 1 -10.330 8.689 -10.690 
86 1 -4.108 -6.384 -6.027 
87 1 -4.678 5.833 -8.103 
88 1 1.309 3.059 -3.438 
89 1 -1.845 -2.294 -5.643 
90 1 3.698 6.323 -2.638 
91 1 -11.317 -10.013 3.739 
92 1 0.073 11.684 5.567 
93 1 -7.398 3.155 -6.935 
94 1 10.418 4.714 -7.591 
95 1 0.160 -11.335 1.447 
96 1 -7.329 3.339 -3.253 
97 1 -5.441 4.769 4.894 
98 1 -10.405 4.259 -4.282 
99 1 -4.810 9.761 -2.859 
100 1 2.310 -0.470 -4.785 
101 1 0.158 8.108 7.640 
102 1 -9.011 -5.241 2.520 
103 1 10.805 -4.500 -7.810 
104 1 -6.926 8.612 -9.471 
105 1 -6.068 -8.821 9.128 
106 1 7.204 -7.309 -8.990 
107 1 0.394 -3.078 1.173 
108 1 5.680 8.061 -10.069 
109 1 -5.070 4.510 1.186 
110 1 -0.371 3.375 8.793 
111 1 -0.227 -4.144 9.508 
112 1 9.723 9.250 8.837 
113 1 -11.018 2.343 -9.661 
114 1 6.027 3.683 8.716 
115 1 -7.601 -7.717 -10.216 
116 1 1.797 -4.841 -1.435 
117 1 6.115 -2.385 4.431 
118 1 -6.542 -1.514 -1.943 
119 1 8.375 -10.478 -8.732 
120 1 -1.870 -3.852 4.007 
121 1 4.692 5.265 -11.474 
122 1 -7.496 6.130 -5.196 
123 1 -4.030 8.885 1.151 
124 1 3.156 2.543 6.828 
125 1 1.624 -2.747 -7.216 
126 1 -8.450 -5.506 8.466 
127 1 -2.484 2.506 6.142 
128 1 11.060 10.120 -4.390 
129 1 -2.930 10.795 -10.406 
130 1 9.878 -2.743 -11.177 
131 1 -2.949 -0.734 4.292 
132 1 -9.877 10.345 5.183 
133 1 6.503 -1.492 -8.586 
134 1 -10.711 -11.647 10.323 
135 1 9.438 -3.973 3.975 
136 1 -1.460 -0.409 8.769 
137 1 -0.585 3.686 -0.219 
138 1 -1.705 9.582 -1.035 
139 1 -4.268 -8.842 -9.226 
140 1 -0.114 11.416 8.765 
141 1 -5.043 -0.957 -4.879 
142 1 -8.720 0.330 4.087 
143 1 -4.374 -7.590 -2.754 
144 1 -2.855 11.250 6.736 
145 1 -8.944 6.833 5.889 
146 1 -6.085 -4.894 -3.970 
147 1 -9.536 -2.646 -2.727 
148 1 0.449 4.943 5.409 
149 1 -5.414 -2.981 -10.207 
150 1 -3.514 -6.049 7.459 
151 1 4.448 2.937 0.111 
152 1 -8.590 3.386 2.468 
153 1 1.032 -1.026 4.728 
154 1 -1.137 -9.309 -11.121 
155 1 -3.170 5.847 -10.991 
156 1 0.441 5.995 -3.379 
157 1 8.090 5.968 11.003 
158 1 -2.247 -1.876 11.499 
159 1 -9.277 5.979 -8.577 
160 1 -4.590 -3.368 8.921 
161 1 -6.566 -11.242 11.638 
162 1 4.166 -6.050 4.400 
163 1 -0.108 -5.390 -4.970 
164 1 6.467 8.415 9.930 
165 1 -2.894 7.891 -5.134 
166 1 -3.701 -5.834 11.068 
167 1 -2.308 3.504 2.971 
168 1 -1.552 6.865 0.644 
169 1 -4.230 -1.972 1.008 
170 1 -8.215 7.748 2.848 
171 1 0.949 -0.871 -1.112 
172 1 3.617 7.444 5.938 
173 1 -3.621 5.217 -3.256 
174 1 -9.819 -2.911 11.462 
175 1 7.097 -1.900 9.499 
176 1 1.754 1.586 10.715 
177 1 6.116 10.608 -6.498 
178 1 1.509 1.641 2.480 
179 1 -5.238 -10.001 5.950 
180 1 -3.167 -3.280 -2.182 
181 1 10.199 -9.204 8.320 
182 1 -5.755 -6.351 3.670 
183 1 6.049 1.481 3.084 
184 1 -1.399 8.113 -8.404 
185 1 9.790 -0.016 -1.297 
186 1 -2.389 -11.591 -7.049 
187 1 -3.365 -10.670 9.496 
188 1 7.418 4.789 4.351 
189 1 9.583 5.458 7.707 
190 1 3.692 -9.802 3.627 
191 1 -3.497 11.688 2.914 
192 1 -4.339 0.493 -8.863 
193 1 -6.747 -11.485 -8.115 
194 1 1.807 8.557 -4.576 
195 1 -11.481 1.603 6.872 
196 1 -4.077 9.273 10.034 
197 1 -3.619 2.032 9.789 
198 1 -1.345 2.904 -10.942 
199 1 5.352 -2.348 0.087 
200 1 2.272 -11.358 -5.923 
ITEM: TIMESTEP
3000
ITEM: NUMBER OF ATOMS
200
ITEM: BOX BOUNDS pp pp pp
-11.693307158924013 11.693307158924013
-11.693307158924013 11.693307158924013
-11.693307158924013 11.693307158924013
ITEM: ATOMS id type x y z
1 1 3.558 4.872 2.640 
2 1 1.776 8.847 -0.336 
3 1 1.633 3.391 -7.525 
4 1 -3.849 5.636 8.253 
5 1 -7.700 -1.986 1.821 
6 1 3.049 10.701 9.231 
7 1 2.858 -4.187 2.833 
8 1 1.020 8.925 11.037 
9 1 3.852 9.685 2.375 
10 1 -7.464 6.064 -1.564 
11 1 0.358 -8.061 4.673 
12 1 10.373 11.222 5.011 
13 1 -8.439 -5.387 -0.852 
14 1 10.535 -6.414 7.572 
15 1 5.764 1.472 11.258 
16 1 1.850 11.367 -10.255 
17 1 -2.491 -10.119 0.022 
18 1 -0.887 -9.827 -4.063 
19 1 -5.108 2.125 3.977 
20 1 -1.974 1.556 -2.597 
21 1 1.972 -1.458 -10.583 
22 1 -1.091 -7.876 -8.017 
23 1 7.840 7.370 -7.833 
24 1 11.169 7.834 -7.890 
25 1 -8.071 9.117 10.112 
26 1 5.009 -11.512 -8.939 
27 1 -11.606 2.023 3.566 
28 1 -9.223 10.514 -7.016 
29 1 -2.058 3.601 -5.484 
30 1 -6.710 -2.966 5.168 
31 1 -6.734 1.301 0.594 
32 1 0.441 8.962 3.651 
33 1 0.050 0.129 -7.995 
34 1 -10.634 6.414 9.957 
35 1 -1.821 -8.746 8.120 
36 1 -9.911 1.451 10.937 
37 1 3.840 -4.115 9.779 
38 1 -2.819 -8.327 2.904 
39 1 -6.296 3.123 7.383 
40 1 0.935 5.270 -11.656 
41 1 -0.730 -7.052 -1.525 
42 1 11.673 -11.470 -8.536 
43 1 -10.961 -3.284 -0.040 
44 1 3.546 0.745 -8.099 
45 1 1.273 -11.215 -1.593 
46 1 -7.964 -11.434 8.270 
47 1 -8.261 -8.363 5.188 
48 1 3.825 -9.690 0.143 
49 1 5.921 0.407 6.727 
50 1 2.472 6.841 -8.831 
51 1 -2.379 8.743 4.984 
52 1 2.981 5.030 9.116 
53 1 5.508 -8.131 -7.717 
54 1 7.596 8.940 1.339 
55 1 3.287 -4.895 -9.846 
56 1 -7.550 -1.048 10.291 
57 1 7.666 8.281 5.359 
58 1 -11.525 -0.790 -7.928 
59 1 2.624 -8.739 -10.021 
60 1 -3.275 0.792 0.441 
61 1 10.939 7.618 2.819 
62 1 -8.430 -3.134 -7.545 
63 1 5.208 -10.350 6.782 
64 1 -7.856 -8.545 0.663 
65 1 -6.722 5.863 10.310 
66 1 -8.727 9.220 -3.243 
67 1 8.853 1.914 5.696 
68 1 9.619 1.684 -4.040 
69 1 -0.339 -5.556 -10.317 
70 1 -5.930 7.971 7.021 
71 1 9.304 -0.595 1.568 
72 1 7.164 -10.863 2.733 
73 1 -5.395 -11.300 -0.153 
74 1 -7.760 0.167 -9.198 
75 1 0.668 -7.833 1.245 
76 1 9.147 11.037 -11.230 
77 1 -2.726 -5.957 0.757 
78 1 2.093 -7.338 -6.373 
79 1 5.722 -10.128 11.083 
80 1 -10.695 -2.248 5.681 
81 1 -1.239 -3.178 -8.069 
82 1 -6.036 9.554 4.088 
83 1 -4.172 -10.498 -4.293 
84 1 -5.340 -0.784 7.239 
85 1 -10.282 9.336 -10.465 
86 1 -3.547 -6.141 -5.647 
87 1 -4.304 5.390 -8.635 
88 1 1.499 2.401 -3.087 
89 1 -0.923 -0.950 -4.628 
90 1 4.052 5.960 -1.826 
91 1 -11.531 -9.682 2.949 
92 1 -0.038 -11.523 5.454 
93 1 -6.418 2.598 -6.941 
94 1 10.642 4.283 -7.452 
95 1 0.806 -11.298 1.773 
96 1 -7.212 3.384 -3.153 
97 1 -4.757 5.514 4.445 
98 1 -10.246 4.018 -3.846 
99 1 -4.976 9.233 -2.585 
100 1 2.710 -0.010 -4.757 
101 1 0.024 7.440 7.617 
102 1 -9.315 -6.160 2.257 
103 1 11.354 -4.837 -8.690 
104 1 -6.000 8.176 -10.106 
105 1 -5.988 -8.435 8.751 
106 1 6.682 -5.178 -9.000 
107 1 -0.182 -3.179 0.793 
108 1 5.579 8.822 -10.056 
109 1 -5.064 4.818 0.977 
110 1 -0.834 4.071 8.963 
111 1 -0.315 -4.544 8.790 
112 1 9.275 9.743 8.393 
113 1 -10.373 3.081 -9.525 
114 1 5.829 3.368 8.223 
115 1 -7.422 -8.065 -9.889 
116 1 2.386 -4.905 -1.784 
117 1 6.642 -2.427 4.931 
118 1 -6.022 -1.616 -2.206 
119 1 8.394 -10.133 -8.385 
120 1 -2.452 -4.685 4.046 
121 1 5.267 5.031 -11.491 
122 1 -7.057 5.831 -5.926 
123 1 -4.308 8.562 1.152 
124 1 3.559 1.648 4.763 
125 1 2.107 -2.464 -6.684 
126 1 -7.981 -4.552 9.298 
127 1 -2.596 2.379 6.955 
128 1 10.557 9.983 -4.375 
129 1 -3.878 10.895 -10.058 
130 1 9.595 -2.222 -10.872 
131 1 -3.322 -0.752 4.496 
132 1 -9.151 10.448 5.110 
133 1 6.472 -1.184 -8.224 
134 1 -11.063 -11.023 11.239 
135 1 9.528 -4.377 3.948 
136 1 -0.339 -0.593 8.976 
137 1 -0.306 3.459 -0.002 
138 1 -1.708 9.078 -1.461 
139 1 -4.113 -9.028 -9.862 
140 1 -0.451 11.536 9.318 
141 1 -5.055 -0.749 -5.954 
142 1 -8.228 0.314 4.445 
143 1 -4.281 -7.901 -2.456 
144 1 -3.530 10.962 7.030 
145 1 -9.555 6.718 6.847 
146 1 -6.053 -4.642 -4.018 
147 1 -9.959 -2.222 -2.936 
148 1 0.136 4.793 5.782 
149 1 -6.171 -3.700 -9.822 
150 1 -3.765 -6.209 6.895 
151 1 4.373 3.154 -0.536 
152 1 -8.395 3.909 2.323 
153 1 1.408 -1.306 4.810 
154 1 -1.066 -10.332 -10.836 
155 1 -2.239 6.601 11.236 
156 1 0.487 5.716 -2.785 
157 1 8.105 5.234 10.273 
158 1 -2.748 -1.853 -11.609 
159 1 -9.235 6.208 -8.567 
160 1 -4.516 -3.769 9.028 
161 1 -6.689 -10.972 -11.536 
162 1 4.995 -6.758 3.810 
163 1 0.368 -4.814 -4.147 
164 1 6.846 8.313 10.213 
165 1 -3.223 7.983 -5.650 
166 1 -4.392 -6.435 11.511 
167 1 -2.207 3.060 2.917 
168 1 -1.024 6.523 1.745 
169 1 -3.760 -2.129 1.138 
170 1 -7.944 7.539 2.718 
171 1 0.777 -0.526 -1.479 
172 1 3.972 6.968 5.213 
173 1 -2.594 5.748 -2.530 
174 1 -10.344 -4.329 -11.482 
175 1 6.634 -2.148 8.559 
176 1 1.584 1.526 10.955 
177 1 6.869 10.454 -6.260 
178 1 1.809 0.897 1.840 
179 1 -5.508 -10.311 5.566 
180 1 -2.209 -3.697 -2.627 
181 1 8.357 -10.153 8.635 
182 1 -5.919 -6.572 2.818 
183 1 6.374 1.846 2.469 
184 1 -0.990 8.399 -8.503 
185 1 10.478 -0.802 -2.066 
186 1 -2.431 -11.630 -7.379 
187 1 -3.452 -10.956 10.162 
188 1 6.833 4.438 4.674 
189 1 10.650 5.653 7.126 
190 1 3.465 -9.817 3.512 
191 1 -3.125 11.230 3.112 
192 1 -3.818 0.343 -9.499 
193 1 -6.131 -11.380 -7.660 
194 1 1.292 8.993 -4.375 
195 1 -11.201 2.248 7.322 
196 1 -4.434 8.870 10.486 
197 1 -3.553 1.644 10.292 
198 1 -1.239 2.529 -9.896 
199 1 4.673 -2.795 -1.042 
200 1 3.718 -10.829 -5.882 
ITEM: TIMESTEP
4000
ITEM: NUMBER OF ATOMS
200
ITEM: BOX BOUNDS pp pp pp
-11.693307158924013 11.693307158924013
-11.693307158924013 11.693307158924013
-11.693307158924013 11.693307158924013
ITEM: ATOMS id type x y z
1 1 4.151 5.372 1.855 
2 1 1.658 8.385 0.481 
3 1 1.447 3.594 -7.092 
4 1 -3.870 5.424 7.784 
5 1 -8.195 -2.016 1.909 
6 1 3.990 10.282 9.420 
7 1 3.156 -4.889 3.879 
8 1 0.844 8.444 11.030 
9 1 4.698 9.444 2.442 
10 1 -7.832 5.762 -1.042 
11 1 0.208 -7.604 5.236 
12 1 10.086 11.551 4.629 
13 1 -8.073 -5.235 -1.756 
14 1 10.978 -6.710 7.217 
15 1 4.843 2.121 -11.382 
16 1 1.842 11.194 -10.236 
17 1 -2.068 -10.117 -0.723 
18 1 -0.508 -9.157 -3.926 
19 1 -5.545 1.848 3.717 
20 1 -2.353 1.602 -2.899 
21 1 1.864 -2.040 -10.624 
22 1 -0.329 -8.812 -7.788 
23 1 7.464 6.941 -6.755 
24 1 10.521 8.671 -6.885 
25 1 -8.221 8.664 9.900 
26 1 5.008 -11.640 -9.434 
27 1 -11.344 1.702 3.265 
28 1 -8.662 9.967 -7.700 
29 1 -2.118 3.364 -6.065 
30 1 -7.486 -2.911 6.155 
31 1 -7.267 0.825 0.562 
32 1 0.180 9.548 3.281 
33 1 -0.070 0.921 -8.217 
34 1 -10.950 5.870 9.098 
35 1 -1.388 -8.866 8.461 
36 1 -8.519 1.828 11.500 
37 1 3.231 -3.611 10.046 
38 1 -2.090 -8.915 3.093 
39 1 -6.562 3.004 6.893 
40 1 1.454 4.761 -11.428 
41 1 -0.302 -7.082 -1.592 
42 1 -11.609 -11.087 -8.256 
43 1 -10.519 -3.064 -0.043 
44 1 3.857 1.302 -8.218 
45 1 2.597 -11.216 -2.344 
46 1 -8.331 -11.562 8.118 
47 1 -9.533 -7.866 6.196 
48 1 3.560 -8.864 0.311 
49 1 5.514 -0.152 7.640 
50 1 2.819 6.978 -8.746 
51 1 -2.845 7.692 5.274 
52 1 2.485 5.719 8.464 
53 1 5.722 -8.104 -7.755 
54 1 7.996 8.152 1.593 
55 1 2.939 -4.884 -10.106 
56 1 -6.891 -0.866 10.240 
57 1 8.201 7.783 5.431 
58 1 -11.108 -0.272 -6.461 
59 1 2.754 -8.407 -9.869 
60 1 -2.595 0.932 0.644 
61 1 10.987 7.497 3.051 
62 1 -8.130 -2.605 -6.428 
63 1 5.426 -11.438 6.050 
64 1 -7.880 -8.700 1.494 
65 1 -6.277 5.063 11.297 
66 1 -8.764 9.699 -3.489 
67 1 9.126 1.840 5.619 
68 1 9.219 1.934 -4.949 
69 1 -0.481 -6.489 -11.474 
70 1 -6.245 7.920 6.610 
71 1 9.229 -0.329 2.793 
72 1 7.476 -10.943 2.032 
73 1 -5.536 -11.073 -0.553 
74 1 -7.930 -0.280 -9.009 
75 1 0.728 -7.978 1.854 
76 1 8.232 11.289 11.629 
77 1 -2.469 -5.630 1.082 
78 1 2.226 -7.059 -6.130 
79 1 5.543 -9.576 9.975 
80 1 -10.746 -1.873 4.918 
81 1 -1.559 -2.591 -6.797 
82 1 -6.137 9.646 3.876 
83 1 -4.519 -10.018 -4.172 
84 1 -4.846 -0.251 7.425 
85 1 -10.504 9.515 -10.496 
86 1 -3.578 -6.115 -6.164 
87 1 -4.310 5.196 -9.015 
88 1 1.443 1.953 -3.718 
89 1 -0.667 -0.814 -4.381 
90 1 4.100 7.217 -1.631 
91 1 -11.266 -9.084 3.116 
92 1 0.241 -11.363 5.519 
93 1 -5.940 2.371 -6.525 
94 1 9.845 4.409 -7.458 
95 1 0.989 -11.071 1.450 
96 1 -7.142 2.565 -3.190 
97 1 -5.278 5.875 4.247 
98 1 -10.262 4.413 -4.643 
99 1 -4.729 10.010 -3.108 
100 1 3.485 -0.452 -4.755 
101 1 -0.081 7.361 7.493 
102 1 -9.032 -5.565 2.163 
103 1 11.130 -4.840 -8.643 
104 1 -6.155 8.169 -10.046 
105 1 -5.861 -9.003 8.300 
106 1 6.563 -5.174 -9.414 
107 1 0.356 -3.288 1.932 
108 1 6.317 8.610 -10.378 
109 1 -4.693 4.830 0.935 
110 1 -0.759 4.306 9.280 
111 1 -0.020 -5.350 8.279 
112 1 10.181 9.272 8.268 
113 1 -11.578 3.170 -9.815 
114 1 5.218 3.251 8.207 
115 1 -8.938 -8.525 -9.587 
116 1 3.289 -6.125 -1.455 
117 1 6.360 -3.120 4.515 
118 1 -5.214 -1.778 -2.369 
119 1 8.830 -9.779 -8.843 
120 1 -2.477 -4.973 4.103 
121 1 4.790 5.653 11.007 
122 1 -7.047 5.240 -5.883 
123 1 -4.313 8.340 1.124 
124 1 3.834 1.745 4.721 
125 1 2.534 -3.095 -6.409 
126 1 -7.745 -5.634 8.970 
127 1 -2.478 2.026 6.742 
128 1 10.110 11.017 -3.241 
129 1 -4.122 10.519 -10.110 
130 1 8.993 -2.998 -11.590 
131 1 -2.522 -1.777 5.231 
132 1 -8.934 11.091 4.457 
133 1 6.788 -1.598 -8.813 
134 1 -11.615 -10.640 10.588 
135 1 9.521 -3.827 4.535 
136 1 -1.236 -0.370 9.539 
137 1 -0.204 3.897 -0.067 
138 1 -1.390 9.132 -0.999 
139 1 -4.001 -9.095 -8.470 
140 1 0.171 11.568 8.752 
141 1 -5.182 -0.920 -5.709 
142 1 -8.176 -0.033 4.714 
143 1 -3.545 -7.488 -2.380 
144 1 -4.232 10.609 7.050 
145 1 -9.588 6.711 5.602 
146 1 -6.328 -4.970 -4.447 
147 1 -10.549 -1.846 -3.376 
148 1 0.713 3.885 5.832 
149 1 -6.366 -2.861 -10.124 
150 1 -4.339 -6.165 6.801 
151 1 3.627 2.265 -0.559 
152 1 -8.743 3.709 2.501 
153 1 1.639 -0.880 5.113 
154 1 -0.806 -10.312 -10.702 
155 1 -2.385 6.742 10.876 
156 1 0.609 5.937 -3.483 
157 1 7.976 5.022 9.946 
158 1 -2.992 -2.390 -11.158 
159 1 -8.829 5.936 -8.518 
160 1 -3.585 -3.759 9.317 
161 1 -7.514 -11.225 11.673 
162 1 5.575 -6.758 4.997 
163 1 0.030 -5.247 -4.777 
164 1 6.857 8.435 9.376 
165 1 -4.138 7.114 -5.622 
166 1 -4.564 -6.431 -11.663 
167 1 -2.149 3.131 3.054 
168 1 -1.034 6.262 2.328 
169 1 -3.302 -2.459 0.128 
170 1 -8.292 7.461 2.732 
171 1 0.587 -0.373 -1.013 
172 1 4.405 6.921 5.433 
173 1 -3.386 5.675 -2.224 
174 1 -9.968 -4.538 11.460 
175 1 6.810 -3.500 8.784 
176 1 1.115 1.501 -11.493 
177 1 6.586 10.932 -6.467 
178 1 2.051 -0.008 1.961 
179 1 -5.935 -10.595 4.992 
180 1 -3.108 -4.056 -3.197 
181 1 9.150 -10.621 7.824 
182 1 -5.599 -6.023 3.168 
183 1 6.247 2.273 1.920 
184 1 -1.549 8.459 -9.597 
185 1 10.148 -0.580 -2.067 
186 1 -2.178 11.188 -7.247 
187 1 -3.096 -11.151 10.223 
188 1 6.941 4.740 4.890 
189 1 10.898 5.263 5.510 
190 1 3.504 -9.673 3.765 
191 1 -2.986 11.190 2.426 
192 1 -3.235 0.531 -9.260 
193 1 -5.405 11.351 -7.169 
194 1 2.301 9.789 -4.824 
195 1 11.327 2.330 8.868 
196 1 -4.964 9.098 10.293 
197 1 -3.704 2.080 9.849 
198 1 -1.527 3.226 -10.543 
199 1 4.966 -2.503 -0.343 
200 1 3.204 -10.693 -6.396 
ITEM: TIMESTEP
5000
ITEM: NUMBER OF ATOMS
200
ITEM: BOX BOUNDS pp pp pp
-11.693307158924013 11.693307158924013
-11.693307158924013 11.693307158924013
-11.693307158924013 11.693307158924013
ITEM: ATOMS id type x y z
1 1 4.421 5.225 2.067 
2 1 2.450 7.474 0.297 
3 1 1.745 4.653 -6.306 
4 1 -3.339 5.676 7.512 
5 1 -7.513 -1.970 1.687 
6 1 3.826 10.851 7.991 
7 1 3.042 -4.188 3.392 
8 1 1.255 7.908 10.376 
9 1 4.361 8.878 2.647 
10 1 -8.343 6.672 0.021 
11 1 1.502 -7.883 6.058 
12 1 10.396 11.644 5.293 
13 1 -8.153 -6.234 -2.225 
14 1 9.944 -6.335 7.339 
15 1 4.688 1.177 -11.552 
16 1 1.677 10.459 -10.078 
17 1 -1.733 -10.541 -0.366 
18 1 -0.099 -9.215 -4.348 
19 1 -4.834 2.070 3.950 
20 1 -2.148 1.342 -3.006 
21 1 1.719 -2.031 -10.381 
22 1 -0.638 -7.267 -7.721 
23 1 6.923 7.061 -6.626 
24 1 10.851 9.953 -6.228 
25 1 -8.480 7.804 11.216 
26 1 5.130 -11.095 -9.391 
27 1 -11.050 1.305 2.946 
28 1 -8.522 9.036 -6.832 
29 1 -1.306 2.723 -5.937 
30 1 -7.497 -2.532 6.000 
31 1 -6.674 1.322 0.409 
32 1 -0.922 9.652 2.643 
33 1 1.118 0.674 -8.059 
34 1 -11.145 4.998 10.617 
35 1 -0.673 -8.681 8.822 
36 1 -9.363 1.363 11.575 
37 1 2.974 -1.899 8.869 
38 1 -2.254 -8.071 3.380 
39 1 -6.659 3.196 6.848 
40 1 1.375 4.942 -11.477 
41 1 -0.219 -6.880 -1.213 
42 1 -10.616 -10.963 -7.981 
43 1 -11.223 -3.350 0.910 
44 1 4.812 1.468 -7.833 
45 1 2.328 -10.837 -2.531 
46 1 -8.578 -11.468 8.994 
47 1 -9.703 -8.163 6.749 
48 1 3.930 -9.126 0.775 
49 1 6.465 0.031 7.779 
50 1 3.059 6.531 -9.151 
51 1 -2.555 7.948 5.238 
52 1 2.824 6.356 8.204 
53 1 5.616 -7.960 -7.150 
54 1 8.197 8.453 1.178 
55 1 2.541 -5.315 -10.102 
56 1 -6.750 -1.453 9.889 
57 1 7.504 7.671 5.724 
58 1 11.680 0.112 -6.587 
59 1 2.416 -8.904 -9.959 
60 1 -3.055 1.719 0.143 
61 1 11.132 7.731 3.204 
62 1 -8.877 -3.102 -6.763 
63 1 6.302 11.188 5.352 
64 1 -8.727 -9.348 1.096 
65 1 -5.811 5.215 -11.648 
66 1 -8.539 10.204 -2.822 
67 1 8.762 1.873 5.586 
68 1 9.579 2.426 -4.364 
69 1 -0.559 -6.266 10.994 
70 1 -6.490 8.198 6.858 
71 1 9.127 -1.287 2.375 
72 1 8.434 -10.389 2.513 
73 1 -5.660 11.562 -0.701 
74 1 -7.337 0.488 -8.718 
75 1 1.484 -7.339 1.817 
76 1 9.432 10.587 -11.481 
77 1 -2.955 -5.150 1.316 
78 1 2.689 -7.645 -6.175 
79 1 6.871 -10.105 9.806 
80 1 -10.707 -2.355 4.457 
81 1 -1.811 -1.982 -6.511 
82 1 -5.723 9.731 3.840 
83 1 -4.237 -10.246 -3.747 
84 1 -4.911 -0.562 6.946 
85 1 -10.571 9.550 -10.052 
86 1 -2.724 -5.407 -6.063 
87 1 -3.546 4.758 -9.610 
88 1 1.423 2.158 -3.456 
89 1 0.171 -1.167 -4.086 
90 1 4.182 7.173 -2.276 
91 1 -11.599 -8.844 2.567 
92 1 1.139 -11.278 5.128 
93 1 -5.203 2.591 -5.932 
94 1 9.394 4.296 -7.858 
95 1 1.107 -10.879 1.427 
96 1 -7.151 2.518 -2.676 
97 1 -5.678 6.156 3.793 
98 1 -10.254 4.884 -4.169 
99 1 -4.010 9.986 -3.118 
100 1 4.478 -1.212 -5.089 
101 1 -0.179 7.919 7.441 
102 1 -8.360 -5.417 1.275 
103 1 -11.596 -5.589 -8.189 
104 1 -5.831 8.133 -9.454 
105 1 -5.808 -9.401 8.754 
106 1 6.278 -5.094 -9.297 
107 1 0.138 -2.886 1.621 
108 1 6.070 9.161 -11.103 
109 1 -5.133 4.707 0.733 
110 1 -0.345 4.256 9.037 
111 1 1.209 -5.125 7.958 
112 1 10.171 9.006 8.943 
113 1 -11.027 3.369 -9.272 
114 1 5.014 3.582 8.735 
115 1 -8.915 -8.271 -8.791 
116 1 3.329 -5.544 -1.313 
117 1 5.862 -2.283 4.721 
118 1 -6.795 -1.402 -1.620 
119 1 8.460 -9.767 -8.669 
120 1 -2.439 -5.204 4.699 
121 1 5.246 6.059 11.276 
122 1 -7.346 5.819 -5.195 
123 1 -3.582 7.923 0.660 
124 1 3.933 2.311 4.444 
125 1 2.162 -2.380 -7.026 
126 1 -7.831 -6.431 9.578 
127 1 -2.399 2.398 7.054 
128 1 9.929 11.112 -3.068 
129 1 -3.794 10.772 -10.185 
130 1 9.173 -3.381 -10.766 
131 1 -2.556 -2.014 5.294 
132 1 -9.442 10.934 5.251 
133 1 7.121 -1.818 -8.484 
134 1 -11.055 -10.139 11.407 
135 1 9.787 -4.740 4.307 
136 1 -1.648 -0.465 9.149 
137 1 -0.457 4.151 -0.490 
138 1 -0.800 8.537 -1.142 
139 1 -3.581 -8.960 -7.901 
140 1 0.266 11.452 8.394 
141 1 -5.704 -1.357 -5.648 
142 1 -8.132 0.545 4.978 
143 1 -4.088 -7.129 -2.405 
144 1 -3.672 11.045 6.860 
145 1 -9.780 7.205 7.409 
146 1 -6.422 -4.952 -5.197 
147 1 -10.517 -2.157 -2.770 
148 1 0.647 3.966 5.829 
149 1 -6.249 -2.758 -9.706 
150 1 -4.855 -6.545 7.194 
151 1 3.307 2.492 -0.263 
152 1 -9.265 4.167 1.821 
153 1 2.401 -1.703 5.322 
154 1 -0.730 -10.131 -9.887 
155 1 -2.393 6.697 10.844 
156 1 -0.480 5.960 -4.101 
157 1 8.163 5.757 9.316 
158 1 -3.333 -2.059 -11.400 
159 1 -9.273 6.174 -8.802 
160 1 -3.502 -3.620 9.067 
161 1 -7.595 -10.961 -11.178 
162 1 6.734 -6.170 5.781 
163 1 -0.040 -5.065 -4.284 
164 1 6.751 9.187 8.642 
165 1 -4.379 7.361 -5.663 
166 1 -4.336 -7.497 -10.797 
167 1 -2.349 3.275 2.858 
168 1 -0.394 6.225 2.063 
169 1 -2.616 -1.714 0.104 
170 1 -8.887 7.628 3.335 
171 1 0.092 -0.086 -0.229 
172 1 4.133 6.535 5.098 
173 1 -4.380 6.002 -2.472 
174 1 -11.082 -3.994 10.825 
175 1 6.848 -3.371 9.299 
176 1 1.353 0.891 11.373 
177 1 6.582 11.199 -6.708 
178 1 2.269 0.445 2.586 
179 1 -5.595 -9.611 4.583 
180 1 -3.267 -3.562 -3.385 
181 1 10.017 -10.680 8.323 
182 1 -5.377 -6.071 3.755 
183 1 6.201 2.095 1.534 
184 1 -1.096 8.100 -9.690 
185 1 9.207 -0.174 -1.513 
186 1 -2.599 10.389 -7.234 
187 1 -3.459 -11.349 9.930 
188 1 6.799 4.469 4.523 
189 1 9.922 5.463 5.611 
190 1 3.957 -9.794 4.097 
191 1 -3.529 -11.514 2.867 
192 1 -2.992 0.526 -9.771 
193 1 -5.918 -11.597 -7.464 
194 1 1.742 8.834 -6.357 
195 1 11.105 3.256 7.757 
196 1 -5.149 8.589 9.981 
197 1 -4.037 2.045 10.235 
198 1 -1.101 3.069 -11.109 
199 1 3.438 -1.450 -0.839 
200 1 3.026 -11.173 -5.711 
ITEM: TIMESTEP
6000
ITEM: NUMBER OF ATOMS
200
ITEM: BOX BOUNDS pp pp pp
-11.693307158924013 11.693307158924013
-11.693307158924013 11.693307158924013
-11.693307158924013 11.693307158924013
ITEM: ATOMS id type x y z
1 1 4.129 5.061 1.656 
2 1 1.720 7.713 1.037 
3 1 1.747 4.942 -6.060 
4 1 -2.661 5.610 7.684 
5 1 -7.381 -2.083 2.211 
6 1 3.518 10.924 8.313 
7 1 3.063 -4.664 3.268 
8 1 1.599 8.754 10.237 
9 1 5.253 10.665 2.221 
10 1 -9.076 6.784 0.110 
11 1 1.174 -6.899 5.584 
12 1 10.415 11.513 5.775 
13 1 -8.657 -6.199 -1.878 
14 1 8.856 -6.426 7.076 
15 1 5.262 0.656 11.085 
16 1 2.104 10.399 -9.552 
17 1 -1.739 -10.596 -0.109 
18 1 0.064 -9.246 -5.280 
19 1 -5.370 2.392 3.739 
20 1 -1.820 1.851 -2.837 
21 1 1.278 -2.152 -11.442 
22 1 0.038 -7.195 -8.242 
23 1 7.486 7.309 -6.101 
24 1 11.253 9.337 -6.333 
25 1 -8.661 8.162 10.059 
26 1 5.078 -11.468 -9.229 
27 1 -11.508 2.029 3.016 
28 1 -8.615 9.385 -7.017 
29 1 -0.848 2.951 -6.743 
30 1 -7.504 -2.498 5.446 
31 1 -6.652 1.185 0.381 
32 1 -0.002 10.227 2.735 
33 1 1.801 1.173 -8.790 
34 1 -11.020 5.306 11.467 
35 1 -0.552 -8.360 8.539 
36 1 -9.980 1.842 11.064 
37 1 2.553 -1.116 9.355 
38 1 -3.004 -8.369 2.192 
39 1 -7.405 4.174 6.374 
40 1 1.696 4.936 -10.903 
41 1 -0.163 -6.259 -1.774 
42 1 -11.369 -10.773 -7.936 
43 1 -11.692 -3.264 0.861 
44 1 5.362 2.702 -8.202 
45 1 3.124 -11.005 -2.110 
46 1 -9.565 11.015 9.229 
47 1 -8.830 -7.524 6.618 
48 1 4.741 -8.610 0.727 
49 1 5.985 -0.220 7.333 
50 1 3.754 7.579 -9.529 
51 1 -2.412 8.646 4.787 
52 1 3.325 6.513 8.190 
53 1 6.508 -7.847 -6.545 
54 1 7.652 9.454 -0.194 
55 1 2.625 -5.014 -10.071 
56 1 -6.440 -1.747 9.690 
57 1 8.066 7.540 5.636 
58 1 11.661 -0.018 -7.258 
59 1 2.444 -8.877 -10.542 
60 1 -3.201 1.655 0.179 
61 1 10.478 8.475 2.237 
62 1 -9.066 -2.576 -6.482 
63 1 6.183 10.915 5.646 
64 1 -8.238 -9.227 0.808 
65 1 -6.198 5.075 10.783 
66 1 -8.452 10.968 -3.593 
67 1 9.053 2.132 6.423 
68 1 10.440 2.486 -4.800 
69 1 0.320 -5.906 11.148 
70 1 -6.228 7.412 7.022 
71 1 9.687 -0.722 2.413 
72 1 8.215 -9.231 0.941 
73 1 -5.619 11.253 -0.150 
74 1 -7.328 1.418 -7.997 
75 1 1.491 -7.226 1.894 
76 1 9.921 10.022 11.455 
77 1 -2.384 -4.846 0.973 
78 1 2.929 -6.538 -6.750 
79 1 7.057 -11.024 9.718 
80 1 -10.931 -2.509 4.205 
81 1 -1.720 -2.598 -7.020 
82 1 -6.513 10.123 4.907 
83 1 -3.406 -10.407 -3.908 
84 1 -4.979 -0.233 6.263 
85 1 -10.764 9.424 -9.891 
86 1 -3.389 -5.726 -5.818 
87 1 -3.932 4.421 -9.187 
88 1 1.687 2.475 -2.822 
89 1 1.149 -2.085 -3.842 
90 1 4.785 6.834 -2.532 
91 1 -10.934 -7.894 2.632 
92 1 0.964 -9.995 5.059 
93 1 -4.489 1.945 -6.451 
94 1 8.587 4.338 -7.814 
95 1 1.937 -10.971 1.463 
96 1 -7.620 2.191 -3.118 
97 1 -5.330 6.230 4.096 
98 1 -10.876 5.818 -3.783 
99 1 -4.821 9.641 -3.026 
100 1 5.927 -0.836 -5.788 
101 1 0.219 8.231 6.926 
102 1 -9.002 -5.276 1.509 
103 1 -10.553 -5.643 -8.343 
104 1 -5.784 7.495 -9.437 
105 1 -5.975 -9.992 8.015 
106 1 6.353 -4.906 -10.651 
107 1 0.367 -3.454 0.923 
108 1 6.857 9.125 -10.620 
109 1 -5.026 4.545 1.165 
110 1 0.534 4.357 9.394 
111 1 0.294 -4.790 7.938 
112 1 9.947 9.148 8.117 
113 1 -10.923 2.998 -9.125 
114 1 5.688 3.811 8.321 
115 1 -8.175 -8.096 -7.801 
116 1 3.014 -5.334 -0.948 
117 1 6.032 -2.907 4.723 
118 1 -7.039 -1.445 -2.317 
119 1 8.431 -9.443 -9.177 
120 1 -2.768 -4.282 4.598 
121 1 5.141 5.599 11.406 
122 1 -7.240 5.740 -6.367 
123 1 -3.105 8.538 1.208 
124 1 3.734 2.740 4.972 
125 1 2.210 -2.701 -6.930 
126 1 -7.664 -5.645 9.161 
127 1 -1.674 2.200 6.642 
128 1 10.169 10.165 -3.280 
129 1 -4.148 10.879 -10.619 
130 1 9.292 -2.598 11.371 
131 1 -1.560 -1.198 4.463 
132 1 -9.421 11.648 5.344 
133 1 7.460 -1.817 -8.549 
134 1 -11.010 -9.838 11.584 
135 1 9.490 -4.206 3.395 
136 1 -1.264 0.163 10.049 
137 1 -0.358 3.511 0.103 
138 1 -0.636 8.508 -1.507 
139 1 -4.335 -8.163 -7.689 
140 1 -0.014 11.482 8.620 
141 1 -6.202 -1.667 -5.643 
142 1 -8.959 0.750 4.549 
143 1 -3.555 -7.121 -2.874 
144 1 -4.008 11.445 6.103 
145 1 -10.043 7.179 7.257 
146 1 -6.674 -5.096 -4.837 
147 1 -10.617 -1.283 -3.125 
148 1 0.740 4.242 5.400 
149 1 -6.181 -2.340 -9.874 
150 1 -4.489 -6.706 7.181 
151 1 3.519 2.322 0.327 
152 1 -8.584 3.778 2.149 
153 1 2.369 -0.997 5.466 
154 1 -1.201 -9.757 -10.308 
155 1 -1.971 6.973 10.997 
156 1 -0.838 5.275 -4.056 
157 1 8.346 6.179 8.673 
158 1 -2.518 -2.665 -10.928 
159 1 -9.285 6.327 -9.306 
160 1 -3.983 -4.353 9.242 
161 1 -7.765 -10.908 -10.225 
162 1 5.480 -6.364 6.841 
163 1 -0.289 -5.192 -5.076 
164 1 5.879 8.778 9.007 
165 1 -3.957 7.527 -5.959 
166 1 -6.060 -6.832 -10.652 
167 1 -2.127 3.147 3.098 
168 1 -1.083 5.869 2.553 
169 1 -2.899 -1.464 -0.430 
170 1 -9.267 8.279 3.055 
171 1 0.315 -0.688 -0.634 
172 1 4.524 7.963 4.906 
173 1 -4.075 6.390 -1.267 
174 1 -11.125 -4.971 11.276 
175 1 7.801 -3.403 8.694 
176 1 1.819 1.676 11.026 
177 1 8.068 11.137 -6.761 
178 1 1.044 1.596 2.913 
179 1 -6.924 -9.871 4.362 
180 1 -3.872 -3.636 -2.887 
181 1 10.174 -10.050 9.004 
182 1 -5.613 -6.144 4.000 
183 1 6.343 1.114 1.969 
184 1 -0.816 7.911 -9.292 
185 1 6.999 -0.768 -0.737 
186 1 -2.298 10.911 -6.761 
187 1 -3.293 -11.490 9.810 
188 1 6.845 3.922 3.865 
189 1 10.792 5.720 5.227 
190 1 5.020 -9.016 5.053 
191 1 -3.715 11.608 2.800 
192 1 -2.024 0.627 -9.721 
193 1 -5.966 -10.649 -6.479 
194 1 1.529 8.179 -6.754 
195 1 11.659 3.416 8.353 
196 1 -5.271 8.668 9.845 
197 1 -3.745 2.503 9.960 
198 1 -1.090 3.434 -11.123 
199 1 3.500 -1.052 -0.864 
200 1 3.698 -10.852 -6.236 
ITEM: TIMESTEP
7000
ITEM: NUMBER OF ATOMS
200
ITEM: BOX BOUNDS pp pp pp
-11.693307158924013 11.693307158924013
-11.693307158924013 11.693307158924013
-11.693307158924013 11.693307158924013
ITEM: ATOMS id type x y z
1 1 4.242 5.266 1.931 
2 1 2.032 7.657 0.415 
3 1 2.241 5.424 -6.180 
4 1 -2.319 5.691 6.432 
5 1 -7.784 -2.007 2.198 
6 1 4.024 -11.526 7.523 
7 1 2.820 -3.986 3.067 
8 1 2.935 8.575 10.880 
9 1 5.323 10.031 1.603 
10 1 -9.277 6.430 -0.845 
11 1 0.288 -6.302 4.643 
12 1 9.910 11.441 5.862 
13 1 -9.315 -6.457 -1.851 
14 1 9.160 -6.296 6.943 
15 1 5.966 1.705 11.126 
16 1 1.260 11.004 -10.073 
17 1 -2.529 -10.314 -0.950 
18 1 0.544 -10.040 -5.405 
19 1 -5.857 1.784 3.500 
20 1 -1.179 0.904 -3.315 
21 1 0.999 -1.942 -11.120 
22 1 -0.236 -7.284 -7.839 
23 1 7.309 7.665 -5.857 
24 1 10.991 9.249 -7.159 
25 1 -8.602 7.975 10.611 
26 1 5.179 -11.514 -9.438 
27 1 -11.224 1.729 2.379 
28 1 -8.683 9.792 -7.239 
29 1 -1.387 2.919 -6.161 
30 1 -7.053 -2.980 5.675 
31 1 -7.132 1.313 0.195 
32 1 1.008 10.361 3.126 
33 1 1.064 0.697 -8.326 
34 1 11.530 5.571 10.293 
35 1 -1.600 -8.083 8.426 
36 1 -11.062 0.949 11.099 
37 1 3.131 -1.028 9.512 
38 1 -2.725 -9.001 2.515 
39 1 -7.824 4.332 6.286 
40 1 1.744 5.859 -11.320 
41 1 0.412 -6.232 -1.644 
42 1 -11.521 -10.964 -6.691 
43 1 11.551 -3.466 0.137 
44 1 4.763 3.438 -8.102 
45 1 2.175 -9.989 -2.778 
46 1 -8.102 11.302 9.626 
47 1 -8.906 -6.816 5.747 
48 1 4.121 -8.206 0.314 
49 1 5.467 -0.639 7.361 
50 1 3.965 7.195 -8.712 
51 1 -2.426 8.508 4.909 
52 1 3.478 6.135 7.638 
53 1 7.470 -7.199 -6.440 
54 1 8.290 8.919 -1.140 
55 1 2.993 -4.447 -10.045 
56 1 -6.350 -0.140 9.229 
57 1 7.499 7.486 5.333 
58 1 -11.493 0.026 -7.103 
59 1 2.667 -8.495 -11.120 
60 1 -3.345 1.907 0.376 
61 1 9.747 7.055 2.071 
62 1 -9.067 -2.672 -6.965 
63 1 7.001 10.695 7.086 
64 1 -8.746 -9.252 0.396 
65 1 -7.324 4.589 -11.599 
66 1 -8.090 -11.339 -2.776 
67 1 8.354 2.715 6.200 
68 1 9.137 2.451 -4.273 
69 1 -0.121 -6.066 10.812 
70 1 -5.842 7.246 7.400 
71 1 9.964 -0.778 1.737 
72 1 7.891 -9.009 -0.350 
73 1 -6.181 -11.591 0.241 
74 1 -8.055 2.891 -7.821 
75 1 1.254 -7.532 1.510 
76 1 9.959 10.522 11.396 
77 1 -3.923 -5.464 1.474 
78 1 3.895 -6.729 -7.523 
79 1 6.935 -10.911 10.648 
80 1 -10.547 -2.948 4.374 
81 1 -1.661 -1.858 -6.244 
82 1 -6.258 9.968 4.936 
83 1 -4.190 -9.696 -4.291 
84 1 -4.613 -0.536 6.143 
85 1 -10.723 8.992 -9.902 
86 1 -3.431 -5.189 -5.986 
87 1 -3.711 4.533 -9.784 
88 1 3.328 2.352 -3.099 
89 1 1.045 -1.444 -3.208 
90 1 4.673 5.994 -2.967 
91 1 11.660 -8.193 2.780 
92 1 0.298 -10.229 5.130 
93 1 -4.896 2.000 -6.225 
94 1 8.644 4.905 -7.639 
95 1 2.293 -11.611 0.429 
96 1 -7.853 2.196 -3.835 
97 1 -4.835 5.970 4.329 
98 1 -11.119 6.658 -4.571 
99 1 -4.960 10.027 -2.612 
100 1 5.696 0.215 -6.781 
101 1 0.597 8.096 6.770 
102 1 -8.149 -6.202 1.315 
103 1 -10.123 -5.530 -8.639 
104 1 -6.114 8.218 -9.018 
105 1 -6.745 -9.445 8.186 
106 1 6.184 -5.503 -10.475 
107 1 0.146 -3.878 0.834 
108 1 6.748 9.047 -10.166 
109 1 -5.622 4.696 0.908 
110 1 0.388 4.878 9.118 
111 1 -0.364 -4.505 7.869 
112 1 10.106 8.177 7.799 
113 1 -11.507 3.460 -9.073 
114 1 5.049 2.843 8.162 
115 1 -7.442 -7.841 -7.657 
116 1 4.136 -4.808 -0.245 
117 1 6.120 -3.606 4.304 
118 1 -6.748 -1.760 -1.926 
119 1 9.365 -9.981 -9.054 
120 1 -2.570 -4.752 4.494 
121 1 5.479 6.158 11.640 
122 1 -7.166 5.390 -5.571 
123 1 -3.361 8.552 0.784 
124 1 3.856 2.865 5.094 
125 1 3.050 -1.897 -6.843 
126 1 -7.342 -5.534 8.957 
127 1 -0.926 1.977 7.157 
128 1 10.303 10.080 -3.772 
129 1 -4.069 10.620 -10.571 
130 1 9.230 -3.054 -11.282 
131 1 -1.947 -0.821 3.407 
132 1 -10.306 11.408 4.728 
133 1 6.926 -1.629 -9.061 
134 1 -11.043 -9.462 -10.743 
135 1 9.592 -4.152 3.411 
136 1 -0.840 -0.125 10.021 
137 1 0.416 3.839 -1.581 
138 1 -1.208 8.350 -1.858 
139 1 -3.810 -7.814 -8.543 
140 1 0.380 -11.595 9.310 
141 1 -4.845 -1.632 -5.938 
142 1 -8.832 1.304 4.556 
143 1 -3.005 -6.724 -1.489 
144 1 -3.249 -10.598 5.535 
145 1 -9.923 7.294 7.510 
146 1 -7.279 -4.906 -5.053 
147 1 -9.910 -0.833 -3.092 
148 1 0.754 4.796 5.409 
149 1 -6.176 -2.200 -10.245 
150 1 -4.048 -6.712 7.051 
151 1 3.912 1.890 0.070 
152 1 -9.174 4.294 2.312 
153 1 0.896 -1.055 5.748 
154 1 -1.365 -10.657 -10.115 
155 1 -2.246 7.274 10.755 
156 1 -1.210 5.884 -4.384 
157 1 8.044 5.812 9.121 
158 1 -2.698 -2.540 -11.087 
159 1 -9.539 5.907 -8.830 
160 1 -3.896 -3.559 9.371 
161 1 -7.629 11.505 -10.043 
162 1 5.741 -6.692 7.834 
163 1 0.363 -4.767 -4.979 
164 1 5.697 8.321 9.208 
165 1 -4.807 7.770 -5.343 
166 1 -6.083 -7.009 -11.020 
167 1 -1.821 2.945 4.132 
168 1 -0.432 6.467 2.058 
169 1 -3.495 -1.379 0.265 
170 1 -8.888 8.904 2.480 
171 1 -0.045 -0.253 -0.119 
172 1 4.060 7.670 4.836 
173 1 -3.808 5.840 -1.773 
174 1 -10.455 -4.119 11.540 
175 1 7.842 -3.937 8.622 
176 1 2.530 2.146 11.247 
177 1 7.832 10.488 -6.711 
178 1 1.800 1.255 2.799 
179 1 -7.483 -9.576 4.218 
180 1 -3.836 -3.185 -2.960 
181 1 9.487 -9.364 9.099 
182 1 -6.245 -6.078 3.865 
183 1 6.920 0.943 2.725 
184 1 -0.983 7.950 -9.623 
185 1 7.515 -0.581 -0.558 
186 1 -1.341 11.202 -6.779 
187 1 -3.360 -11.247 9.927 
188 1 7.118 4.380 3.781 
189 1 11.001 6.072 5.452 
190 1 4.608 -9.299 3.793 
191 1 -4.225 10.965 2.667 
192 1 -2.437 0.899 -8.976 
193 1 -6.045 -11.033 -7.456 
194 1 0.893 8.257 -6.486 
195 1 -11.595 3.176 8.179 
196 1 -5.281 8.302 10.700 
197 1 -4.242 3.167 10.075 
198 1 -1.210 3.802 -11.366 
199 1 4.584 -1.703 -0.209 
200 1 3.812 -10.383 -6.256 
ITEM: TIMESTEP
8000
ITEM: NUMBER OF ATOMS
200
ITEM: BOX BOUNDS pp pp pp
-11.693307158924013 11.693307158924013
-11.693307158924013 11.693307158924013
-11.693307158924013 11.693307158924013
ITEM: ATOMS id type x y z
1 1 5.070 6.217 1.436 
2 1 2.066 7.967 0.118 
3 1 2.401 5.755 -5.885 
4 1 -2.011 5.382 7.333 
5 1 -8.353 -1.723 2.087 
6 1 3.404 -11.585 6.757 
7 1 2.565 -4.359 3.307 
8 1 3.624 9.433 -11.555 
9 1 6.011 10.760 1.709 
10 1 -9.359 8.085 -0.991 
11 1 -0.683 -6.819 4.816 
12 1 10.004 11.658 5.688 
13 1 -8.881 -7.089 -2.738 
14 1 10.417 -5.874 6.980 
15 1 6.199 1.915 11.299 
16 1 1.664 11.084 -8.885 
17 1 -2.843 -10.835 -0.149 
18 1 1.157 -10.216 -5.627 
19 1 -6.221 1.846 3.839 
20 1 -1.817 0.376 -3.240 
21 1 1.907 -1.052 -10.541 
22 1 -0.125 -6.954 -7.861 
23 1 7.197 7.462 -6.484 
24 1 10.616 8.507 -7.315 
25 1 -8.833 8.743 11.147 
26 1 5.870 -10.968 -9.837 
27 1 11.427 2.216 2.451 
28 1 -8.346 9.943 -6.990 
29 1 -1.617 2.307 -6.207 
30 1 -7.574 -2.315 6.790 
31 1 -7.660 1.305 0.075 
32 1 0.813 10.198 3.450 
33 1 0.946 1.793 -8.075 
34 1 -10.588 5.565 10.778 
35 1 -0.701 -7.099 8.415 
36 1 -10.940 1.448 10.535 
37 1 3.383 -0.145 9.222 
38 1 -2.589 -9.112 2.936 
39 1 -7.686 3.941 7.426 
40 1 1.767 5.707 -10.534 
41 1 0.924 -6.095 -1.523 
42 1 -11.258 -10.642 -5.144 
43 1 -11.468 -3.992 -0.070 
44 1 5.073 4.147 -7.311 
45 1 3.485 -9.102 -3.508 
46 1 -8.753 11.029 9.319 
47 1 -8.860 -7.121 5.829 
48 1 5.021 -7.666 0.963 
49 1 6.942 -0.609 7.572 
50 1 3.731 7.222 -8.848 
51 1 -2.219 9.378 4.367 
52 1 3.461 6.910 8.655 
53 1 7.181 -6.933 -6.456 
54 1 8.814 9.038 -1.070 
55 1 3.594 -4.641 -10.861 
56 1 -7.167 0.186 8.771 
57 1 6.734 7.422 5.783 
58 1 10.660 -0.561 -7.345 
59 1 2.455 -9.046 -10.922 
60 1 -3.394 2.367 0.569 
61 1 9.859 7.173 2.052 
62 1 -8.676 -2.119 -7.088 
63 1 7.046 10.744 7.179 
64 1 -9.318 -9.862 0.705 
65 1 -7.133 5.055 -11.518 
66 1 -8.534 -11.458 -2.407 
67 1 8.721 2.221 5.574 
68 1 8.663 1.919 -4.414 
69 1 0.378 -4.978 11.109 
70 1 -5.634 7.246 6.818 
71 1 10.418 -1.361 1.946 
72 1 8.285 -9.879 0.178 
73 1 -6.891 11.029 0.385 
74 1 -8.312 2.914 -7.808 
75 1 1.514 -7.810 1.447 
76 1 9.412 11.160 11.282 
77 1 -2.884 -4.557 1.320 
78 1 3.414 -6.748 -7.481 
79 1 6.048 -11.266 10.243 
80 1 -10.269 -2.668 4.926 
81 1 -0.509 -1.283 -6.487 
82 1 -6.153 10.759 5.190 
83 1 -2.060 -10.424 -3.462 
84 1 -4.036 -0.110 5.965 
85 1 -11.545 9.447 -10.279 
86 1 -2.881 -5.735 -6.439 
87 1 -4.150 4.322 -9.544 
88 1 2.438 3.082 -3.132 
89 1 1.891 -1.959 -2.964 
90 1 4.938 5.904 -3.042 
91 1 -11.296 -8.519 3.415 
92 1 0.905 -10.062 5.385 
93 1 -5.294 2.012 -6.444 
94 1 8.965 4.594 -7.804 
95 1 2.031 -10.781 -0.240 
96 1 -8.085 2.536 -3.635 
97 1 -4.487 5.471 3.858 
98 1 -10.926 6.533 -4.737 
99 1 -4.586 10.504 -2.985 
100 1 5.770 0.278 -6.593 
101 1 0.153 8.134 6.950 
102 1 -8.102 -6.435 1.142 
103 1 -9.799 -5.669 -7.806 
104 1 -6.010 8.186 -8.785 
105 1 -6.965 -9.640 7.567 
106 1 6.920 -5.240 -10.356 
107 1 0.248 -3.498 0.262 
108 1 6.824 9.099 -9.546 
109 1 -5.890 4.832 0.753 
110 1 0.918 4.171 8.998 
111 1 -1.859 -3.259 7.961 
112 1 9.703 8.145 8.366 
113 1 -11.041 3.274 -9.794 
114 1 4.690 3.254 8.361 
115 1 -6.974 -7.850 -7.204 
116 1 3.995 -4.958 -0.290 
117 1 5.879 -2.723 4.676 
118 1 -6.437 -2.423 -1.400 
119 1 9.139 -8.989 -9.177 
120 1 -4.102 -3.611 4.904 
121 1 5.976 5.828 11.548 
122 1 -7.868 6.008 -5.551 
123 1 -3.761 7.871 0.896 
124 1 3.999 1.683 5.426 
125 1 2.614 -2.082 -6.560 
126 1 -7.551 -5.785 9.427 
127 1 -1.848 2.142 6.968 
128 1 10.724 9.695 -3.551 
129 1 -3.561 10.049 -10.287 
130 1 9.170 -2.620 -11.440 
131 1 -1.858 -0.259 3.402 
132 1 -9.586 11.402 4.640 
133 1 6.579 -2.092 -8.897 
134 1 -11.061 -10.184 -10.769 
135 1 9.727 -4.514 2.947 
136 1 -0.865 0.130 9.537 
137 1 -1.263 4.897 -0.405 
138 1 -1.146 9.335 -0.943 
139 1 -3.770 -8.143 -9.112 
140 1 0.148 10.620 8.930 
141 1 -4.220 -1.079 -6.202 
142 1 -9.287 1.851 5.008 
143 1 -3.196 -7.078 -1.564 
144 1 -3.149 -11.109 6.591 
145 1 -9.229 7.574 7.350 
146 1 -6.533 -4.546 -4.774 
147 1 -10.105 -1.173 -2.493 
148 1 0.833 4.505 5.596 
149 1 -5.913 -1.833 -9.595 
150 1 -4.332 -6.848 7.677 
151 1 4.156 1.681 -0.109 
152 1 -8.989 4.026 2.250 
153 1 0.934 -0.733 6.977 
154 1 -0.884 -10.205 -10.197 
155 1 -1.343 7.118 10.432 
156 1 -1.465 5.510 -4.306 
157 1 8.902 5.236 9.622 
158 1 -2.909 -2.998 -11.095 
159 1 -9.558 6.394 -8.727 
160 1 -4.901 -3.164 9.731 
161 1 -7.595 -11.145 -10.770 
162 1 5.345 -6.940 7.766 
163 1 -0.242 -4.919 -4.614 
164 1 6.394 8.450 9.719 
165 1 -4.502 6.757 -5.600 
166 1 -6.249 -7.072 -10.811 
167 1 -2.031 3.144 3.537 
168 1 -0.567 6.222 2.476 
169 1 -3.825 -1.084 0.597 
170 1 -8.460 8.431 2.297 
171 1 -0.461 -0.144 0.029 
172 1 3.077 7.381 4.168 
173 1 -4.606 6.333 -2.335 
174 1 -10.248 -4.046 11.384 
175 1 8.570 -3.446 8.553 
176 1 2.288 2.419 -11.531 
177 1 8.164 11.008 -7.290 
178 1 1.234 1.450 3.168 
179 1 -7.369 -9.994 3.795 
180 1 -3.773 -3.365 -2.947 
181 1 9.462 -9.470 8.801 
182 1 -5.388 -6.497 3.680 
183 1 6.429 0.746 2.682 
184 1 -0.510 8.508 -9.929 
185 1 8.707 -0.006 -1.778 
186 1 -1.587 10.823 -7.189 
187 1 -3.460 11.568 9.967 
188 1 8.079 4.628 3.561 
189 1 -11.621 5.775 4.985 
190 1 5.718 -9.869 3.855 
191 1 -3.982 10.843 2.275 
192 1 -1.911 0.435 -9.538 
193 1 -5.368 -11.035 -6.960 
194 1 0.735 8.362 -6.637 
195 1 11.618 2.708 7.390 
196 1 -5.490 8.539 10.521 
197 1 -4.433 2.297 9.852 
198 1 -1.475 3.127 -11.340 
199 1 5.040 -1.684 0.340 
200 1 4.146 -11.097 -6.625 
ITEM: TIMESTEP
9000
ITEM: NUMBER OF ATOMS
200
ITEM: BOX BOUNDS pp pp pp
-11.693307158924013 11.693307158924013
-11.693307158924013 11.693307158924013
-11.693307158924013 11.693307158924013
ITEM: ATOMS id type x y z
1 1 4.905 6.491 1.029 
2 1 1.900 8.302 -0.499 
3 1 2.354 5.667 -5.237 
4 1 -2.410 5.223 6.893 
5 1 -7.801 -1.273 2.237 
6 1 3.192 -11.633 7.296 
7 1 2.898 -3.464 2.913 
8 1 3.545 10.011 -10.819 
9 1 6.039 10.699 2.298 
10 1 -10.687 9.156 -1.024 
11 1 -0.982 -6.312 5.033 
12 1 9.551 -10.845 5.584 
13 1 -8.507 -7.360 -2.940 
14 1 10.323 -6.903 6.479 
15 1 6.725 1.223 -10.671 
16 1 1.940 -11.031 -9.264 
17 1 -1.947 -11.005 -0.223 
18 1 0.761 -10.793 -5.557 
19 1 -6.151 2.080 3.383 
20 1 -1.763 0.013 -3.050 
21 1 0.971 -0.579 -9.997 
22 1 -0.198 -7.875 -7.795 
23 1 6.896 7.052 -6.474 
24 1 10.414 8.242 -7.338 
25 1 -9.177 7.893 11.613 
26 1 5.827 -10.532 -9.836 
27 1 11.222 2.048 2.662 
28 1 -8.629 10.423 -7.161 
29 1 -2.124 2.508 -6.002 
30 1 -7.774 -2.965 5.905 
31 1 -7.071 1.169 -0.650 
32 1 1.505 10.613 3.854 
33 1 2.061 2.322 -7.526 
34 1 -10.727 4.918 10.037 
35 1 -0.344 -7.904 9.270 
36 1 -10.853 0.749 10.692 
37 1 3.826 -0.090 9.831 
38 1 -3.144 -7.885 2.570 
39 1 -7.201 3.731 6.788 
40 1 2.282 5.996 -10.854 
41 1 0.938 -7.096 -1.089 
42 1 -10.490 -9.949 -5.523 
43 1 -10.159 -3.955 -0.308 
44 1 5.767 3.977 -6.560 
45 1 3.873 -8.866 -4.440 
46 1 -8.582 10.838 8.829 
47 1 -9.025 -6.241 5.846 
48 1 4.780 -8.105 1.105 
49 1 6.871 -0.107 7.175 
50 1 3.606 6.683 -8.027 
51 1 -2.218 8.961 5.086 
52 1 3.426 6.918 7.820 
53 1 7.767 -5.671 -6.450 
54 1 7.857 8.995 -1.387 
55 1 3.172 -3.598 -9.987 
56 1 -7.833 0.703 8.449 
57 1 7.508 8.252 4.712 
58 1 9.609 -0.802 -7.259 
59 1 1.836 -8.302 -11.531 
60 1 -2.874 2.301 -0.442 
61 1 9.816 7.811 1.933 
62 1 -8.184 -1.747 -6.526 
63 1 6.776 10.770 6.991 
64 1 -9.161 -9.476 0.560 
65 1 -7.222 5.062 10.240 
66 1 -7.875 -11.199 -3.609 
67 1 8.662 2.725 6.474 
68 1 7.192 3.255 -2.238 
69 1 1.867 -3.685 9.941 
70 1 -5.680 7.857 6.762 
71 1 10.651 -1.101 1.441 
72 1 8.659 -9.630 0.214 
73 1 -7.012 -11.673 0.089 
74 1 -9.269 2.142 -7.431 
75 1 1.307 -7.693 2.361 
76 1 9.547 10.640 11.684 
77 1 -2.542 -4.995 1.451 
78 1 3.766 -6.263 -7.176 
79 1 5.791 -10.245 9.930 
80 1 -10.889 -2.567 4.525 
81 1 -0.185 -0.210 -6.155 
82 1 -5.451 10.821 5.600 
83 1 -2.140 -10.182 -4.223 
84 1 -4.647 -0.724 7.148 
85 1 -10.912 9.823 -9.803 
86 1 -2.868 -4.929 -6.010 
87 1 -3.434 4.293 -9.055 
88 1 1.611 3.045 -2.963 
89 1 2.609 -1.973 -2.854 
90 1 4.652 6.032 -2.701 
91 1 -11.005 -8.790 3.651 
92 1 0.902 -9.298 6.634 
93 1 -5.865 1.782 -6.945 
94 1 8.589 4.595 -9.417 
95 1 2.026 -10.622 -0.272 
96 1 -9.091 2.473 -3.864 
97 1 -4.384 5.490 4.277 
98 1 -10.427 6.837 -3.896 
99 1 -5.260 9.705 -3.133 
100 1 5.644 0.901 -5.910 
101 1 0.917 8.199 6.206 
102 1 -7.346 -5.731 0.906 
103 1 -10.349 -5.326 -6.868 
104 1 -4.903 8.024 -9.613 
105 1 -6.061 -9.302 8.100 
106 1 6.008 -5.264 -10.258 
107 1 0.345 -3.607 0.651 
108 1 6.495 9.044 -9.916 
109 1 -5.872 4.982 1.385 
110 1 1.193 4.459 9.664 
111 1 -1.834 -3.479 8.193 
112 1 9.277 7.739 8.632 
113 1 -11.361 3.437 -10.456 
114 1 5.010 4.032 9.020 
115 1 -6.971 -6.802 -7.478 
116 1 3.419 -4.746 -0.742 
117 1 5.920 -3.066 4.636 
118 1 -6.216 -2.150 -1.100 
119 1 9.363 -10.352 -7.701 
120 1 -3.854 -3.936 4.803 
121 1 5.693 5.980 -11.497 
122 1 -6.577 5.222 -6.462 
123 1 -4.503 8.778 1.366 
124 1 2.921 2.103 5.411 
125 1 2.624 -1.664 -6.672 
126 1 -7.478 -6.039 9.222 
127 1 -1.801 1.492 7.203 
128 1 11.109 9.785 -4.417 
129 1 -3.180 10.682 -10.133 
130 1 9.405 -3.279 -10.917 
131 1 -2.048 0.186 3.436 
132 1 -10.287 11.533 5.920 
133 1 6.934 -2.572 -8.329 
134 1 -10.832 -9.024 -11.401 
135 1 8.824 -4.874 3.180 
136 1 -1.171 -1.115 10.135 
137 1 -0.506 4.675 -0.105 
138 1 -1.188 9.446 -0.956 
139 1 -2.842 -7.663 -9.971 
140 1 0.106 11.220 9.278 
141 1 -3.418 -1.616 -6.208 
142 1 -8.855 1.034 4.894 
143 1 -3.485 -7.617 -2.043 
144 1 -2.483 -10.709 6.564 
145 1 -9.186 7.484 6.648 
146 1 -6.574 -4.291 -5.485 
147 1 -10.561 -0.642 -2.219 
148 1 0.588 4.587 5.032 
149 1 -5.358 -1.750 -9.940 
150 1 -4.149 -6.438 7.161 
151 1 3.826 2.348 0.083 
152 1 -10.879 6.097 1.605 
153 1 0.978 -1.726 7.258 
154 1 -1.007 -9.807 -11.140 
155 1 -1.582 6.736 10.614 
156 1 -0.804 5.456 -3.802 
157 1 8.260 4.804 9.301 
158 1 -2.690 -2.872 -10.935 
159 1 -9.368 6.768 -8.435 
160 1 -5.196 -3.607 9.745 
161 1 -6.460 11.603 -10.795 
162 1 4.031 -7.454 8.399 
163 1 0.068 -4.706 -4.498 
164 1 6.626 8.942 10.046 
165 1 -3.873 7.535 -6.222 
166 1 -6.518 -6.195 -10.912 
167 1 -1.968 3.419 3.139 
168 1 -1.282 7.508 2.553 
169 1 -3.530 -1.173 0.899 
170 1 -7.749 7.939 0.990 
171 1 -0.010 -0.187 -0.100 
172 1 2.848 6.601 4.007 
173 1 -4.742 6.067 -3.000 
174 1 -10.965 -4.490 -11.443 
175 1 8.706 -2.862 8.356 
176 1 2.465 2.554 -11.107 
177 1 7.607 10.393 -6.916 
178 1 1.330 -0.300 3.388 
179 1 -7.310 -9.878 3.659 
180 1 -2.775 -3.422 -2.546 
181 1 9.398 -9.804 9.242 
182 1 -6.035 -6.349 3.793 
183 1 7.183 0.851 3.108 
184 1 -0.381 8.540 -9.591 
185 1 8.827 -0.936 -2.118 
186 1 -1.588 10.676 -7.064 
187 1 -4.264 10.966 9.790 
188 1 7.893 4.779 3.381 
189 1 -11.573 5.864 5.146 
190 1 6.186 -9.612 5.211 
191 1 -4.620 -11.313 2.667 
192 1 -2.726 0.686 -9.524 
193 1 -4.824 11.662 -7.286 
194 1 0.279 8.052 -6.009 
195 1 -11.293 2.119 7.299 
196 1 -6.143 8.299 10.029 
197 1 -4.893 1.075 10.540 
198 1 -1.530 3.207 11.419 
199 1 4.622 -1.628 -0.142 
200 1 4.336 11.179 -6.918 
ITEM: TIMESTEP
10000
ITEM: NUMBER OF ATOMS
200
ITEM: BOX BOUNDS pp pp pp
-11.693307158924013 11.693307158924013
-11.693307158924013 11.693307158924013
-11.693307158924013 11.693307158924013
ITEM: ATOMS id type x y z
1 1 4.629 5.516 0.963 
2 1 1.837 8.449 -0.782 
3 1 2.253 5.642 -4.859 
4 1 -2.754 5.208 7.000 
5 1 -7.924 -1.933 2.369 
6 1 3.991 -10.983 6.553 
7 1 3.377 -4.334 3.017 
8 1 3.686 10.095 -10.922 
9 1 5.063 9.975 1.740 
10 1 -10.436 9.458 -1.773 
11 1 -0.362 -6.607 4.460 
12 1 9.303 -11.084 5.532 
13 1 -8.769 -6.716 -3.359 
14 1 10.274 -7.405 6.939 
15 1 6.290 0.680 -9.472 
16 1 1.224 -10.994 -9.012 
17 1 -1.646 -10.440 -0.301 
18 1 0.983 -11.421 -5.453 
19 1 -5.286 1.640 3.033 
20 1 -1.717 0.232 -3.527 
21 1 0.978 -1.668 -9.595 
22 1 0.454 -7.579 -7.096 
23 1 7.485 7.536 -6.592 
24 1 10.501 8.534 -7.471 
25 1 -10.077 7.563 -11.249 
26 1 5.946 -10.077 -9.683 
27 1 10.437 2.126 2.083 
28 1 -9.025 9.091 -6.443 
29 1 -2.226 3.243 -6.127 
30 1 -7.232 -3.028 6.249 
31 1 -7.596 1.149 -0.891 
32 1 1.692 10.574 4.227 
33 1 1.639 3.256 -7.328 
34 1 -10.695 4.850 10.052 
35 1 -1.471 -8.628 9.025 
36 1 -10.507 0.031 11.507 
37 1 3.721 -0.065 9.976 
38 1 -4.205 -8.586 1.207 
39 1 -8.168 4.055 6.362 
40 1 2.404 6.109 -10.825 
41 1 0.429 -7.871 -1.487 
42 1 -10.523 -9.700 -5.300 
43 1 -9.846 -3.671 0.355 
44 1 4.953 3.775 -6.030 
45 1 4.310 -10.073 -2.835 
46 1 -7.981 10.840 8.620 
47 1 -8.980 -6.525 5.776 
48 1 4.304 -8.719 0.672 
49 1 5.992 -0.421 6.832 
50 1 3.542 6.877 -7.385 
51 1 -3.131 9.161 5.980 
52 1 3.328 7.183 8.880 
53 1 7.412 -6.342 -5.281 
54 1 8.679 10.064 -1.820 
55 1 3.487 -4.105 -10.175 
56 1 -8.117 1.225 8.903 
57 1 7.653 6.959 5.053 
58 1 10.501 -0.511 -7.583 
59 1 2.398 -8.418 -11.079 
60 1 -3.014 1.792 -0.378 
61 1 9.141 7.882 2.035 
62 1 -7.661 -0.957 -6.008 
63 1 6.552 10.592 5.302 
64 1 -8.818 -9.706 0.218 
65 1 -7.214 4.786 9.800 
66 1 -7.046 -10.640 -3.233 
67 1 8.608 2.459 6.956 
68 1 6.991 2.969 -2.078 
69 1 1.632 -3.240 10.149 
70 1 -5.869 7.257 7.623 
71 1 11.183 -1.178 1.369 
72 1 9.972 -9.881 0.120 
73 1 -6.671 11.266 -0.417 
74 1 -9.722 2.149 -8.112 
75 1 0.311 -8.709 1.907 
76 1 8.840 10.298 11.429 
77 1 -3.057 -5.125 0.776 
78 1 4.376 -6.738 -6.852 
79 1 5.781 -11.273 10.048 
80 1 -10.519 -1.842 4.642 
81 1 -0.297 0.244 -6.374 
82 1 -6.058 10.942 5.895 
83 1 -2.224 -10.341 -4.094 
84 1 -4.696 -0.272 6.901 
85 1 -10.917 11.021 -10.726 
86 1 -2.833 -6.154 -6.072 
87 1 -3.928 3.911 -9.153 
88 1 1.704 2.522 -3.276 
89 1 2.634 -2.500 -2.689 
90 1 5.168 6.697 -3.152 
91 1 11.429 -8.661 3.436 
92 1 1.102 -9.565 6.075 
93 1 -5.192 1.470 -7.391 
94 1 9.053 4.663 -9.938 
95 1 2.162 -11.213 0.348 
96 1 -8.833 2.956 -3.564 
97 1 -4.874 6.694 4.154 
98 1 -10.536 6.253 -5.326 
99 1 -4.671 10.401 -3.459 
100 1 5.973 -0.005 -6.127 
101 1 0.071 7.882 6.404 
102 1 -6.267 -5.290 -0.219 
103 1 -11.083 -6.408 -5.797 
104 1 -4.663 7.291 -9.931 
105 1 -5.685 -9.269 8.485 
106 1 6.032 -6.450 -10.148 
107 1 0.841 -3.544 0.328 
108 1 6.568 8.634 -9.626 
109 1 -6.007 5.234 1.616 
110 1 1.601 4.635 9.651 
111 1 -1.435 -3.823 7.814 
112 1 9.123 8.335 8.532 
113 1 -11.430 4.013 -10.394 
114 1 4.883 3.791 9.025 
115 1 -6.912 -8.419 -7.064 
116 1 4.257 -4.959 -0.191 
117 1 6.148 -2.196 3.236 
118 1 -6.115 -1.998 -1.657 
119 1 9.006 -10.172 -8.184 
120 1 -3.269 -3.737 4.505 
121 1 5.556 5.676 -11.422 
122 1 -6.946 5.365 -5.571 
123 1 -4.040 7.928 1.026 
124 1 3.466 1.838 5.736 
125 1 3.099 -3.297 -6.945 
126 1 -8.487 -5.953 8.917 
127 1 -2.137 1.772 7.479 
128 1 11.566 10.106 -4.514 
129 1 -3.267 10.467 -9.714 
130 1 8.556 -4.501 11.689 
131 1 -1.989 -0.126 3.912 
132 1 -10.342 10.804 5.872 
133 1 6.613 -3.464 -8.135 
134 1 -8.615 -8.939 -11.250 
135 1 9.094 -5.699 3.442 
136 1 0.076 -0.006 10.743 
137 1 -0.576 4.373 -0.123 
138 1 -1.504 8.879 -1.689 
139 1 -3.003 -7.195 -10.768 
140 1 -0.435 11.425 8.852 
141 1 -3.354 -1.804 -6.785 
142 1 -9.472 1.495 3.626 
143 1 -3.468 -7.729 -2.106 
144 1 -2.861 -10.699 6.934 
145 1 -9.025 7.905 6.596 
146 1 -5.938 -5.191 -5.480 
147 1 -10.628 -0.355 -1.662 
148 1 1.019 4.660 4.391 
149 1 -5.967 -0.789 -9.964 
150 1 -3.515 -6.847 6.884 
151 1 3.804 1.708 0.191 
152 1 -11.581 6.308 -0.221 
153 1 2.256 -2.970 5.852 
154 1 -1.091 -11.044 -11.575 
155 1 -2.330 6.914 10.584 
156 1 -1.064 5.318 -3.489 
157 1 8.313 4.804 9.795 
158 1 -2.079 -2.739 -10.501 
159 1 -9.634 5.970 -8.584 
160 1 -4.785 -3.378 8.359 
161 1 -6.750 11.586 -11.107 
162 1 3.308 -7.863 9.027 
163 1 0.469 -5.215 -4.266 
164 1 6.069 9.004 10.293 
165 1 -3.211 7.300 -6.169 
166 1 -7.831 -5.727 -10.493 
167 1 -2.481 3.989 3.163 
168 1 -0.542 7.232 2.552 
169 1 -3.160 -1.985 0.862 
170 1 -8.697 7.838 0.893 
171 1 -0.029 -0.348 0.422 
172 1 3.276 7.081 4.136 
173 1 -4.227 5.797 -2.208 
174 1 -11.417 -5.014 -9.349 
175 1 8.292 -3.001 8.696 
176 1 1.963 2.377 -11.110 
177 1 7.222 10.870 -7.398 
178 1 2.319 -0.061 3.421 
179 1 -7.676 -9.300 3.521 
180 1 -3.105 -4.040 -2.520 
181 1 9.885 -9.522 10.286 
182 1 -5.321 -6.318 3.612 
183 1 7.300 0.775 2.483 
184 1 -0.119 8.890 -9.406 
185 1 8.933 -1.181 -2.498 
186 1 -1.868 10.488 -6.804 
187 1 -3.480 10.249 9.840 
188 1 6.353 4.068 3.781 
189 1 11.520 6.011 5.414 
190 1 6.019 -9.523 4.442 
191 1 -4.414 11.302 2.806 
192 1 -2.676 0.675 -9.213 
193 1 -5.585 11.194 -7.549 
194 1 0.877 8.555 -5.996 
195 1 -11.474 2.736 6.816 
196 1 -6.431 8.109 10.813 
197 1 -4.899 0.539 10.116 
198 1 -1.944 2.842 -11.624 
199 1 5.281 -1.298 -0.431 
200 1 4.057 10.725 -7.164 
ITEM: TIMESTEP
11000
ITEM: NUMBER OF ATOMS
200
ITEM: BOX BOUNDS pp pp pp
-11.693307158924013 11.693307158924013
-11.693307158924013 11.693307158924013
-11.693307158924013 11.693307158924013
ITEM: ATOMS id type x y z
1 1 5.242 5.377 0.593 
2 1 2.431 8.438 0.163 
3 1 2.856 6.070 -4.811 
4 1 -2.667 4.803 7.173 
5 1 -8.298 -2.208 2.871 
6 1 4.645 -10.689 6.581 
7 1 2.458 -4.661 3.622 
8 1 4.082 10.416 -10.135 
9 1 5.785 10.075 1.360 
10 1 -10.137 9.586 -1.274 
11 1 -0.944 -5.434 3.930 
12 1 9.513 -11.309 4.918 
13 1 -9.219 -7.251 -2.433 
14 1 11.126 -7.157 8.188 
15 1 6.707 1.012 -9.691 
16 1 0.865 -10.940 -9.101 
17 1 -1.424 -10.972 0.007 
18 1 0.941 -11.004 -4.696 
19 1 -5.058 1.457 3.071 
20 1 -1.437 0.751 -3.292 
21 1 1.265 -0.850 -9.401 
22 1 0.475 -7.346 -7.707 
23 1 7.413 7.587 -5.355 
24 1 10.458 8.593 -7.720 
25 1 -10.196 8.488 -11.524 
26 1 6.008 -10.097 -10.054 
27 1 9.693 2.405 2.647 
28 1 -9.449 9.036 -6.949 
29 1 -2.791 3.614 -5.609 
30 1 -6.967 -3.468 5.449 
31 1 -7.610 0.790 -0.834 
32 1 2.637 10.169 3.832 
33 1 2.466 3.598 -7.729 
34 1 -10.611 4.666 9.482 
35 1 -1.512 -8.806 9.295 
36 1 -11.346 -0.915 11.646 
37 1 3.401 0.150 9.884 
38 1 -4.097 -9.651 1.885 
39 1 -8.218 3.686 6.782 
40 1 2.139 5.859 -10.492 
41 1 0.320 -7.574 -1.262 
42 1 -11.004 -10.009 -4.858 
43 1 -10.350 -3.578 0.584 
44 1 4.946 3.127 -4.943 
45 1 5.767 -9.404 -3.796 
46 1 -7.843 10.989 8.498 
47 1 -8.744 -6.365 5.325 
48 1 4.016 -8.400 -0.169 
49 1 5.227 -0.817 6.511 
50 1 3.174 8.047 -7.860 
51 1 -3.110 8.872 6.348 
52 1 3.427 6.705 8.560 
53 1 7.101 -6.255 -4.445 
54 1 7.642 10.064 -2.112 
55 1 3.001 -5.571 -10.342 
56 1 -8.397 0.041 8.357 
57 1 6.874 7.220 5.750 
58 1 9.896 0.379 -8.831 
59 1 2.053 -8.642 -11.248 
60 1 -3.548 2.614 -0.758 
61 1 8.597 8.350 2.285 
62 1 -7.891 -1.753 -6.409 
63 1 6.296 10.455 4.700 
64 1 -9.169 -10.002 0.163 
65 1 -6.696 4.466 9.629 
66 1 -7.016 -11.193 -3.120 
67 1 7.980 3.500 6.888 
68 1 6.317 2.414 -1.969 
69 1 2.332 -3.743 10.026 
70 1 -6.333 7.573 7.224 
71 1 11.051 -1.053 1.059 
72 1 9.184 -8.166 0.504 
73 1 -6.522 10.040 -0.395 
74 1 -9.457 2.200 -7.754 
75 1 0.826 -8.613 2.155 
76 1 8.600 10.003 -11.407 
77 1 -3.373 -5.613 0.921 
78 1 3.916 -6.594 -7.068 
79 1 4.850 -10.779 10.151 
80 1 -11.011 -2.211 4.714 
81 1 -0.562 -0.045 -6.337 
82 1 -6.645 10.989 5.577 
83 1 -2.321 -10.446 -3.796 
84 1 -5.091 -0.167 6.414 
85 1 -11.203 11.537 -9.857 
86 1 -2.464 -7.386 -5.897 
87 1 -4.498 4.460 -9.452 
88 1 1.837 1.890 -4.041 
89 1 2.576 -2.766 -2.610 
90 1 5.247 6.779 -2.841 
91 1 -11.101 -9.629 3.516 
92 1 1.282 -9.196 5.519 
93 1 -5.273 1.744 -6.552 
94 1 9.065 4.429 -9.864 
95 1 2.805 -11.499 0.346 
96 1 -9.291 2.558 -3.589 
97 1 -4.925 7.108 4.069 
98 1 -10.348 6.410 -5.259 
99 1 -5.010 9.357 -3.453 
100 1 6.878 -0.586 -4.897 
101 1 0.199 8.030 6.764 
102 1 -6.715 -4.207 0.589 
103 1 11.331 -6.665 -6.428 
104 1 -5.675 7.856 -9.519 
105 1 -5.172 -9.276 8.685 
106 1 6.036 -6.570 -9.726 
107 1 0.243 -3.553 0.419 
108 1 7.213 7.858 -9.158 
109 1 -5.207 5.154 1.104 
110 1 0.604 4.322 9.110 
111 1 -0.674 -4.356 7.958 
112 1 9.349 8.031 8.326 
113 1 -11.432 3.380 -10.497 
114 1 4.870 3.419 9.610 
115 1 -5.559 -8.965 -7.546 
116 1 3.649 -5.256 0.368 
117 1 6.028 -2.202 3.363 
118 1 -6.032 -1.551 -2.849 
119 1 9.165 -10.195 -8.390 
120 1 -3.119 -2.935 4.881 
121 1 5.504 5.133 -11.100 
122 1 -7.203 6.264 -6.266 
123 1 -3.946 8.259 0.785 
124 1 3.235 1.866 5.816 
125 1 3.259 -3.515 -6.791 
126 1 -8.440 -5.341 8.811 
127 1 -2.050 1.194 6.887 
128 1 -11.529 10.183 -4.780 
129 1 -3.423 11.327 -9.141 
130 1 8.354 -4.853 11.475 
131 1 -0.841 -0.634 4.415 
132 1 -10.091 -11.303 6.079 
133 1 7.536 -3.558 -7.713 
134 1 -8.474 -8.294 11.495 
135 1 9.730 -4.704 3.386 
136 1 -0.081 -0.347 10.385 
137 1 -1.320 5.424 0.108 
138 1 -1.046 8.884 -1.243 
139 1 -2.445 -7.014 -10.553 
140 1 -0.245 10.729 8.724 
141 1 -3.183 -1.492 -6.243 
142 1 -10.314 1.964 3.039 
143 1 -3.896 -7.352 -2.115 
144 1 -2.387 -10.883 5.681 
145 1 -9.958 7.765 6.461 
146 1 -6.208 -5.329 -4.210 
147 1 -10.420 -0.714 -2.102 
148 1 1.204 4.483 3.330 
149 1 -5.728 -1.940 -9.045 
150 1 -2.996 -6.867 6.970 
151 1 2.642 2.583 0.043 
152 1 11.472 7.050 1.052 
153 1 1.748 -2.650 6.821 
154 1 -1.860 -10.541 -11.474 
155 1 -3.168 6.392 10.529 
156 1 -0.850 5.144 -3.207 
157 1 9.038 4.835 9.668 
158 1 -1.946 -2.934 -9.752 
159 1 -9.715 6.120 -9.236 
160 1 -4.044 -2.995 8.153 
161 1 -6.327 -11.634 11.673 
162 1 3.665 -7.527 9.512 
163 1 0.323 -5.585 -4.145 
164 1 5.891 8.535 10.875 
165 1 -3.194 7.455 -7.065 
166 1 -6.651 -4.961 -11.095 
167 1 -2.476 4.017 3.847 
168 1 0.221 7.391 2.527 
169 1 -3.290 -1.140 0.995 
170 1 -8.401 7.110 1.460 
171 1 0.187 -0.371 -0.033 
172 1 3.811 6.945 4.227 
173 1 -4.454 5.739 -2.928 
174 1 -10.346 -5.886 -9.933 
175 1 8.616 -3.018 7.049 
176 1 1.629 1.990 -10.917 
177 1 6.837 10.922 -7.005 
178 1 2.438 -0.116 3.107 
179 1 -7.173 -9.783 3.130 
180 1 -3.360 -3.792 -2.394 
181 1 11.233 -9.408 10.767 
182 1 -4.725 -6.672 4.081 
183 1 6.637 1.236 2.071 
184 1 -0.557 8.381 -10.654 
185 1 9.147 -1.845 -2.459 
186 1 -1.819 10.463 -5.770 
187 1 -3.554 10.254 9.756 
188 1 6.075 4.330 4.045 
189 1 10.399 5.695 6.271 
190 1 6.072 -8.779 3.314 
191 1 -4.462 10.838 3.117 
192 1 -2.418 0.573 -9.099 
193 1 -6.311 10.792 -7.227 
194 1 1.278 9.227 -5.065 
195 1 -11.585 2.736 7.001 
196 1 -6.688 7.924 10.468 
197 1 -4.331 0.463 10.148 
198 1 -1.891 2.282 11.465 
199 1 5.704 -1.056 -1.351 
200 1 3.505 -10.604 -7.487 
ITEM: TIMESTEP
12000
ITEM: NUMBER OF ATOMS
200
ITEM: BOX BOUNDS pp pp pp
-11.693307158924013 11.693307158924013
-11.693307158924013 11.693307158924013
-11.693307158924013 11.693307158924013
ITEM: ATOMS id type x y z
1 1 5.664 6.199 0.925 
2 1 2.085 8.362 0.016 
3 1 2.688 5.936 -5.170 
4 1 -3.102 4.439 7.860 
5 1 -7.980 -1.635 3.167 
6 1 5.598 -11.355 6.599 
7 1 3.142 -4.550 4.459 
8 1 4.333 10.190 -9.720 
9 1 5.745 9.714 0.148 
10 1 -9.768 10.332 -1.277 
11 1 -0.533 -5.387 4.475 
12 1 8.528 11.467 4.751 
13 1 -9.970 -7.684 -2.333 
14 1 9.504 -6.714 6.968 
15 1 5.973 0.738 -9.459 
16 1 0.823 -11.692 -8.917 
17 1 -1.622 11.599 0.223 
18 1 0.692 -10.572 -3.955 
19 1 -5.333 1.176 3.402 
20 1 -1.991 0.334 -3.181 
21 1 2.685 -1.091 -9.824 
22 1 0.939 -8.345 -7.185 
23 1 7.351 6.847 -5.297 
24 1 10.454 8.033 -8.368 
25 1 -10.587 9.110 11.645 
26 1 5.559 -9.771 -10.447 
27 1 9.329 3.262 2.677 
28 1 -9.070 8.584 -7.731 
29 1 -2.468 4.136 -5.370 
30 1 -7.027 -3.668 5.957 
31 1 -7.671 0.851 -0.127 
32 1 2.486 9.631 3.993 
33 1 3.088 3.470 -8.053 
34 1 -10.226 5.617 9.568 
35 1 -0.775 -8.728 8.843 
36 1 -10.966 -1.816 -10.933 
37 1 3.549 0.168 9.543 
38 1 -3.311 -9.005 1.720 
39 1 -8.406 4.469 5.992 
40 1 1.200 5.802 -10.626 
41 1 -0.031 -7.420 -2.195 
42 1 -11.480 -9.934 -4.986 
43 1 -9.896 -3.571 -0.082 
44 1 5.434 3.751 -5.820 
45 1 5.245 -9.796 -4.030 
46 1 -9.086 10.243 8.728 
47 1 -9.433 -6.658 6.177 
48 1 3.932 -9.010 -0.346 
49 1 5.378 -2.640 8.146 
50 1 3.117 7.888 -7.808 
51 1 -2.424 8.713 5.339 
52 1 3.811 6.952 8.492 
53 1 8.425 -5.914 -4.421 
54 1 8.138 10.511 -3.696 
55 1 2.912 -5.579 -9.775 
56 1 -8.095 -0.295 10.334 
57 1 8.090 6.960 4.663 
58 1 9.939 0.578 -9.946 
59 1 1.877 -9.182 11.667 
60 1 -2.659 2.051 -0.287 
61 1 8.943 9.121 2.249 
62 1 -8.560 -1.120 -6.370 
63 1 5.650 9.979 3.681 
64 1 -8.637 -10.131 0.077 
65 1 -6.923 4.191 8.790 
66 1 -6.681 -10.760 -3.098 
67 1 7.619 3.736 7.088 
68 1 5.802 2.153 -2.526 
69 1 3.173 -2.992 10.907 
70 1 -5.696 7.564 7.255 
71 1 10.965 -0.594 1.121 
72 1 8.858 -8.544 1.222 
73 1 -6.475 10.503 0.478 
74 1 -9.732 2.234 -8.353 
75 1 -0.178 -8.306 1.813 
76 1 8.386 10.520 -11.101 
77 1 -3.423 -5.697 1.437 
78 1 4.180 -7.213 -7.321 
79 1 4.605 -11.204 9.759 
80 1 -11.186 -2.064 4.247 
81 1 -0.319 -0.480 -6.419 
82 1 -6.668 11.405 5.507 
83 1 -2.712 -10.637 -2.971 
84 1 -5.489 -0.336 6.542 
85 1 -10.708 11.383 -9.413 
86 1 -2.546 -7.415 -6.385 
87 1 -4.546 4.228 -9.266 
88 1 1.774 2.422 -4.440 
89 1 2.361 -3.254 -1.695 
90 1 5.941 6.354 -2.243 
91 1 -10.880 -8.197 2.846 
92 1 0.530 -8.643 4.992 
93 1 -5.261 1.796 -6.444 
94 1 9.339 4.463 -9.609 
95 1 2.197 11.605 0.660 
96 1 -9.990 2.174 -3.185 
97 1 -4.842 7.486 3.776 
98 1 -11.206 6.128 -5.684 
99 1 -4.302 9.423 -3.630 
100 1 7.394 0.109 -5.220 
101 1 0.379 7.022 6.999 
102 1 -6.190 -4.412 0.356 
103 1 -10.435 -6.755 -6.212 
104 1 -5.472 8.881 -9.285 
105 1 -5.178 -9.780 9.178 
106 1 6.466 -6.993 -10.186 
107 1 0.147 -4.257 0.907 
108 1 7.145 7.975 -9.122 
109 1 -5.810 4.669 2.025 
110 1 0.528 3.869 9.665 
111 1 -0.887 -4.875 8.743 
112 1 9.356 8.109 8.590 
113 1 -11.654 2.958 -11.184 
114 1 4.307 3.829 9.381 
115 1 -5.781 -8.287 -8.113 
116 1 4.022 -5.379 1.267 
117 1 6.349 -3.339 3.857 
118 1 -6.488 -2.482 -3.080 
119 1 9.538 -9.473 -8.761 
120 1 -3.698 -3.208 4.327 
121 1 5.590 4.451 -10.990 
122 1 -7.486 5.143 -7.184 
123 1 -4.238 7.681 -0.270 
124 1 3.074 0.496 6.135 
125 1 3.470 -2.677 -6.793 
126 1 -8.295 -5.017 9.380 
127 1 -2.372 0.855 7.411 
128 1 -11.193 9.956 -4.526 
129 1 -4.146 -11.575 -8.840 
130 1 9.450 -5.368 -11.339 
131 1 -0.560 -0.467 3.475 
132 1 -10.491 -11.131 5.896 
133 1 6.400 -4.433 -7.456 
134 1 -8.336 -8.385 -11.025 
135 1 10.011 -5.078 4.096 
136 1 -0.430 -1.395 9.607 
137 1 -0.940 5.304 0.542 
138 1 -0.788 8.675 -1.545 
139 1 -2.463 -6.348 -11.565 
140 1 0.240 10.716 9.854 
141 1 -4.049 -2.097 -5.596 
142 1 -9.836 1.529 4.098 
143 1 -4.401 -7.548 -2.150 
144 1 -2.709 -11.251 7.211 
145 1 -9.714 8.024 6.304 
146 1 -6.042 -5.444 -4.823 
147 1 -10.676 -0.773 -1.728 
148 1 1.633 4.320 3.126 
149 1 -5.886 -2.143 -8.942 
150 1 -2.843 -6.698 6.935 
151 1 2.692 2.926 -0.393 
152 1 -11.651 7.039 0.483 
153 1 1.366 -2.018 6.287 
154 1 -2.079 -9.771 -11.041 
155 1 -2.060 6.807 9.939 
156 1 -0.120 5.593 -2.792 
157 1 9.107 4.097 9.832 
158 1 -2.822 -2.378 -10.768 
159 1 -9.464 5.896 -9.851 
160 1 -3.723 -2.142 9.036 
161 1 -5.865 11.452 11.542 
162 1 3.682 -7.305 9.397 
163 1 -0.112 -4.441 -5.512 
164 1 5.007 8.254 11.279 
165 1 -3.569 6.767 -7.025 
166 1 -5.846 -4.691 -11.252 
167 1 -1.782 4.309 4.089 
168 1 -0.323 8.400 2.918 
169 1 -4.650 -1.991 1.431 
170 1 -8.364 7.132 1.776 
171 1 -0.330 -0.366 0.353 
172 1 3.546 6.648 4.945 
173 1 -4.578 5.649 -2.959 
174 1 -10.163 -5.698 -10.433 
175 1 8.736 -2.734 7.043 
176 1 1.864 1.970 -11.481 
177 1 7.942 11.180 -6.942 
178 1 2.634 -1.003 2.418 
179 1 -6.895 -9.654 3.375 
180 1 -3.211 -4.073 -2.314 
181 1 11.636 -9.918 10.342 
182 1 -5.710 -6.870 3.802 
183 1 6.285 0.597 2.306 
184 1 -1.244 9.049 -10.696 
185 1 9.284 -2.021 -2.177 
186 1 -1.965 10.880 -6.778 
187 1 -3.843 10.096 9.752 
188 1 5.601 3.349 4.053 
189 1 11.660 5.555 6.164 
190 1 6.171 -8.335 3.312 
191 1 -4.071 10.640 2.875 
192 1 -2.626 0.684 -8.928 
193 1 -5.739 10.684 -6.248 
194 1 1.697 9.350 -4.942 
195 1 11.096 1.925 7.788 
196 1 -6.661 7.062 10.982 
197 1 -4.925 1.226 9.738 
198 1 -2.071 3.274 -10.929 
199 1 5.980 -1.347 -0.946 
200 1 3.511 -11.169 -7.063 
ITEM: TIMESTEP
13000
ITEM: NUMBER OF ATOMS
200
ITEM: BOX BOUNDS pp pp pp
-11.693307158924013 11.693307158924013
-11.693307158924013 11.693307158924013
-11.693307158924013 11.693307158924013
ITEM: ATOMS id type x y z
1 1 5.297 6.491 1.509 
2 1 2.247 7.409 -0.798 
3 1 3.021 5.888 -5.023 
4 1 -4.398 4.425 7.214 
5 1 -8.702 -2.189 2.740 
6 1 5.228 -11.282 6.597 
7 1 3.427 -4.847 4.657 
8 1 4.148 10.399 -9.440 
9 1 5.486 10.678 -0.212 
10 1 -9.150 10.589 -2.143 
11 1 -0.564 -4.756 4.186 
12 1 9.183 -11.666 4.891 
13 1 -10.278 -7.303 -2.040 
14 1 10.705 -6.838 7.734 
15 1 5.864 0.827 -9.145 
16 1 0.356 11.414 -9.154 
17 1 -1.347 11.628 0.679 
18 1 0.711 -10.787 -4.154 
19 1 -5.026 1.529 2.772 
20 1 -1.116 -0.186 -3.364 
21 1 2.696 -1.338 -10.010 
22 1 -0.202 -8.746 -7.110 
23 1 7.342 6.737 -5.706 
24 1 10.585 8.486 -8.421 
25 1 -10.399 8.436 11.108 
26 1 6.180 -9.772 -10.037 
27 1 8.941 2.394 1.943 
28 1 -8.640 7.974 -6.973 
29 1 -2.264 3.806 -5.298 
30 1 -6.739 -3.515 6.652 
31 1 -7.277 0.514 0.319 
32 1 2.550 9.520 4.809 
33 1 2.496 3.126 -7.950 
34 1 -10.643 5.845 9.414 
35 1 0.111 -9.230 8.769 
36 1 -10.883 -1.992 -10.947 
37 1 4.055 0.238 10.002 
38 1 -3.759 -8.669 1.696 
39 1 -9.206 4.386 6.260 
40 1 1.395 6.964 -11.535 
41 1 1.256 -7.503 -2.744 
42 1 -10.336 -9.982 -4.209 
43 1 -10.693 -4.114 -0.032 
44 1 5.663 3.786 -4.873 
45 1 6.703 -9.359 -5.380 
46 1 -8.914 10.524 8.459 
47 1 -9.581 -4.764 5.046 
48 1 4.595 -9.198 -0.661 
49 1 5.310 -2.383 7.620 
50 1 2.978 7.442 -8.180 
51 1 -2.384 9.418 5.635 
52 1 3.620 7.156 8.403 
53 1 7.769 -3.863 -5.942 
54 1 8.942 10.203 -2.975 
55 1 1.661 -6.486 -9.629 
56 1 -8.147 -0.603 10.411 
57 1 8.817 6.459 4.274 
58 1 9.379 0.001 -10.031 
59 1 2.555 -8.711 11.438 
60 1 -3.787 1.537 -1.636 
61 1 8.463 9.813 1.625 
62 1 -8.544 -0.984 -6.130 
63 1 5.610 9.480 3.366 
64 1 -8.691 -9.789 0.231 
65 1 -7.128 3.840 10.025 
66 1 -6.678 -11.136 -2.484 
67 1 7.708 4.334 6.783 
68 1 5.541 2.258 -1.460 
69 1 3.637 -3.146 11.193 
70 1 -5.777 7.492 7.720 
71 1 11.193 -0.929 0.540 
72 1 10.229 -7.207 1.008 
73 1 -6.936 10.321 0.651 
74 1 -10.674 1.706 -7.833 
75 1 -0.580 -8.046 1.468 
76 1 8.151 10.893 -11.490 
77 1 -2.849 -5.524 2.038 
78 1 4.562 -7.041 -6.597 
79 1 4.870 -10.613 9.766 
80 1 11.641 -1.537 4.565 
81 1 0.233 -0.081 -7.142 
82 1 -6.667 -11.199 6.285 
83 1 -2.391 -10.930 -2.724 
84 1 -7.533 -0.083 6.175 
85 1 -10.487 11.209 -9.895 
86 1 -3.253 -7.433 -6.021 
87 1 -4.739 4.131 -10.373 
88 1 1.099 2.671 -4.373 
89 1 3.267 -2.922 -2.812 
90 1 5.235 7.101 -2.347 
91 1 -10.995 -7.603 3.284 
92 1 0.794 -7.962 5.224 
93 1 -5.889 1.624 -5.638 
94 1 8.813 4.069 -9.971 
95 1 1.827 -10.889 -0.252 
96 1 -8.800 2.334 -4.219 
97 1 -6.466 8.437 4.328 
98 1 -11.142 5.590 -5.566 
99 1 -4.522 9.227 -3.254 
100 1 8.684 -0.083 -5.396 
101 1 0.307 7.117 6.495 
102 1 -6.081 -4.227 0.704 
103 1 -10.954 -6.855 -6.294 
104 1 -5.430 8.525 -8.785 
105 1 -5.157 -9.466 9.929 
106 1 7.466 -6.562 -9.795 
107 1 0.981 -4.573 0.793 
108 1 6.694 7.925 -8.946 
109 1 -5.405 5.666 2.323 
110 1 1.124 3.108 9.115 
111 1 -0.144 -5.594 9.008 
112 1 8.844 8.573 8.095 
113 1 -11.263 2.863 -11.087 
114 1 4.655 3.745 9.305 
115 1 -5.339 -8.715 -8.221 
116 1 3.796 -6.109 1.169 
117 1 6.556 -2.892 3.113 
118 1 -6.564 -3.496 -2.443 
119 1 9.554 -9.570 -9.500 
120 1 -3.804 -3.190 5.123 
121 1 5.786 4.133 -10.219 
122 1 -6.416 4.935 -7.136 
123 1 -3.445 7.879 0.284 
124 1 3.359 0.885 5.525 
125 1 2.813 -3.392 -6.430 
126 1 -8.928 -4.913 9.221 
127 1 -3.044 0.949 6.494 
128 1 -10.991 10.604 -5.282 
129 1 -4.611 11.446 -8.999 
130 1 9.851 -4.785 -11.087 
131 1 -0.819 -1.298 3.657 
132 1 -10.352 11.617 5.737 
133 1 5.941 -3.500 -8.660 
134 1 -8.234 -8.349 -11.023 
135 1 9.676 -4.684 3.778 
136 1 -1.034 -0.324 8.770 
137 1 -1.118 5.150 0.605 
138 1 -0.980 8.798 -2.382 
139 1 -2.150 -7.118 11.326 
140 1 0.560 10.697 9.811 
141 1 -3.965 -2.928 -5.656 
142 1 -9.774 1.571 4.684 
143 1 -4.554 -8.413 -1.885 
144 1 -3.195 -11.320 7.169 
145 1 -9.365 8.326 6.225 
146 1 -5.248 -5.771 -4.226 
147 1 -9.853 -0.763 -2.400 
148 1 1.282 3.830 2.232 
149 1 -6.139 -2.255 -9.101 
150 1 -2.967 -7.262 6.772 
151 1 2.087 1.793 -1.557 
152 1 10.871 8.141 -0.151 
153 1 2.009 -2.138 5.664 
154 1 -2.268 -10.707 -11.382 
155 1 -1.439 6.999 9.642 
156 1 -0.079 5.873 -3.477 
157 1 9.738 4.136 9.824 
158 1 -1.576 -2.841 -11.267 
159 1 -8.702 5.015 -9.903 
160 1 -4.256 -2.097 8.636 
161 1 -7.008 -11.517 11.515 
162 1 3.218 -8.306 7.749 
163 1 -0.733 -4.992 -4.876 
164 1 5.310 7.664 11.419 
165 1 -3.096 7.359 -6.624 
166 1 -5.955 -4.529 -11.073 
167 1 -2.167 3.760 3.686 
168 1 -0.359 8.671 2.908 
169 1 -4.299 -1.368 0.899 
170 1 -8.953 7.280 1.886 
171 1 -0.289 -0.123 0.769 
172 1 3.451 6.404 4.687 
173 1 -4.320 5.040 -2.761 
174 1 -10.370 -5.420 -9.438 
175 1 8.529 -2.973 7.801 
176 1 2.051 1.359 -11.049 
177 1 7.560 10.999 -7.171 
178 1 2.862 0.191 2.042 
179 1 -6.913 -10.050 2.995 
180 1 -2.315 -3.883 -1.998 
181 1 -11.511 -9.568 11.075 
182 1 -6.138 -7.034 4.658 
183 1 6.069 0.564 2.907 
184 1 -2.071 8.653 -10.728 
185 1 8.872 -1.243 -2.345 
186 1 -2.799 10.659 -5.727 
187 1 -4.316 10.271 10.352 
188 1 6.053 3.771 3.886 
189 1 11.300 6.385 6.600 
190 1 6.186 -7.725 3.016 
191 1 -4.164 10.261 2.702 
192 1 -3.007 -0.078 -8.421 
193 1 -6.473 11.265 -5.495 
194 1 1.502 9.007 -5.516 
195 1 -11.318 0.723 8.057 
196 1 -6.735 7.766 11.150 
197 1 -4.436 1.834 9.582 
198 1 -1.133 2.839 -10.125 
199 1 5.372 -1.433 -0.257 
200 1 3.413 -10.468 -7.748 
ITEM: TIMESTEP
14000
ITEM: NUMBER OF ATOMS
200
ITEM: BOX BOUNDS pp pp pp
-11.693307158924013 11.693307158924013
-11.693307158924013 11.693307158924013
-11.693307158924013 11.693307158924013
ITEM: ATOMS id type x y z
1 1 5.839 7.408 1.055 
2 1 2.338 7.163 -0.898 
3 1 3.144 5.844 -5.525 
4 1 -3.356 5.524 7.123 
5 1 -7.878 -2.202 3.495 
6 1 5.261 11.435 6.439 
7 1 3.189 -4.909 4.935 
8 1 3.703 10.378 -9.317 
9 1 5.752 10.395 -0.514 
10 1 -8.979 10.319 -2.480 
11 1 -0.492 -4.776 4.546 
12 1 9.917 -10.993 3.830 
13 1 -10.054 -5.632 -1.570 
14 1 10.358 -7.371 7.244 
15 1 4.342 -0.283 -8.247 
16 1 0.439 11.625 -9.770 
17 1 -2.587 11.582 0.518 
18 1 0.378 -11.660 -4.254 
19 1 -5.211 1.379 2.880 
20 1 -1.772 -0.898 -3.386 
21 1 1.721 -1.394 -10.886 
22 1 -0.354 -9.456 -6.876 
23 1 7.834 6.102 -5.245 
24 1 10.531 8.829 -7.559 
25 1 -11.360 8.509 -10.896 
26 1 6.063 -9.897 -9.572 
27 1 8.802 2.002 1.466 
28 1 -8.970 8.153 -7.421 
29 1 -1.995 3.327 -5.854 
30 1 -6.700 -4.272 7.029 
31 1 -6.983 1.111 0.159 
32 1 2.248 8.803 5.008 
33 1 2.474 2.505 -7.411 
34 1 -11.104 5.320 9.926 
35 1 0.246 -9.665 8.169 
36 1 -11.218 -1.401 -10.614 
37 1 4.899 0.159 10.027 
38 1 -3.721 -9.000 1.887 
39 1 -8.611 4.339 6.587 
40 1 2.039 7.225 11.027 
41 1 -0.520 -7.950 -3.245 
42 1 -8.488 -8.982 -4.704 
43 1 -9.756 -4.421 1.424 
44 1 5.710 3.199 -5.239 
45 1 6.024 -9.654 -5.332 
46 1 -8.363 10.264 8.898 
47 1 -10.530 -5.202 5.516 
48 1 4.638 -9.365 -0.292 
49 1 5.225 -3.060 8.173 
50 1 3.746 6.549 -8.824 
51 1 -2.042 9.227 6.239 
52 1 4.042 6.753 8.017 
53 1 8.139 -4.210 -4.898 
54 1 8.629 10.015 -2.400 
55 1 1.306 -6.611 -8.788 
56 1 -7.536 -1.130 10.955 
57 1 8.081 6.946 4.622 
58 1 9.242 -0.815 -9.504 
59 1 1.857 -8.494 10.949 
60 1 -3.796 1.516 -1.662 
61 1 8.688 10.308 1.531 
62 1 -9.305 -0.837 -5.080 
63 1 5.720 9.148 4.173 
64 1 -9.811 -10.085 -0.156 
65 1 -7.956 3.193 10.596 
66 1 -6.132 -11.066 -2.605 
67 1 7.030 4.691 6.617 
68 1 6.187 2.232 -1.873 
69 1 4.248 -4.457 11.023 
70 1 -5.294 8.345 7.822 
71 1 -11.693 -0.417 1.257 
72 1 9.260 -6.669 0.509 
73 1 -6.469 10.649 0.525 
74 1 -10.561 1.455 -8.480 
75 1 0.098 -8.524 0.478 
76 1 7.617 11.339 11.396 
77 1 -3.226 -5.519 1.515 
78 1 4.635 -6.282 -6.122 
79 1 4.709 -10.954 9.913 
80 1 -11.160 -2.008 4.819 
81 1 -0.306 -0.900 -6.707 
82 1 -6.068 -11.200 6.040 
83 1 -2.495 -10.843 -3.550 
84 1 -7.811 -0.435 7.145 
85 1 -10.421 11.674 -9.791 
86 1 -2.734 -7.629 -5.485 
87 1 -5.591 3.492 -10.050 
88 1 0.907 2.526 -4.523 
89 1 4.187 -3.711 -1.812 
90 1 5.659 7.430 -2.314 
91 1 -10.862 -7.666 2.849 
92 1 1.194 -8.711 4.344 
93 1 -5.825 0.969 -5.267 
94 1 9.343 5.330 -10.866 
95 1 0.715 11.482 -0.585 
96 1 -8.692 2.646 -4.210 
97 1 -7.228 8.222 3.779 
98 1 -11.340 4.623 -5.874 
99 1 -5.095 8.807 -3.004 
100 1 8.336 -0.839 -5.895 
101 1 0.343 5.626 5.812 
102 1 -6.396 -4.436 0.617 
103 1 -10.781 -6.570 -7.603 
104 1 -6.267 8.120 -9.498 
105 1 -4.490 -9.506 10.027 
106 1 7.146 -6.631 -8.878 
107 1 0.501 -4.642 1.019 
108 1 7.466 7.492 -9.062 
109 1 -5.564 5.151 2.636 
110 1 0.830 3.515 8.254 
111 1 0.073 -5.099 8.993 
112 1 7.794 9.309 7.838 
113 1 -10.905 2.626 -11.490 
114 1 4.575 3.138 8.957 
115 1 -5.268 -8.858 -8.037 
116 1 3.932 -6.131 1.087 
117 1 5.961 -3.647 2.731 
118 1 -7.771 -2.918 -2.377 
119 1 9.369 -9.381 -9.818 
120 1 -4.352 -3.529 4.557 
121 1 5.621 4.047 -9.969 
122 1 -6.335 5.222 -6.929 
123 1 -4.116 7.497 0.321 
124 1 2.621 1.414 5.034 
125 1 3.093 -3.454 -5.982 
126 1 -8.341 -5.524 9.678 
127 1 -3.629 1.047 5.970 
128 1 -10.894 11.005 -5.352 
129 1 -4.690 11.209 -8.633 
130 1 9.326 -4.283 -11.595 
131 1 -1.317 -1.269 4.521 
132 1 -10.118 -11.532 5.900 
133 1 6.871 -3.264 -8.980 
134 1 -7.560 -8.164 -10.685 
135 1 9.317 -4.321 4.681 
136 1 -0.674 -0.483 8.901 
137 1 -0.982 4.596 0.176 
138 1 -0.849 8.585 -1.502 
139 1 -1.916 -6.462 11.475 
140 1 1.494 10.972 9.390 
141 1 -3.665 -3.652 -6.376 
142 1 -9.107 1.621 4.460 
143 1 -4.022 -8.061 -2.256 
144 1 -3.166 -10.795 7.287 
145 1 -9.724 8.694 5.783 
146 1 -5.644 -5.881 -4.095 
147 1 -10.073 0.396 -1.831 
148 1 0.859 3.392 2.979 
149 1 -6.693 -2.239 -7.346 
150 1 -2.294 -7.617 7.228 
151 1 1.356 1.809 -1.109 
152 1 11.405 8.785 -0.429 
153 1 2.251 -1.691 5.823 
154 1 -1.624 -10.493 11.511 
155 1 -1.091 6.921 9.547 
156 1 -0.335 5.548 -3.418 
157 1 9.217 3.924 9.451 
158 1 -2.420 -2.532 -11.660 
159 1 -8.846 5.928 -10.226 
160 1 -4.900 -3.049 9.251 
161 1 -7.493 -11.197 11.523 
162 1 3.962 -8.986 6.825 
163 1 -0.556 -5.232 -5.302 
164 1 5.409 7.673 11.256 
165 1 -3.335 7.247 -7.639 
166 1 -5.840 -4.252 -10.684 
167 1 -1.972 3.712 4.317 
168 1 -0.501 8.891 2.926 
169 1 -4.394 -1.323 0.107 
170 1 -9.760 7.174 1.574 
171 1 -0.494 -1.309 1.243 
172 1 3.415 5.726 4.190 
173 1 -4.222 5.481 -2.566 
174 1 -9.976 -6.187 -10.777 
175 1 8.314 -1.821 7.451 
176 1 1.776 2.962 -11.152 
177 1 6.625 10.066 -6.600 
178 1 2.688 -0.243 2.139 
179 1 -7.260 -10.578 3.411 
180 1 -2.712 -3.877 -1.482 
181 1 -11.157 -8.855 10.687 
182 1 -6.197 -7.700 4.696 
183 1 5.842 0.554 3.694 
184 1 -2.667 9.052 -10.284 
185 1 9.193 -0.818 -1.402 
186 1 -2.651 10.007 -6.110 
187 1 -3.923 10.411 10.459 
188 1 6.080 3.784 3.529 
189 1 11.447 6.587 6.281 
190 1 6.453 -6.951 3.229 
191 1 -4.077 10.786 3.296 
192 1 -3.049 0.187 -9.360 
193 1 -6.133 11.405 -5.609 
194 1 0.713 8.442 -5.111 
195 1 -10.502 1.373 8.491 
196 1 -7.465 7.734 10.753 
197 1 -4.964 1.768 9.306 
198 1 -1.298 2.932 -9.249 
199 1 5.778 -0.913 -0.306 
200 1 3.324 -9.420 -7.273 
ITEM: TIMESTEP
15000
ITEM: NUMBER OF ATOMS
200
ITEM: BOX BOUNDS pp pp pp
-11.693307158924013 11.693307158924013
-11.693307158924013 11.693307158924013
-11.693307158924013 11.693307158924013
ITEM: ATOMS id type x y z
1 1 5.509 6.639 0.807 
2 1 1.722 5.584 -1.386 
3 1 3.070 5.148 -4.977 
4 1 -3.143 5.342 7.040 
5 1 -7.621 -1.469 3.222 
6 1 5.319 11.203 6.690 
7 1 3.586 -5.983 5.013 
8 1 4.342 9.757 -10.003 
9 1 6.330 10.656 -0.635 
10 1 -9.101 9.564 -2.215 
11 1 -0.403 -5.244 4.959 
12 1 9.246 -9.603 4.097 
13 1 -9.521 -5.833 -1.981 
14 1 10.562 -8.036 7.159 
15 1 3.699 -0.889 -7.845 
16 1 0.325 -11.470 -9.612 
17 1 -2.601 11.690 0.418 
18 1 1.261 11.111 -4.501 
19 1 -4.703 1.118 3.893 
20 1 -1.667 -0.590 -2.765 
21 1 1.583 -1.763 -11.307 
22 1 -0.422 -9.347 -6.945 
23 1 7.203 6.121 -5.010 
24 1 10.764 8.995 -7.701 
25 1 -11.428 9.131 -10.852 
26 1 6.031 -9.694 -9.442 
27 1 9.981 2.764 2.343 
28 1 -8.771 8.075 -7.223 
29 1 -1.911 3.458 -6.362 
30 1 -6.966 -4.045 7.035 
31 1 -7.308 0.954 -0.002 
32 1 2.781 9.462 5.105 
33 1 2.677 2.629 -7.423 
34 1 -11.410 5.645 10.203 
35 1 0.102 -9.321 8.101 
36 1 -11.167 -0.978 -10.888 
37 1 4.685 -0.390 10.123 
38 1 -4.191 -8.725 2.010 
39 1 -8.577 4.142 6.433 
40 1 2.306 7.660 11.192 
41 1 -0.090 -8.410 -3.673 
42 1 -8.668 -9.141 -4.978 
43 1 -10.193 -4.321 1.662 
44 1 5.883 3.298 -5.389 
45 1 7.111 -9.814 -5.366 
46 1 -8.724 10.824 9.080 
47 1 -10.173 -5.877 6.228 
48 1 5.145 -8.733 -1.284 
49 1 5.240 -3.229 7.848 
50 1 3.032 6.047 -8.467 
51 1 -2.105 8.777 6.042 
52 1 3.966 6.908 8.473 
53 1 8.135 -3.711 -5.417 
54 1 8.719 9.440 -3.910 
55 1 -0.203 -6.365 -8.817 
56 1 -7.176 -2.163 11.406 
57 1 8.954 6.445 4.635 
58 1 9.055 -0.413 -10.054 
59 1 1.966 -8.054 10.957 
60 1 -4.331 1.454 -1.795 
61 1 9.026 10.803 0.882 
62 1 -9.100 -0.722 -5.406 
63 1 6.336 9.453 3.231 
64 1 -10.723 -10.785 0.262 
65 1 -8.008 2.913 11.111 
66 1 -5.840 -10.725 -2.711 
67 1 7.320 5.691 7.606 
68 1 5.317 1.822 -2.267 
69 1 4.760 -5.713 10.528 
70 1 -5.462 8.212 7.545 
71 1 11.153 -0.746 1.040 
72 1 8.970 -6.743 0.875 
73 1 -6.190 10.879 0.253 
74 1 -11.271 1.523 -8.489 
75 1 1.038 -8.291 -0.136 
76 1 7.976 11.179 11.468 
77 1 -3.104 -5.268 1.896 
78 1 4.951 -6.975 -5.482 
79 1 4.994 -10.496 10.466 
80 1 -11.230 -2.367 4.552 
81 1 -1.071 -0.958 -6.582 
82 1 -5.819 -11.214 6.127 
83 1 -2.733 -10.966 -4.010 
84 1 -7.799 -0.884 6.957 
85 1 -10.040 -10.712 -9.961 
86 1 -2.709 -7.121 -5.775 
87 1 -5.059 2.641 -9.613 
88 1 0.328 2.008 -4.727 
89 1 3.619 -4.286 -1.895 
90 1 5.469 7.987 -2.176 
91 1 -10.776 -8.065 2.718 
92 1 0.275 -8.925 4.340 
93 1 -5.339 1.836 -5.809 
94 1 9.310 5.643 -11.074 
95 1 0.691 11.625 -1.138 
96 1 -8.491 3.116 -3.724 
97 1 -6.645 9.054 3.507 
98 1 -11.306 4.898 -6.472 
99 1 -5.053 9.184 -2.561 
100 1 8.662 -0.300 -5.670 
101 1 0.517 5.921 5.502 
102 1 -6.217 -4.327 0.681 
103 1 -9.084 -6.020 -6.783 
104 1 -5.655 8.342 -9.471 
105 1 -4.612 -9.274 9.715 
106 1 6.756 -6.249 -9.716 
107 1 0.583 -4.505 1.198 
108 1 7.271 7.336 -8.380 
109 1 -5.194 5.585 2.360 
110 1 1.547 3.410 8.404 
111 1 0.617 -4.732 9.047 
112 1 9.049 9.685 7.764 
113 1 -11.377 3.647 -10.777 
114 1 5.092 2.905 8.747 
115 1 -5.874 -8.374 -7.867 
116 1 3.863 -5.814 0.987 
117 1 6.256 -3.713 3.268 
118 1 -8.333 -2.694 -2.241 
119 1 9.812 -10.084 -9.662 
120 1 -4.216 -3.409 4.757 
121 1 5.739 3.308 -11.055 
122 1 -6.472 5.417 -6.534 
123 1 -3.338 7.494 0.676 
124 1 2.201 1.159 5.120 
125 1 2.809 -3.261 -5.271 
126 1 -8.304 -5.622 9.453 
127 1 -3.760 0.486 6.748 
128 1 -10.585 11.087 -5.333 
129 1 -4.783 -11.619 -9.409 
130 1 9.770 -4.302 -11.203 
131 1 -1.856 -1.060 4.006 
132 1 -10.168 -11.125 5.608 
133 1 6.958 -2.964 -9.066 
134 1 -7.431 -7.876 -11.204 
135 1 8.748 -5.462 5.200 
136 1 -0.234 0.321 8.410 
137 1 -1.717 4.132 0.428 
138 1 -0.774 8.473 -1.629 
139 1 -2.158 -5.920 11.008 
140 1 1.553 11.342 10.308 
141 1 -3.588 -3.890 -6.740 
142 1 -9.717 2.377 2.782 
143 1 -3.763 -7.848 -1.792 
144 1 -2.532 -11.125 6.316 
145 1 -9.446 8.192 6.510 
146 1 -5.551 -5.216 -3.908 
147 1 -10.734 1.841 -1.172 
148 1 0.568 2.814 2.634 
149 1 -6.502 -2.028 -7.481 
150 1 -2.512 -7.289 7.342 
151 1 2.013 2.025 -1.449 
152 1 11.648 8.389 -0.579 
153 1 2.417 -2.204 5.273 
154 1 -1.781 -10.246 11.295 
155 1 -0.512 7.397 9.848 
156 1 -1.423 5.961 -3.483 
157 1 9.721 3.496 9.337 
158 1 -1.551 -2.575 -11.048 
159 1 -8.235 5.750 -9.977 
160 1 -4.314 -2.663 8.804 
161 1 -7.516 -10.976 11.404 
162 1 3.867 -9.160 7.284 
163 1 -0.633 -3.639 -4.754 
164 1 6.488 7.757 11.585 
165 1 -3.371 6.974 -7.491 
166 1 -5.394 -5.735 -9.856 
167 1 -2.185 4.103 3.982 
168 1 -0.331 9.269 2.762 
169 1 -4.912 -1.445 -0.422 
170 1 -10.327 7.273 2.377 
171 1 -0.333 -0.857 0.508 
172 1 3.536 5.970 3.893 
173 1 -4.881 5.054 -2.929 
174 1 -10.541 -6.700 -10.416 
175 1 9.169 -2.267 7.757 
176 1 1.538 3.959 -11.629 
177 1 5.259 9.662 -5.582 
178 1 2.964 -0.770 1.880 
179 1 -8.073 -10.879 3.103 
180 1 -1.792 -3.753 -1.622 
181 1 -10.342 -8.408 9.316 
182 1 -7.282 -8.092 4.691 
183 1 6.608 -0.214 3.520 
184 1 -2.392 9.120 -11.104 
185 1 8.868 0.682 -1.944 
186 1 -2.872 9.958 -6.271 
187 1 -4.140 10.822 10.022 
188 1 6.619 3.474 3.237 
189 1 11.458 6.079 6.274 
190 1 6.401 -8.268 2.199 
191 1 -3.759 11.198 3.574 
192 1 -2.851 0.227 -10.497 
193 1 -6.502 -11.610 -6.372 
194 1 1.185 7.809 -4.826 
195 1 -10.409 1.140 8.674 
196 1 -7.404 7.238 10.323 
197 1 -5.586 0.920 9.337 
198 1 -1.538 3.482 -9.681 
199 1 5.841 -0.963 -0.248 
200 1 3.061 -9.772 -6.750 
ITEM: TIMESTEP
16000
ITEM: NUMBER OF ATOMS
200
ITEM: BOX BOUNDS pp pp pp
-11.693307158924013 11.693307158924013
-11.693307158924013 11.693307158924013
-11.693307158924013 11.693307158924013
ITEM: ATOMS id type x y z
1 1 5.547 6.057 0.729 
2 1 2.000 5.194 -1.610 
3 1 3.386 4.688 -4.630 
4 1 -3.637 5.271 7.362 
5 1 -7.418 -1.127 3.262 
6 1 5.158 11.537 6.217 
7 1 4.647 -6.174 5.360 
8 1 4.657 10.050 -9.708 
9 1 4.917 10.629 -0.194 
10 1 -8.871 9.647 -2.791 
11 1 -0.259 -4.994 5.392 
12 1 8.615 -9.212 4.671 
13 1 -10.517 -6.055 -2.051 
14 1 9.190 -8.185 7.715 
15 1 3.421 -0.254 -7.701 
16 1 1.093 9.874 -8.582 
17 1 -2.847 -11.596 0.243 
18 1 0.770 11.023 -5.415 
19 1 -4.556 1.359 3.346 
20 1 -1.541 -0.652 -2.953 
21 1 1.802 -2.749 -11.300 
22 1 -0.467 -9.760 -7.192 
23 1 7.946 6.093 -4.952 
24 1 10.283 9.741 -7.587 
25 1 11.528 9.217 -11.351 
26 1 6.103 -9.563 -10.355 
27 1 11.024 2.894 2.113 
28 1 -8.593 8.470 -7.675 
29 1 -2.981 2.990 -6.911 
30 1 -6.314 -4.004 7.225 
31 1 -6.887 0.892 0.229 
32 1 2.317 9.417 6.784 
33 1 2.545 3.162 -7.738 
34 1 11.473 6.047 10.267 
35 1 0.287 -10.034 7.940 
36 1 -10.234 -0.864 -10.571 
37 1 4.612 -0.521 9.999 
38 1 -4.031 -9.393 2.811 
39 1 -8.295 4.125 7.846 
40 1 1.659 8.244 11.515 
41 1 -0.051 -7.819 -3.680 
42 1 -8.923 -9.074 -4.099 
43 1 -9.550 -4.543 1.539 
44 1 5.770 2.863 -5.300 
45 1 6.635 -10.463 -5.152 
46 1 -8.590 11.177 8.535 
47 1 -10.026 -4.769 6.305 
48 1 4.809 -7.813 -1.876 
49 1 5.366 -2.928 7.394 
50 1 3.035 6.570 -8.785 
51 1 -2.275 8.775 6.336 
52 1 4.916 6.545 9.077 
53 1 7.759 -5.009 -5.790 
54 1 8.971 9.988 -4.079 
55 1 -0.167 -6.214 -9.938 
56 1 -6.275 -2.171 11.266 
57 1 8.057 6.593 4.388 
58 1 8.709 0.887 -10.796 
59 1 2.087 -8.178 11.126 
60 1 -5.367 1.127 -2.671 
61 1 9.041 11.572 1.732 
62 1 -8.871 -0.186 -5.316 
63 1 5.838 9.282 3.337 
64 1 -10.857 11.476 0.216 
65 1 -8.000 2.361 11.353 
66 1 -6.033 -10.593 -2.278 
67 1 8.297 5.489 7.699 
68 1 5.609 1.191 -2.544 
69 1 4.835 -6.052 9.831 
70 1 -6.093 9.213 7.182 
71 1 11.207 -1.490 1.048 
72 1 9.094 -6.527 1.098 
73 1 -6.436 10.222 0.420 
74 1 10.780 1.269 -8.226 
75 1 0.233 -7.407 -0.071 
76 1 8.540 11.177 11.040 
77 1 -2.733 -6.164 2.381 
78 1 4.689 -6.901 -5.049 
79 1 5.594 -10.200 9.658 
80 1 11.239 -3.540 3.903 
81 1 -0.948 -0.705 -7.426 
82 1 -6.764 -10.927 6.374 
83 1 -2.420 11.179 -2.822 
84 1 -8.732 -0.480 7.896 
85 1 -9.977 -10.843 -10.452 
86 1 -2.736 -6.814 -5.850 
87 1 -5.880 2.774 -9.308 
88 1 0.659 1.787 -4.338 
89 1 4.100 -4.208 -2.172 
90 1 5.268 8.061 -2.943 
91 1 -10.951 -8.390 3.435 
92 1 -0.652 -8.934 4.121 
93 1 -5.881 1.455 -6.114 
94 1 9.308 5.963 -10.621 
95 1 0.744 -11.595 -1.675 
96 1 -8.518 3.414 -4.194 
97 1 -6.702 8.296 3.513 
98 1 11.521 5.059 -6.236 
99 1 -5.464 9.421 -2.843 
100 1 8.538 -1.798 -5.528 
101 1 0.365 6.129 5.530 
102 1 -5.518 -4.809 0.585 
103 1 -9.481 -5.717 -7.755 
104 1 -5.464 8.459 -9.730 
105 1 -5.341 -10.157 9.633 
106 1 8.383 -6.844 -11.334 
107 1 0.287 -4.411 1.697 
108 1 7.165 7.523 -8.214 
109 1 -5.572 5.175 2.530 
110 1 1.725 4.104 8.331 
111 1 0.314 -5.051 9.234 
112 1 9.412 9.275 7.554 
113 1 -11.413 3.404 -10.979 
114 1 5.854 2.955 7.854 
115 1 -5.873 -8.616 -7.063 
116 1 3.512 -5.576 2.230 
117 1 6.528 -3.485 2.051 
118 1 -8.180 -1.944 -1.360 
119 1 9.787 -10.136 -9.614 
120 1 -4.323 -3.204 4.357 
121 1 6.351 3.901 -11.069 
122 1 -6.248 6.031 -6.161 
123 1 -3.524 7.579 0.849 
124 1 1.761 0.746 4.990 
125 1 3.777 -3.472 -5.815 
126 1 -8.506 -4.230 9.941 
127 1 -4.181 0.281 6.615 
128 1 -10.296 11.083 -6.071 
129 1 -3.726 -11.345 -9.891 
130 1 9.650 -3.895 11.493 
131 1 -1.213 -1.934 3.578 
132 1 -10.785 -11.219 5.638 
133 1 7.791 -2.955 -9.162 
134 1 -6.904 -8.396 -11.483 
135 1 8.387 -5.601 5.361 
136 1 -0.872 -0.285 8.400 
137 1 -1.357 3.964 0.237 
138 1 -0.739 7.852 -1.389 
139 1 -2.138 -6.481 10.899 
140 1 2.509 11.438 9.864 
141 1 -3.705 -3.261 -7.377 
142 1 -8.358 2.588 3.625 
143 1 -3.380 -7.104 -2.330 
144 1 -2.798 -11.342 6.735 
145 1 -9.687 8.265 6.422 
146 1 -5.751 -4.049 -3.695 
147 1 -10.547 1.811 -0.501 
148 1 0.761 2.728 2.728 
149 1 -6.926 -1.855 -8.206 
150 1 -1.922 -7.185 7.469 
151 1 2.346 1.466 -1.548 
152 1 11.350 7.419 -0.703 
153 1 1.965 -2.767 5.331 
154 1 -1.804 -10.055 11.210 
155 1 -1.419 7.325 9.449 
156 1 -1.219 5.905 -4.161 
157 1 9.412 2.888 10.080 
158 1 -2.289 -3.378 -10.491 
159 1 -9.030 4.685 -9.035 
160 1 -3.852 -2.715 9.078 
161 1 -7.451 10.837 11.416 
162 1 3.191 -8.871 7.443 
163 1 -0.546 -3.865 -5.048 
164 1 6.264 8.084 -11.480 
165 1 -2.476 6.798 -7.080 
166 1 -5.573 -5.022 -10.768 
167 1 -2.548 4.016 3.774 
168 1 -0.677 9.235 2.828 
169 1 -3.992 -1.246 -0.137 
170 1 -10.458 7.204 2.398 
171 1 -0.062 -0.195 0.383 
172 1 3.697 6.368 3.515 
173 1 -4.330 5.298 -2.830 
174 1 -11.593 -6.920 -10.404 
175 1 9.327 -2.795 6.969 
176 1 1.974 3.915 11.551 
177 1 4.989 10.011 -5.732 
178 1 3.446 -0.896 1.380 
179 1 -7.862 -11.647 3.374 
180 1 -2.308 -4.108 -1.310 
181 1 -10.456 -8.206 9.588 
182 1 -6.555 -7.349 5.211 
183 1 6.630 0.027 4.162 
184 1 -2.083 9.148 -10.666 
185 1 8.597 0.283 -2.783 
186 1 -2.779 9.979 -6.076 
187 1 -3.709 10.413 9.862 
188 1 7.578 3.785 2.943 
189 1 11.429 6.223 5.484 
190 1 5.711 -9.835 1.787 
191 1 -3.844 11.028 4.015 
192 1 -3.083 -0.012 -10.869 
193 1 -6.654 11.671 -6.183 
194 1 1.651 7.790 -5.363 
195 1 -10.729 1.965 8.377 
196 1 -7.740 7.373 10.145 
197 1 -5.524 0.812 9.837 
198 1 -1.352 4.183 -10.338 
199 1 6.980 -1.579 -0.758 
200 1 2.488 -9.617 -6.458 
ITEM: TIMESTEP
17000
ITEM: NUMBER OF ATOMS
200
ITEM: BOX BOUNDS pp pp pp
-11.693307158924013 11.693307158924013
-11.693307158924013 11.693307158924013
-11.693307158924013 11.693307158924013
ITEM: ATOMS id type x y z
1 1 7.097 5.782 0.845 
2 1 1.261 5.128 -1.253 
3 1 3.260 5.234 -4.848 
4 1 -3.867 5.315 7.729 
5 1 -7.349 -1.777 3.545 
6 1 5.206 -11.306 5.980 
7 1 5.292 -6.289 5.268 
8 1 4.413 10.608 -9.534 
9 1 4.099 9.987 -1.245 
10 1 -8.581 10.277 -2.956 
11 1 -0.322 -6.008 5.455 
12 1 9.358 -9.129 5.039 
13 1 -9.350 -7.235 -0.398 
14 1 8.811 -8.546 8.732 
15 1 2.422 -0.256 -8.544 
16 1 1.411 9.496 -8.541 
17 1 -2.656 -11.632 0.247 
18 1 0.436 11.034 -4.668 
19 1 -4.654 2.140 3.341 
20 1 -1.423 -1.120 -3.741 
21 1 1.621 -3.196 -11.532 
22 1 -1.518 -10.112 -6.884 
23 1 9.071 5.858 -4.430 
24 1 9.984 9.373 -7.159 
25 1 -11.049 8.971 -11.354 
26 1 5.283 -9.685 -9.601 
27 1 11.011 4.294 2.523 
28 1 -7.721 8.915 -7.249 
29 1 -2.619 3.372 -7.422 
30 1 -5.962 -3.715 7.676 
31 1 -6.827 1.096 0.188 
32 1 2.084 10.317 6.317 
33 1 1.931 3.902 -7.471 
34 1 -11.540 6.352 9.855 
35 1 -0.099 -9.988 8.045 
36 1 -9.211 -0.532 -10.212 
37 1 4.812 -0.384 9.683 
38 1 -4.607 -8.244 2.417 
39 1 -8.730 5.005 8.036 
40 1 1.211 8.265 11.031 
41 1 -0.953 -9.031 -3.318 
42 1 -9.400 -9.156 -3.441 
43 1 -10.133 -4.737 2.383 
44 1 6.453 3.143 -5.275 
45 1 6.768 -9.910 -5.510 
46 1 -9.331 10.753 8.532 
47 1 -10.108 -4.932 6.532 
48 1 4.775 -8.382 -2.052 
49 1 4.546 -3.271 7.381 
50 1 3.910 6.453 -8.793 
51 1 -2.122 8.355 6.385 
52 1 4.173 6.570 9.091 
53 1 7.795 -4.941 -6.210 
54 1 7.700 10.105 -3.948 
55 1 0.115 -6.168 -10.217 
56 1 -6.602 -2.127 11.494 
57 1 7.186 7.469 3.799 
58 1 7.653 0.292 -11.513 
59 1 2.173 -8.156 10.539 
60 1 -4.603 1.237 -2.436 
61 1 9.992 10.721 1.518 
62 1 -9.141 -0.150 -5.367 
63 1 5.761 10.722 3.166 
64 1 -10.372 -11.494 -0.238 
65 1 -8.158 2.186 11.055 
66 1 -5.735 -10.637 -1.155 
67 1 8.222 4.606 7.348 
68 1 6.527 1.709 -2.363 
69 1 4.644 -4.877 10.348 
70 1 -5.529 9.753 7.037 
71 1 10.263 -2.752 0.349 
72 1 8.034 -5.492 -0.189 
73 1 -7.087 9.870 -0.013 
74 1 10.486 0.949 -7.934 
75 1 0.393 -6.901 0.894 
76 1 8.105 11.061 9.900 
77 1 -2.308 -5.409 2.977 
78 1 5.124 -6.535 -5.293 
79 1 5.789 -9.886 9.948 
80 1 10.767 -2.893 4.113 
81 1 -0.792 -0.535 -7.849 
82 1 -6.843 -10.828 6.574 
83 1 -2.522 11.317 -3.195 
84 1 -8.161 -0.911 7.636 
85 1 -10.144 -10.418 -10.219 
86 1 -2.730 -7.320 -5.653 
87 1 -6.159 2.415 -8.796 
88 1 0.835 2.167 -4.427 
89 1 3.724 -3.064 -1.920 
90 1 5.570 7.138 -2.657 
91 1 -11.248 -7.893 2.291 
92 1 -1.204 -8.919 3.495 
93 1 -5.866 1.431 -5.521 
94 1 9.393 7.442 -10.556 
95 1 1.054 -11.119 -1.709 
96 1 -9.027 4.322 -4.256 
97 1 -6.241 8.744 3.853 
98 1 -11.480 4.966 -6.757 
99 1 -5.258 8.703 -3.082 
100 1 7.910 -1.278 -5.913 
101 1 0.791 6.497 5.575 
102 1 -5.716 -4.283 1.126 
103 1 -8.960 -5.815 -7.974 
104 1 -5.497 8.055 -10.015 
105 1 -4.791 -9.161 9.183 
106 1 7.503 -7.241 -11.333 
107 1 1.074 -3.349 1.575 
108 1 6.967 8.027 -8.352 
109 1 -5.747 4.784 1.671 
110 1 1.231 3.325 8.499 
111 1 0.918 -5.282 8.418 
112 1 9.692 8.097 8.019 
113 1 -11.419 2.859 -10.955 
114 1 5.099 2.965 7.597 
115 1 -5.519 -8.808 -6.706 
116 1 3.271 -5.937 2.487 
117 1 6.448 -3.409 2.440 
118 1 -7.650 -1.726 -1.441 
119 1 9.715 -9.589 -8.025 
120 1 -3.684 -3.063 5.367 
121 1 6.365 3.951 -10.954 
122 1 -5.521 6.372 -6.278 
123 1 -3.516 7.187 1.017 
124 1 2.454 0.868 5.779 
125 1 4.071 -3.358 -5.953 
126 1 -8.119 -4.801 9.641 
127 1 -3.446 1.700 6.766 
128 1 -10.413 11.433 -6.012 
129 1 -4.095 -11.009 -9.774 
130 1 10.042 -3.825 10.967 
131 1 -0.941 -1.385 3.807 
132 1 -9.998 -10.274 5.845 
133 1 6.554 -2.889 -10.111 
134 1 -7.479 -8.064 -11.143 
135 1 8.911 -6.033 4.763 
136 1 -1.482 -0.195 8.460 
137 1 -1.935 3.327 0.978 
138 1 -1.176 8.238 -1.524 
139 1 -2.571 -5.985 10.844 
140 1 2.891 11.608 9.645 
141 1 -3.799 -3.506 -6.702 
142 1 -8.901 2.228 3.166 
143 1 -3.822 -7.546 -1.671 
144 1 -2.873 -11.465 6.969 
145 1 -9.258 8.792 5.749 
146 1 -5.680 -5.214 -4.250 
147 1 -10.998 1.606 -1.714 
148 1 1.236 2.484 2.637 
149 1 -7.141 -2.547 -8.073 
150 1 -3.479 -6.335 7.589 
151 1 2.410 2.179 -0.992 
152 1 10.328 7.915 -0.820 
153 1 2.421 -2.685 4.923 
154 1 -1.779 -9.766 11.501 
155 1 -1.824 7.354 10.195 
156 1 -0.612 5.596 -4.285 
157 1 9.438 3.452 10.181 
158 1 -2.289 -3.057 -10.373 
159 1 -8.413 5.271 -8.407 
160 1 -3.056 -2.918 9.162 
161 1 -8.090 10.643 -10.951 
162 1 2.951 -8.953 7.354 
163 1 0.536 -3.741 -5.223 
164 1 5.877 7.703 -11.520 
165 1 -2.373 6.727 -7.748 
166 1 -5.449 -5.200 -10.328 
167 1 -3.010 4.598 4.655 
168 1 0.371 9.377 3.377 
169 1 -3.921 -0.522 0.342 
170 1 -10.398 7.111 2.218 
171 1 0.110 -0.523 0.350 
172 1 2.930 6.902 2.761 
173 1 -3.966 4.348 -2.406 
174 1 -11.045 -6.895 -10.324 
175 1 8.907 -3.616 6.921 
176 1 1.835 4.472 -10.815 
177 1 4.762 10.048 -5.286 
178 1 3.814 -0.738 1.938 
179 1 -8.600 -11.330 2.612 
180 1 -1.569 -4.238 -1.547 
181 1 -9.337 -8.450 8.963 
182 1 -7.918 -7.483 5.204 
183 1 8.170 -0.609 3.120 
184 1 -1.992 9.831 -10.192 
185 1 9.435 0.618 -2.583 
186 1 -2.779 10.258 -6.336 
187 1 -4.046 10.103 10.167 
188 1 6.996 3.423 3.101 
189 1 -11.526 5.779 5.996 
190 1 5.518 -9.448 1.933 
191 1 -3.095 11.014 3.436 
192 1 -3.261 0.342 -11.614 
193 1 -6.988 -11.661 -5.875 
194 1 1.600 7.787 -5.653 
195 1 -11.266 2.202 7.913 
196 1 -8.203 6.652 10.938 
197 1 -5.679 0.907 9.686 
198 1 -2.100 4.444 -11.486 
199 1 6.636 -1.728 -0.470 
200 1 2.077 -8.974 -6.206 
ITEM: TIMESTEP
18000
ITEM: NUMBER OF ATOMS
200
ITEM: BOX BOUNDS pp pp pp
-11.693307158924013 11.693307158924013
-11.693307158924013 11.693307158924013
-11.693307158924013 11.693307158924013
ITEM: ATOMS id type x y z
1 1 6.942 5.672 0.911 
2 1 1.520 5.102 -0.441 
3 1 3.235 4.697 -5.128 
4 1 -4.820 5.192 7.774 
5 1 -7.030 -1.942 3.889 
6 1 5.017 -11.526 5.624 
7 1 5.829 -6.961 5.555 
8 1 4.509 10.382 -9.429 
9 1 4.753 9.071 -0.942 
10 1 -7.990 10.740 -2.898 
11 1 -0.475 -6.729 4.699 
12 1 9.848 -9.395 5.184 
13 1 -9.085 -5.768 -1.004 
14 1 8.689 -8.062 8.301 
15 1 2.011 0.527 -8.869 
16 1 1.259 9.997 -8.260 
17 1 -1.442 11.059 0.094 
18 1 1.256 11.289 -4.414 
19 1 -5.187 1.774 3.905 
20 1 -2.174 -1.312 -3.907 
21 1 2.305 -3.605 -10.523 
22 1 -0.858 -9.551 -7.566 
23 1 8.953 5.235 -4.299 
24 1 10.447 9.304 -7.548 
25 1 -11.139 9.743 -10.876 
26 1 4.496 -9.509 -9.470 
27 1 10.989 3.219 2.020 
28 1 -8.498 8.160 -6.591 
29 1 -2.170 2.835 -6.578 
30 1 -6.567 -4.559 7.717 
31 1 -6.994 0.614 1.160 
32 1 1.737 10.174 6.865 
33 1 0.946 5.344 -7.658 
34 1 11.499 6.139 9.820 
35 1 -0.293 -10.595 7.728 
36 1 -9.511 0.338 -9.748 
37 1 4.957 -1.035 9.674 
38 1 -4.713 -8.178 4.024 
39 1 -8.712 5.448 7.973 
40 1 1.258 8.055 10.406 
41 1 -0.750 -9.134 -3.227 
42 1 -7.962 -9.201 -3.556 
43 1 -9.885 -4.470 2.153 
44 1 6.500 2.558 -4.978 
45 1 7.116 -11.061 -4.860 
46 1 -9.845 10.486 8.477 
47 1 -10.755 -4.824 5.562 
48 1 3.629 -7.496 -1.081 
49 1 5.215 -3.164 6.706 
50 1 2.695 7.135 -9.929 
51 1 -1.931 8.369 6.308 
52 1 4.590 6.991 8.603 
53 1 9.455 -4.757 -7.422 
54 1 9.116 9.318 -3.660 
55 1 0.097 -6.661 -10.841 
56 1 -6.850 -1.493 11.219 
57 1 7.475 7.659 4.387 
58 1 7.949 0.659 -11.324 
59 1 2.676 -8.084 11.261 
60 1 -4.721 1.360 -2.075 
61 1 10.382 11.287 1.562 
62 1 -9.608 -0.000 -6.027 
63 1 4.255 10.338 2.780 
64 1 -10.579 -10.549 -0.343 
65 1 -8.416 2.601 11.350 
66 1 -4.616 -11.142 -0.822 
67 1 7.787 4.629 7.078 
68 1 6.544 1.141 -1.973 
69 1 4.886 -5.215 10.759 
70 1 -5.476 8.344 6.818 
71 1 10.371 -2.750 -0.291 
72 1 9.648 -6.145 -0.224 
73 1 -6.756 8.825 0.077 
74 1 10.713 -0.200 -7.188 
75 1 0.269 -7.014 0.751 
76 1 8.031 10.881 9.350 
77 1 -2.603 -5.085 1.610 
78 1 4.783 -6.715 -5.978 
79 1 5.621 -9.891 10.168 
80 1 11.263 -2.357 3.579 
81 1 -1.642 -0.177 -8.041 
82 1 -6.945 -10.675 6.346 
83 1 -2.505 11.297 -3.295 
84 1 -7.741 -0.884 7.061 
85 1 -10.811 -10.352 -9.945 
86 1 -2.453 -6.492 -4.785 
87 1 -5.917 1.972 -9.519 
88 1 1.096 1.874 -4.548 
89 1 3.815 -2.121 -1.856 
90 1 5.794 7.506 -3.532 
91 1 -10.774 -8.214 2.318 
92 1 -0.730 -9.222 2.822 
93 1 -5.509 1.490 -5.631 
94 1 8.903 8.116 -11.215 
95 1 1.745 -11.094 -1.552 
96 1 -8.652 3.860 -5.101 
97 1 -6.195 8.296 3.213 
98 1 11.586 4.232 -6.140 
99 1 -4.976 8.350 -3.764 
100 1 6.998 -0.707 -6.326 
101 1 1.548 6.377 6.459 
102 1 -6.613 -3.341 1.058 
103 1 -8.305 -5.877 -7.199 
104 1 -5.840 7.207 -9.715 
105 1 -5.278 -9.033 9.241 
106 1 7.739 -7.134 -11.158 
107 1 1.915 -3.295 1.846 
108 1 6.919 8.010 -8.591 
109 1 -6.190 4.620 1.991 
110 1 1.930 4.548 9.255 
111 1 0.681 -4.894 7.971 
112 1 8.953 7.556 8.307 
113 1 -11.039 3.434 -9.772 
114 1 4.646 3.406 7.834 
115 1 -5.376 -8.346 -6.684 
116 1 2.876 -6.389 3.066 
117 1 6.467 -3.251 3.446 
118 1 -7.687 -1.290 -1.886 
119 1 10.374 -9.435 -7.003 
120 1 -3.680 -2.469 4.623 
121 1 6.313 4.257 -9.296 
122 1 -5.315 5.482 -6.337 
123 1 -3.192 7.114 2.269 
124 1 1.184 2.339 5.533 
125 1 4.205 -2.888 -6.464 
126 1 -9.360 -4.774 9.255 
127 1 -3.014 0.745 6.036 
128 1 -10.323 10.827 -5.612 
129 1 -3.848 -10.344 -10.053 
130 1 9.804 -4.443 10.692 
131 1 -0.353 -1.092 3.322 
132 1 -10.374 -9.905 5.861 
133 1 6.112 -3.027 -10.544 
134 1 -7.033 -8.282 -11.601 
135 1 8.927 -5.705 4.161 
136 1 -1.060 0.414 9.015 
137 1 -1.474 3.159 2.031 
138 1 -1.769 7.946 -1.504 
139 1 -4.117 -6.228 10.843 
140 1 2.426 11.460 10.298 
141 1 -3.362 -3.551 -6.866 
142 1 -9.422 1.985 3.547 
143 1 -4.056 -7.628 -2.113 
144 1 -3.346 -10.750 6.748 
145 1 -8.895 9.180 5.392 
146 1 -6.112 -4.840 -4.572 
147 1 -10.525 2.709 -1.702 
148 1 1.622 2.213 1.910 
149 1 -6.870 -2.830 -7.854 
150 1 -3.073 -6.361 7.427 
151 1 3.890 2.728 -1.131 
152 1 10.166 8.301 -0.182 
153 1 2.373 -2.093 4.968 
154 1 -1.587 -9.079 10.846 
155 1 -1.695 6.883 9.232 
156 1 -1.546 5.952 -4.119 
157 1 9.346 3.472 9.870 
158 1 -1.785 -2.959 -10.879 
159 1 -8.504 5.203 -8.136 
160 1 -3.548 -3.054 8.984 
161 1 -8.095 10.265 -9.631 
162 1 3.503 -8.903 7.953 
163 1 0.805 -3.322 -4.617 
164 1 6.051 6.556 11.409 
165 1 -2.775 6.014 -8.367 
166 1 -5.894 -5.069 -9.969 
167 1 -3.021 5.540 4.942 
168 1 0.133 9.444 2.355 
169 1 -4.107 -0.675 0.445 
170 1 -9.514 6.467 2.843 
171 1 0.099 -0.383 -0.292 
172 1 3.150 7.280 2.726 
173 1 -4.590 4.715 -2.525 
174 1 -11.672 -6.664 -10.807 
175 1 8.898 -3.955 6.895 
176 1 1.635 3.144 -11.247 
177 1 4.694 9.722 -6.018 
178 1 4.095 -0.651 1.485 
179 1 -8.732 -10.726 2.756 
180 1 -1.772 -4.196 -1.564 
181 1 -10.819 -7.865 8.455 
182 1 -7.817 -7.551 4.908 
183 1 8.322 -0.157 3.954 
184 1 -2.271 9.770 -9.944 
185 1 10.542 0.087 -2.750 
186 1 -3.281 10.768 -6.373 
187 1 -4.271 11.133 10.242 
188 1 7.244 3.532 3.515 
189 1 -11.516 6.245 5.954 
190 1 5.165 -9.386 2.651 
191 1 -3.198 11.420 3.303 
192 1 -3.898 -0.161 -11.655 
193 1 -6.351 11.611 -5.869 
194 1 1.494 8.081 -5.558 
195 1 11.307 2.441 7.266 
196 1 -8.800 6.649 -11.286 
197 1 -5.395 1.026 9.194 
198 1 -3.279 3.962 10.368 
199 1 7.166 -2.019 -0.310 
200 1 2.133 -8.975 -6.522 
ITEM: TIMESTEP
19000
ITEM: NUMBER OF ATOMS
200
ITEM: BOX BOUNDS pp pp pp
-11.693307158924013 11.693307158924013
-11.693307158924013 11.693307158924013
-11.693307158924013 11.693307158924013
ITEM: ATOMS id type x y z
1 1 6.747 6.325 0.979 
2 1 1.767 5.286 -1.076 
3 1 3.392 4.998 -5.339 
4 1 -5.033 5.185 8.002 
5 1 -7.552 -1.965 3.810 
6 1 5.617 -10.876 5.911 
7 1 5.506 -6.552 5.773 
8 1 4.618 10.066 -9.395 
9 1 4.154 8.965 -1.094 
10 1 -8.013 10.557 -2.741 
11 1 -0.130 -6.197 5.288 
12 1 9.983 -10.063 4.852 
13 1 -8.963 -7.447 -1.846 
14 1 8.383 -8.607 8.647 
15 1 1.951 -0.552 -8.037 
16 1 1.187 10.483 -8.815 
17 1 -1.560 11.075 0.030 
18 1 1.179 -10.978 -4.993 
19 1 -5.110 0.998 4.085 
20 1 -2.323 -1.278 -3.695 
21 1 2.295 -2.883 -11.146 
22 1 -1.383 -9.219 -7.749 
23 1 9.574 5.233 -3.948 
24 1 10.583 8.768 -7.865 
25 1 11.683 10.176 -11.003 
26 1 4.833 -9.202 -9.031 
27 1 10.393 4.364 2.424 
28 1 -9.441 7.882 -6.335 
29 1 -2.725 2.567 -6.056 
30 1 -6.293 -5.186 7.698 
31 1 -8.265 -0.290 0.917 
32 1 1.967 10.332 6.838 
33 1 0.689 4.596 -7.079 
34 1 -11.553 6.809 9.304 
35 1 -0.265 -8.952 6.817 
36 1 -10.294 0.687 -8.098 
37 1 4.553 -1.670 9.847 
38 1 -4.460 -8.664 3.433 
39 1 -9.075 5.545 7.714 
40 1 1.429 7.917 10.705 
41 1 -0.935 -8.957 -2.853 
42 1 -7.986 -9.498 -4.464 
43 1 -9.856 -4.005 2.915 
44 1 6.175 2.138 -4.825 
45 1 7.312 -10.096 -5.537 
46 1 -10.755 -10.968 9.337 
47 1 -9.955 -4.468 6.302 
48 1 3.569 -7.254 -1.042 
49 1 4.814 -3.338 6.677 
50 1 3.131 7.105 -9.899 
51 1 -2.418 8.260 5.115 
52 1 5.186 7.337 7.388 
53 1 9.710 -5.590 -7.098 
54 1 9.236 9.935 -3.487 
55 1 0.156 -6.099 -10.525 
56 1 -7.119 -1.981 11.452 
57 1 6.904 8.408 3.616 
58 1 8.678 -0.416 -11.242 
59 1 2.309 -7.642 11.014 
60 1 -5.094 1.175 -1.682 
61 1 9.620 11.347 1.724 
62 1 -9.958 0.957 -4.544 
63 1 5.587 10.541 1.769 
64 1 -10.162 -10.986 -0.458 
65 1 -8.582 2.463 10.871 
66 1 -5.047 11.225 -0.822 
67 1 8.413 6.075 5.666 
68 1 7.430 0.647 -1.286 
69 1 4.605 -5.025 10.765 
70 1 -5.214 8.171 6.732 
71 1 10.927 -2.271 -0.035 
72 1 10.262 -5.228 -1.761 
73 1 -7.229 8.238 -0.437 
74 1 10.317 -0.494 -6.457 
75 1 0.734 -7.757 -0.125 
76 1 7.890 11.024 9.923 
77 1 -3.005 -5.272 2.822 
78 1 5.034 -6.282 -5.717 
79 1 5.863 -10.106 11.106 
80 1 10.646 -2.361 4.566 
81 1 -1.543 -0.202 -8.709 
82 1 -5.993 -10.741 5.668 
83 1 -4.077 -10.028 -4.035 
84 1 -8.515 -0.823 8.113 
85 1 -10.312 -9.326 -10.125 
86 1 -1.991 -6.569 -5.341 
87 1 -6.171 2.372 -8.904 
88 1 0.690 1.476 -4.960 
89 1 3.606 -2.418 -3.093 
90 1 6.139 6.926 -3.768 
91 1 -11.160 -7.951 2.245 
92 1 0.002 -9.581 2.482 
93 1 -6.596 1.778 -4.693 
94 1 8.963 8.323 -11.487 
95 1 1.423 -11.623 -1.882 
96 1 -8.681 4.554 -4.945 
97 1 -6.397 8.726 2.680 
98 1 11.388 4.084 -6.312 
99 1 -4.220 8.050 -3.022 
100 1 6.979 -0.312 -7.478 
101 1 0.974 6.316 5.366 
102 1 -6.889 -3.957 0.743 
103 1 -7.869 -5.645 -7.266 
104 1 -5.847 7.054 -9.248 
105 1 -5.150 -9.487 9.654 
106 1 7.625 -7.050 -10.944 
107 1 2.027 -3.499 0.627 
108 1 6.347 7.345 -8.234 
109 1 -6.597 4.878 0.601 
110 1 1.358 4.800 9.056 
111 1 0.275 -4.575 8.022 
112 1 8.693 7.092 8.908 
113 1 -11.255 3.648 -10.023 
114 1 5.337 2.560 8.260 
115 1 -5.122 -8.164 -6.739 
116 1 3.834 -6.304 2.703 
117 1 7.098 -4.244 3.109 
118 1 -8.100 -1.965 -1.961 
119 1 10.059 -9.886 -8.329 
120 1 -4.107 -2.659 4.599 
121 1 6.225 3.760 -9.216 
122 1 -5.031 5.274 -6.368 
123 1 -2.875 7.894 1.793 
124 1 1.146 2.118 5.413 
125 1 5.035 -2.732 -6.969 
126 1 -8.391 -4.920 10.780 
127 1 -2.517 1.382 6.513 
128 1 -10.974 10.829 -4.993 
129 1 -5.237 -10.053 -9.468 
130 1 9.487 -3.954 11.118 
131 1 -0.914 -2.150 3.454 
132 1 -10.001 -10.166 6.062 
133 1 6.487 -3.207 -10.329 
134 1 -7.686 -8.104 -11.533 
135 1 9.485 -5.841 5.060 
136 1 -0.857 1.247 9.799 
137 1 -1.910 3.293 2.094 
138 1 -1.390 8.047 -1.713 
139 1 -3.471 -6.462 11.272 
140 1 2.442 11.591 10.627 
141 1 -2.448 -3.699 -7.011 
142 1 -8.767 1.940 3.979 
143 1 -4.016 -7.320 -1.394 
144 1 -2.851 -10.977 6.659 
145 1 -8.411 9.214 5.483 
146 1 -6.863 -4.919 -4.041 
147 1 -10.896 1.944 -1.307 
148 1 1.751 2.114 1.357 
149 1 -6.436 -2.861 -7.628 
150 1 -3.061 -7.179 7.786 
151 1 4.383 2.244 -0.888 
152 1 10.088 8.110 -0.828 
153 1 2.098 -1.397 5.161 
154 1 -1.658 -9.656 11.187 
155 1 -2.169 7.503 9.317 
156 1 -1.416 5.588 -4.272 
157 1 9.031 3.897 9.933 
158 1 -1.244 -2.282 11.377 
159 1 -8.317 4.881 -8.236 
160 1 -3.375 -3.154 8.200 
161 1 -8.248 10.676 -10.056 
162 1 3.345 -8.997 7.889 
163 1 1.140 -3.493 -5.291 
164 1 5.685 6.792 11.266 
165 1 -2.566 6.560 -9.164 
166 1 -5.671 -5.847 -9.477 
167 1 -2.811 4.780 5.319 
168 1 0.763 8.435 2.609 
169 1 -3.713 -1.317 1.092 
170 1 -9.498 6.234 2.883 
171 1 -0.253 -0.592 -0.094 
172 1 2.470 5.077 2.581 
173 1 -4.089 4.828 -2.174 
174 1 -11.385 -5.805 -10.913 
175 1 8.044 -3.822 7.167 
176 1 2.790 3.785 -11.177 
177 1 5.004 10.244 -6.144 
178 1 3.673 -0.506 1.021 
179 1 -8.934 11.394 3.455 
180 1 -0.690 -4.339 -1.834 
181 1 -11.010 -7.566 7.999 
182 1 -8.018 -6.959 4.471 
183 1 8.154 0.076 4.439 
184 1 -1.509 9.466 -10.840 
185 1 10.671 -1.406 -3.181 
186 1 -2.460 10.858 -6.449 
187 1 -3.433 10.464 9.327 
188 1 6.253 3.826 3.192 
189 1 -11.119 6.395 5.644 
190 1 5.730 -8.861 2.334 
191 1 -3.620 11.038 3.054 
192 1 -3.811 0.329 -11.610 
193 1 -5.978 10.511 -5.637 
194 1 0.698 8.560 -5.125 
195 1 11.386 2.953 6.806 
196 1 -8.180 6.657 11.309 
197 1 -5.327 1.232 9.202 
198 1 -2.778 4.203 10.148 
199 1 7.114 -3.017 0.175 
200 1 2.047 -8.218 -7.121 
ITEM: TIMESTEP
20000
ITEM: NUMBER OF ATOMS
200
ITEM: BOX BOUNDS pp pp pp
-11.693307158924013 11.693307158924013
-11.693307158924013 11.693307158924013
-11.693307158924013 11.693307158924013
ITEM: ATOMS id type x y z
1 1 6.675 6.290 1.345 
2 1 1.214 5.573 -0.748 
3 1 3.009 4.155 -3.877 
4 1 -5.099 4.036 8.023 
5 1 -7.846 -1.348 4.363 
6 1 4.808 -11.139 4.962 
7 1 5.268 -6.929 6.146 
8 1 4.292 9.588 -9.710 
9 1 3.571 8.626 -1.006 
10 1 -8.088 11.101 -2.502 
11 1 0.305 -6.979 5.105 
12 1 9.821 -10.151 5.609 
13 1 -8.666 -6.845 -1.876 
14 1 8.014 -8.853 8.928 
15 1 1.727 -1.059 -7.524 
16 1 1.194 10.669 -8.003 
17 1 -1.257 11.077 0.620 
18 1 0.909 -10.936 -4.711 
19 1 -4.955 0.125 4.203 
20 1 -2.281 -0.708 -3.413 
21 1 1.835 -2.202 -10.535 
22 1 -1.755 -9.340 -7.281 
23 1 10.173 5.481 -2.919 
24 1 10.634 8.964 -7.211 
25 1 -10.454 9.695 11.397 
26 1 5.273 -8.574 -9.345 
27 1 10.525 4.694 3.160 
28 1 -9.977 7.559 -6.847 
29 1 -2.381 2.353 -5.218 
30 1 -7.240 -5.817 7.465 
31 1 -7.874 -0.133 1.254 
32 1 1.468 10.780 6.069 
33 1 1.079 5.125 -7.666 
34 1 -11.610 6.582 10.170 
35 1 -0.156 -9.626 7.816 
36 1 -10.186 0.948 -8.175 
37 1 4.559 -1.443 9.828 
38 1 -5.788 -8.690 2.598 
39 1 -8.412 5.476 7.635 
40 1 2.020 7.601 9.638 
41 1 -1.663 -9.832 -2.421 
42 1 -7.528 -9.655 -4.221 
43 1 -10.223 -3.545 1.828 
44 1 6.915 1.973 -3.925 
45 1 8.696 -10.311 -5.080 
46 1 -11.475 -10.286 8.860 
47 1 -9.874 -4.324 6.190 
48 1 3.791 -5.588 -1.263 
49 1 3.894 -3.948 6.929 
50 1 2.047 7.331 -10.002 
51 1 -2.758 8.051 4.552 
52 1 4.408 7.457 6.730 
53 1 9.699 -5.848 -6.511 
54 1 8.025 10.347 -3.009 
55 1 0.224 -6.154 -10.350 
56 1 -6.804 -1.242 -11.004 
57 1 8.018 8.172 3.651 
58 1 8.814 -0.518 11.676 
59 1 3.125 -8.336 11.374 
60 1 -5.448 1.210 -1.309 
61 1 9.793 -10.729 1.519 
62 1 -10.185 0.799 -4.841 
63 1 5.345 10.012 2.385 
64 1 -9.548 -10.726 0.150 
65 1 -8.422 1.984 10.491 
66 1 -4.540 11.399 -1.246 
67 1 8.885 6.468 6.349 
68 1 8.277 0.982 -0.995 
69 1 4.654 -5.191 10.237 
70 1 -5.608 7.990 7.141 
71 1 11.243 -0.985 1.014 
72 1 10.517 -5.393 -1.942 
73 1 -7.334 8.218 -0.889 
74 1 10.642 -0.633 -6.897 
75 1 0.464 -7.875 0.190 
76 1 8.038 11.353 9.689 
77 1 -3.412 -5.773 3.272 
78 1 5.708 -6.220 -5.152 
79 1 4.944 -11.048 11.439 
80 1 10.338 -2.522 4.090 
81 1 -1.205 0.130 -8.936 
82 1 -6.519 -10.504 5.864 
83 1 -3.789 -10.280 -4.908 
84 1 -8.482 -1.377 8.323 
85 1 -10.245 -10.301 -10.312 
86 1 -1.678 -6.396 -5.361 
87 1 -5.792 2.828 -9.422 
88 1 1.227 1.725 -5.696 
89 1 4.132 -1.874 -3.619 
90 1 5.965 5.938 -3.296 
91 1 -10.053 -7.478 1.372 
92 1 0.487 -9.951 2.597 
93 1 -6.321 2.231 -4.425 
94 1 9.538 9.369 -10.951 
95 1 1.407 -11.653 -1.648 
96 1 -8.406 4.505 -5.205 
97 1 -6.014 8.242 3.810 
98 1 11.142 3.707 -6.015 
99 1 -4.421 7.669 -3.764 
100 1 6.817 0.020 -6.852 
101 1 0.939 6.055 5.756 
102 1 -5.496 -4.145 -0.066 
103 1 -8.719 -6.428 -6.054 
104 1 -6.343 7.160 -8.808 
105 1 -5.405 -10.084 9.158 
106 1 7.183 -6.767 11.520 
107 1 2.070 -3.146 1.188 
108 1 5.139 6.077 -8.088 
109 1 -6.301 4.912 0.537 
110 1 0.305 4.914 9.025 
111 1 -0.070 -5.258 9.378 
112 1 7.633 7.511 8.971 
113 1 11.171 4.277 -10.229 
114 1 5.317 2.917 8.037 
115 1 -5.560 -8.364 -6.726 
116 1 3.620 -6.055 2.406 
117 1 6.577 -3.936 3.964 
118 1 -7.916 -1.689 -2.190 
119 1 9.829 -9.747 -8.060 
120 1 -3.535 -2.843 5.075 
121 1 6.092 3.158 -10.544 
122 1 -4.525 4.664 -6.905 
123 1 -3.773 8.309 1.098 
124 1 0.469 1.337 4.871 
125 1 4.961 -2.880 -7.293 
126 1 -7.140 -5.131 11.059 
127 1 -2.597 1.722 7.282 
128 1 -11.161 11.084 -4.527 
129 1 -5.056 -10.417 -9.390 
130 1 8.697 -3.809 10.886 
131 1 -0.958 -2.782 2.081 
132 1 -9.964 -10.194 5.427 
133 1 5.807 -2.986 -10.268 
134 1 -7.922 -8.408 11.514 
135 1 9.434 -6.627 5.525 
136 1 -0.550 0.786 9.833 
137 1 -2.568 3.540 1.622 
138 1 -1.717 7.536 -1.627 
139 1 -3.418 -6.169 11.386 
140 1 1.666 -11.366 -11.628 
141 1 -1.355 -3.597 -7.793 
142 1 -9.193 2.548 3.373 
143 1 -4.533 -7.111 -1.843 
144 1 -2.888 11.277 6.497 
145 1 -9.062 9.792 6.748 
146 1 -6.525 -4.779 -3.775 
147 1 -10.073 1.775 -0.430 
148 1 2.095 1.956 1.916 
149 1 -6.848 -2.826 -7.784 
150 1 -3.925 -7.664 7.612 
151 1 3.926 2.259 -1.055 
152 1 10.508 8.126 0.224 
153 1 1.491 -2.543 5.068 
154 1 -1.407 -9.377 11.174 
155 1 -2.059 7.541 9.404 
156 1 -1.362 5.802 -4.859 
157 1 8.829 3.441 10.350 
158 1 -1.099 -2.074 11.661 
159 1 -8.791 4.230 -8.551 
160 1 -2.932 -4.078 8.522 
161 1 -7.773 10.441 -8.332 
162 1 3.308 -8.961 8.124 
163 1 2.324 -4.150 -5.894 
164 1 4.972 7.325 11.579 
165 1 -2.794 6.162 -9.397 
166 1 -5.855 -5.804 -9.203 
167 1 -2.857 4.729 5.292 
168 1 0.372 8.874 2.121 
169 1 -3.271 -0.863 0.776 
170 1 -9.366 7.073 1.890 
171 1 0.504 0.127 -0.677 
172 1 1.468 5.362 2.673 
173 1 -3.726 4.800 -2.203 
174 1 -11.123 -4.910 -11.100 
175 1 7.928 -3.480 6.925 
176 1 2.712 3.930 -10.665 
177 1 5.528 10.333 -6.029 
178 1 4.179 -0.562 1.039 
179 1 -9.130 11.076 2.655 
180 1 -0.657 -4.796 -1.393 
181 1 11.213 -6.888 8.760 
182 1 -8.585 -6.985 4.309 
183 1 7.394 0.701 5.167 
184 1 -2.057 10.023 -10.336 
185 1 10.900 -1.781 -2.591 
186 1 -2.737 9.928 -6.920 
187 1 -4.196 9.923 9.883 
188 1 7.347 3.066 2.856 
189 1 -11.478 6.875 5.452 
190 1 6.194 -9.362 2.422 
191 1 -3.819 11.230 3.006 
192 1 -3.339 1.137 -11.322 
193 1 -6.285 9.944 -5.466 
194 1 1.216 8.730 -5.054 
195 1 11.549 3.076 7.283 
196 1 -7.902 6.544 11.595 
197 1 -5.188 0.454 8.959 
198 1 -2.435 4.422 10.540 
199 1 7.013 -3.193 0.518 
200 1 1.317 -7.927 -7.623 
