LAMMPS data file via write_data, version 29 Aug 2024, timestep = 10000, units = metal

500 atoms
1 atom types

-0.011453904422401351 20.261453904422314 xlo xhi
-0.011453904422401351 20.261453904422314 ylo yhi
-0.011453904422401351 20.261453904422314 zlo zhi

Masses

1 26.9815385

Atoms # atomic

1 1 0.058505191832183286 20.15474916066151 20.24268922292724 0 -1 -1
2 1 1.9280430810165785 1.7912558472614963 -0.005971649138334811 0 0 0
3 1 2.0241527877318832 0.13882516034844034 2.010443326228698 0 0 0
4 1 20.21469267248732 1.929276697729562 1.9928470145353074 -1 0 0
5 1 4.094271018934751 0.12300736864283247 20.119323222910058 0 0 -1
6 1 6.125523320214895 1.9424011913597896 0.06434312999571824 0 0 0
7 1 6.081919803289723 20.149338943862432 1.8786458791923346 0 -1 0
8 1 4.11322186097598 2.0978023942384416 1.866449113021059 0 0 0
9 1 7.9211307512322255 0.050260859007011056 20.170839636830536 0 0 -1
10 1 10.119822860801953 1.9236618061475375 20.260139078910026 0 0 -1
11 1 10.149616678476292 0.12539121072409368 2.005950377409421 0 0 0
12 1 8.096953365739333 2.021116018171704 1.8225322763237064 0 0 0
13 1 12.138600340768992 20.213416795374922 0.08593276070611193 0 -1 0
14 1 14.183760535634867 1.9690703101689202 0.012980758069407914 0 0 0
15 1 14.337887147021052 20.14826775147673 2.0590401497240567 0 -1 0
16 1 12.265068240284315 1.9133528516375087 2.0271031028730095 0 0 0
17 1 16.093124943105177 20.194188138116797 20.162423432761706 0 -1 -1
18 1 18.440668909202792 1.9455674416545654 20.167826322102794 0 0 -1
19 1 18.03512669439745 0.05747778475889419 2.080282501397159 0 0 0
20 1 16.34386834638759 2.1199319146375943 1.9785750471505068 0 0 0
21 1 0.11948473229199752 4.096679986734175 0.1369168162369976 0 0 0
22 1 2.1190428665558474 6.267391630010801 0.10491904175854262 0 0 0
23 1 2.14684205935532 4.029162183854395 2.1607744814702787 0 0 0
24 1 0.15839764026593087 6.174819530092019 2.1245778518756637 0 0 0
25 1 4.037352264212108 3.996154818364344 20.195076339927212 0 0 -1
26 1 6.0413334707844975 6.2453258252339525 20.095540214370445 0 0 -1
27 1 6.013794515166467 3.977193320778556 1.9924837090323548 0 0 0
28 1 4.055330536832806 6.090902947413643 2.069735817368995 0 0 0
29 1 8.02951559434224 4.170724342827261 20.132716868845115 0 0 -1
30 1 10.278893549856004 6.057261534183853 0.06592342416035915 0 0 0
31 1 10.171957601005996 3.9491482944280683 1.9354676418454642 0 0 0
32 1 8.077892458273572 5.997932639000294 2.0368431556943487 0 0 0
33 1 12.319151987381812 4.031553365085203 0.044500276193971386 0 0 0
34 1 14.244080464140684 6.05568206660795 20.214892338195728 0 0 -1
35 1 14.183242773662263 3.977947964526558 1.976735373099907 0 0 0
36 1 12.11462784276939 6.015204812669708 1.9151513490731373 0 0 0
37 1 16.160184696238456 4.173050455616941 20.239395901319277 0 0 -1
38 1 18.33311819427741 6.028312084970221 0.031870440772003364 0 0 0
39 1 18.249780208448012 4.03193455050865 1.9881800663833247 0 0 0
40 1 16.24892607645064 6.194435945902056 1.9721976552337703 0 0 0
41 1 -0.01068171964392738 8.128555545413878 0.097122663274378 0 0 0
42 1 2.051060545538224 10.201775119917226 20.104478569895285 0 0 -1
43 1 2.0553554537075525 8.22757569165453 2.211589328589351 0 0 0
44 1 20.248742733869765 10.243100728351143 2.139437637389356 -1 0 0
45 1 3.9690214577523495 8.162964770472023 20.157816248976122 0 0 -1
46 1 5.8578942658216775 10.135196097315305 0.0430729165973176 0 0 0
47 1 6.0570599359341335 8.178210230749544 1.9428207148586882 0 0 0
48 1 3.9046992989423495 10.118364668500163 1.9987871383279183 0 0 0
49 1 8.16789005381066 8.030143603906302 0.0017159284473464709 0 0 0
50 1 9.882692135570945 10.253852792904345 0.06248357679519461 0 0 0
51 1 10.172734111866244 8.147125535511373 2.0664135971480437 0 0 0
52 1 7.918429756126173 10.09755010399669 2.1249239396123154 0 0 0
53 1 12.041329584557557 8.110996346420349 -0.008688147596613995 0 0 0
54 1 14.045102855415918 10.111401227069134 0.0258634346327417 0 0 0
55 1 14.223048642487244 8.162606334065064 1.995455350075067 0 0 0
56 1 11.923067583219904 10.012856302017651 2.135721116710539 0 0 0
57 1 16.16771494129477 8.167530661411774 0.06157155393533122 0 0 0
58 1 18.389011658424778 10.160133757103189 20.125960582863346 0 0 -1
59 1 18.224665448723393 8.140816495198141 2.0587106250010976 0 0 0
60 1 16.34163493429352 10.100041861701905 1.881003777905335 0 0 0
61 1 20.106267498635567 12.126211885670042 0.026123416627594764 -1 0 0
62 1 2.0145655967999145 14.170423068293086 0.27402681523739875 0 0 0
63 1 2.006382944893736 12.011015647080203 2.071910648929249 0 0 0
64 1 0.009781495432033438 14.171940218768661 2.0135672764963912 0 0 0
65 1 3.9812188989056283 12.076013852644957 0.04738489479104187 0 0 0
66 1 6.058906212680158 14.032073358110114 0.13473019693975988 0 0 0
67 1 5.9407999067511374 12.005932593463116 1.954491784939972 0 0 0
68 1 4.134599630486092 14.173655422147274 2.1944463686802584 0 0 0
69 1 8.062142772872916 12.125385244477773 -0.001773364348526293 0 0 0
70 1 10.295046192534821 14.235551808212525 0.028169004436956482 0 0 0
71 1 10.126678895630791 12.26154781936184 2.034795275436625 0 0 0
72 1 8.02650437707321 14.20103254308368 2.1085706748640956 0 0 0
73 1 12.165240433149814 12.109514234460017 0.04142974976006327 0 0 0
74 1 14.236871658156794 14.117065037157673 0.012120266617174025 0 0 0
75 1 14.026840814578149 12.021625892340863 2.0435881238217015 0 0 0
76 1 12.169581529433948 14.231100092731621 2.194020728932019 0 0 0
77 1 16.396368909324043 12.117086125620014 20.074698116358814 0 0 -1
78 1 18.10719962167354 14.202084939727813 0.07051449852087158 0 0 0
79 1 18.28024511754645 12.024213564084839 1.9516531556312773 0 0 0
80 1 16.159448498752443 14.117143850541465 1.9868006210953653 0 0 0
81 1 20.12275052865546 16.241327869490846 20.252996976806386 -1 0 -1
82 1 2.1383694428737114 18.29748595980428 20.242584632803723 0 0 -1
83 1 2.0014896346482853 16.268367754469107 2.100451769414722 0 0 0
84 1 20.21315272841361 18.436012928702628 1.9390918082685697 -1 0 0
85 1 3.9946211915184824 16.229665023283744 0.019932858051763702 0 0 0
86 1 6.069321392328847 18.170932572187727 20.251443653628336 0 0 -1
87 1 6.040517442742945 16.056491617273345 2.1061273734701325 0 0 0
88 1 4.002967921184861 18.226855246041904 1.8632275011843868 0 0 0
89 1 8.132457981570703 16.09883386864186 0.11065095726083995 0 0 0
90 1 10.16191431098015 18.263428176431532 20.037853057329166 0 0 -1
91 1 10.161125391797505 16.181548715153664 2.0372620991604435 0 0 0
92 1 8.296045695545976 18.237205985327137 1.9897961378425861 0 0 0
93 1 12.299603135982911 16.17461903764115 20.134056932178922 0 0 -1
94 1 14.090877904720097 18.12292047760985 0.010036553534250942 0 0 0
95 1 14.162513280741408 16.337761559543196 1.9885611467596553 0 0 0
96 1 12.020168754928543 18.22202756365722 2.041237962463007 0 0 0
97 1 16.193076029333334 16.450048906534096 20.229120912272833 0 0 -1
98 1 18.149646215892695 18.368337715561875 0.013850239720280655 0 0 0
99 1 18.169999950984014 16.124796364049317 2.0299211574663913 0 0 0
100 1 16.217031556280546 18.294166438327863 2.1268137498951467 0 0 0
101 1 20.198978361671195 0.0366683969021833 4.156890766435208 -1 0 0
102 1 2.269760407505353 2.096021527704206 3.996677688916877 0 0 0
103 1 2.1091105999200788 0.1883176098733086 5.901714168121623 0 0 0
104 1 20.17249681853458 2.1320140556246296 6.131441090370367 -1 0 0
105 1 4.102066420510907 0.044161998576193184 4.029900705813087 0 0 0
106 1 6.315710663021818 1.8942901284630118 3.825451498699306 0 0 0
107 1 6.236737057002632 0.047785626675937935 6.027857264017063 0 0 0
108 1 4.064218026828042 2.1046332598481143 6.035093792737841 0 0 0
109 1 8.158370297591095 0.004247512997139324 3.842398398839281 0 0 0
110 1 10.188996948532266 1.893725789965873 3.9433933353808097 0 0 0
111 1 9.991081236387446 0.24281807822043802 6.200637678958363 0 0 0
112 1 8.060660192229179 2.0738433122583335 5.956683766951509 0 0 0
113 1 11.992876098010452 20.191814618770834 4.043157822293288 0 -1 0
114 1 14.241985468780884 2.0089799948296276 3.9633193513338716 0 0 0
115 1 13.976035247043537 0.14988569445846187 5.999695323027634 0 0 0
116 1 12.019158379783752 2.036178495297776 5.9780643107879445 0 0 0
117 1 16.235960832512685 20.21792051594166 4.15642319191673 0 -1 0
118 1 18.348965247652572 2.0382789780670882 4.0126202307017635 0 0 0
119 1 18.21804656783178 20.18408055084928 6.137421658957869 0 -1 0
120 1 16.19530578757548 2.1829224742825803 5.958744546155107 0 0 0
121 1 20.244314906786197 3.983006716454641 3.823140908804269 -1 0 0
122 1 2.0737985192825463 6.059018076174199 4.10383461333121 0 0 0
123 1 1.9317552819620216 3.9564134141957292 6.076965442035508 0 0 0
124 1 -0.00267074505804743 6.053363295597685 5.911413998328731 0 0 0
125 1 4.211846140936453 4.162013304782413 4.203516740590059 0 0 0
126 1 6.187639467601602 6.168388609907692 4.018037223216269 0 0 0
127 1 6.272516472805653 4.067388550478697 5.993087543774724 0 0 0
128 1 4.008760449266739 5.951080858314997 6.200998703135158 0 0 0
129 1 7.96780207701298 3.9754442893516893 3.854143811082601 0 0 0
130 1 10.172186712577497 6.0364514781085665 4.009525124904747 0 0 0
131 1 10.134207011151702 4.1100478213547245 6.084024974507693 0 0 0
132 1 8.114453009386205 6.018987024099378 6.050425549400616 0 0 0
133 1 12.255719541451539 3.949564193037431 3.9417309691666933 0 0 0
134 1 14.025377381774327 6.085324279211814 3.9950208445711803 0 0 0
135 1 14.130781031986519 3.969349699821342 5.982490515918419 0 0 0
136 1 12.193447094732083 6.104189324960485 5.964617689632132 0 0 0
137 1 16.23210507911105 4.074547167875614 4.00481519735537 0 0 0
138 1 18.170115579699118 6.058182980453929 3.970167915456968 0 0 0
139 1 18.288373749153646 4.067821073692393 6.055662599974591 0 0 0
140 1 16.07170874225953 5.922507690751197 6.112322086040411 0 0 0
141 1 20.202104979401334 8.014072209315145 4.125626452714458 -1 0 0
142 1 2.07479390308365 10.029900547407843 4.163138455271672 0 0 0
143 1 1.8869716633819325 8.09242271092215 6.172074742379107 0 0 0
144 1 20.13685787912664 9.944282418120915 6.2604336855097715 -1 0 0
145 1 4.125862250325712 7.953514893489912 4.124340545041765 0 0 0
146 1 5.922418531715285 10.066064194903088 4.006096770500925 0 0 0
147 1 6.039711374423501 7.9871453946756015 6.105764649241663 0 0 0
148 1 3.9937121147275443 10.022250863675405 6.028648927976605 0 0 0
149 1 8.031128423133978 8.123552164297879 4.024657226590693 0 0 0
150 1 10.093819329227525 10.205616375458026 4.1549853263032395 0 0 0
151 1 10.182882614983486 8.115642081278356 6.019269234606373 0 0 0
152 1 7.997296644094302 10.03937753181342 6.100233684330092 0 0 0
153 1 12.059356991087329 8.145846932159772 4.169737009481276 0 0 0
154 1 14.26026199671019 10.05602194995952 3.978047526354419 0 0 0
155 1 14.181536729898928 8.039825233944866 5.947645384402446 0 0 0
156 1 12.093511711231642 10.099365501583112 6.164802073905634 0 0 0
157 1 16.090644565583975 8.06035096227719 4.062344925578073 0 0 0
158 1 18.193104645703233 10.091531045357016 4.154335379205432 0 0 0
159 1 18.090659752694943 7.9819755004978905 5.981687678013439 0 0 0
160 1 16.029347753552997 10.14017795043854 6.022373656845846 0 0 0
161 1 0.02304650098850312 12.093739705798805 4.155073697051947 0 0 0
162 1 1.9438749227314807 14.036850903104394 4.186103177317242 0 0 0
163 1 1.9050626167053577 12.077591560227493 6.151215215327679 0 0 0
164 1 20.094080322279453 14.216598282953468 5.9792884948487135 -1 0 0
165 1 4.054896933884334 12.17108733298661 4.110173975468363 0 0 0
166 1 6.01968708311923 14.188516956542292 4.109455517875938 0 0 0
167 1 5.869927520722091 12.154451487005405 5.9255901523354595 0 0 0
168 1 3.840319152840932 14.339480326274119 6.033144270556788 0 0 0
169 1 8.092908921895834 12.141749136869793 4.071003855618405 0 0 0
170 1 10.029023146199401 14.292900042815948 4.1655511383701205 0 0 0
171 1 10.018609154941862 12.262509220249369 6.168654844054792 0 0 0
172 1 7.890225750590136 14.174656314369129 6.200039619639432 0 0 0
173 1 12.139204072986871 12.213172465194221 4.175403121017676 0 0 0
174 1 13.97969727529672 14.242679191713124 3.978629263443033 0 0 0
175 1 14.120645063217383 12.271699752367857 6.10799670791431 0 0 0
176 1 12.07525640134518 14.2452648263741 6.25807092906171 0 0 0
177 1 16.188428003661752 12.093069357215738 4.095931342174295 0 0 0
178 1 18.205145683289018 14.090899608290524 3.8282977513674115 0 0 0
179 1 18.157100301427224 12.148366843476246 6.12006799197099 0 0 0
180 1 16.02572984880673 14.045934121452483 6.08296610310534 0 0 0
181 1 -0.006975960995823982 16.275921182403714 3.900539107587184 0 0 0
182 1 1.957122326185396 18.490852634528416 3.8578007563101147 0 0 0
183 1 1.9867504044489623 16.324741558356227 6.151754649023802 0 0 0
184 1 0.09916933323302012 18.365580313776704 5.996083103128365 0 0 0
185 1 4.0402802999891625 16.188094775892974 4.000327862116714 0 0 0
186 1 6.015577104298169 18.213913960953512 3.96893031797678 0 0 0
187 1 5.809852031145388 16.2644781634232 6.042674135208293 0 0 0
188 1 4.107449177305363 18.388626922669566 6.058207477217106 0 0 0
189 1 7.983665129563305 16.2000404164887 4.121707961698395 0 0 0
190 1 10.092038674915086 18.080196950464995 4.096629273309554 0 0 0
191 1 10.192032720949095 16.243442480883555 6.194700025645363 0 0 0
192 1 8.065702878665157 18.30920033115277 6.009612335314146 0 0 0
193 1 12.145574550806678 16.27111979565396 4.177473260014133 0 0 0
194 1 14.043406834384081 18.250292761958242 4.16494697311376 0 0 0
195 1 14.264656146312204 16.268165926148686 6.111655157561327 0 0 0
196 1 11.925223504494234 18.48324423600556 6.135490078462631 0 0 0
197 1 16.076965312887282 16.07593731312019 3.8451936876595982 0 0 0
198 1 18.23063175655346 18.23970062515405 4.02836130429969 0 0 0
199 1 18.223592250231615 16.279604432833374 5.906027312799408 0 0 0
200 1 16.23290104665167 18.31798952925283 6.031134935276698 0 0 0
201 1 0.09354964226165628 20.222230255706283 7.9481765095196915 0 -1 0
202 1 2.030125364880585 1.9527963744226926 8.119042976447355 0 0 0
203 1 2.107460411524335 20.043074156910325 10.123272743309975 0 -1 0
204 1 -0.005374870200650814 2.1323201196232637 9.922079720736559 0 0 0
205 1 4.1272907814256605 20.180802419986684 8.130991994896105 0 -1 0
206 1 6.058807224095913 2.137455312672708 8.117997235256183 0 0 0
207 1 5.889340968333606 20.19447291677786 10.183035179314034 0 -1 0
208 1 3.95871907511866 1.9597830300138221 10.032241070479378 0 0 0
209 1 8.116686894859056 0.0156548789558841 8.162104003719469 0 0 0
210 1 10.165565097584652 2.171127990950946 8.180567398564863 0 0 0
211 1 10.021153033425202 20.2536344377381 10.150263219537775 0 -1 0
212 1 8.09301758854864 1.9130651722909633 10.181740981115917 0 0 0
213 1 12.136724060108284 0.10008784991647261 8.103041335815846 0 0 0
214 1 14.309394714417108 1.877543347642202 8.016076921577477 0 0 0
215 1 14.074094006930952 0.00859456032054276 10.02738821350914 0 0 0
216 1 12.269582156786287 2.026003388651593 10.172925169886524 0 0 0
217 1 16.284791454493078 0.023935380795880905 8.043689786166853 0 0 0
218 1 18.18657934464166 2.166363753402612 8.15645108534813 0 0 0
219 1 18.29574424449649 20.24237225350606 9.9941562108892 0 -1 0
220 1 16.336440902625437 1.9311187600467445 10.18336398738554 0 0 0
221 1 20.255965163106122 4.1853096695593175 8.042377314072155 -1 0 0
222 1 2.117071429301124 6.035564155766539 8.02173971872244 0 0 0
223 1 2.1907114717681817 3.9372091855610045 10.109938010689197 0 0 0
224 1 20.231634631341226 5.982828293472645 10.258941303769948 -1 0 0
225 1 3.9987451330193546 4.211782171489433 8.08502828615198 0 0 0
226 1 6.1808995620313345 6.045157658527248 8.025955466889632 0 0 0
227 1 6.16219446841003 3.98154278173395 10.116882805374214 0 0 0
228 1 4.213124684572236 6.202436509292253 10.048640136949276 0 0 0
229 1 8.282433719982718 4.113426843070291 8.076395332105168 0 0 0
230 1 10.236561754038409 6.201545309165397 8.018644392117462 0 0 0
231 1 10.274070899265826 4.094179777482065 10.229386726033338 0 0 0
232 1 8.31029180057258 6.1802269476681575 10.113401220974634 0 0 0
233 1 12.280424828855429 4.052215923144951 8.2169578333778 0 0 0
234 1 14.177715471351698 6.130739633268734 8.049925279281714 0 0 0
235 1 14.33360821621978 4.122095687815261 9.980591035425094 0 0 0
236 1 12.305881192452164 6.056933022841333 10.195985624754433 0 0 0
237 1 16.22989988849171 4.06886626586509 8.197183679216407 0 0 0
238 1 18.218119342422778 6.171939057737813 8.078247653182736 0 0 0
239 1 18.214478847265898 3.9253566234884416 10.023180128266343 0 0 0
240 1 16.32844673235192 6.074306583385396 10.124479649344673 0 0 0
241 1 20.14861081048015 8.141668945005264 8.230872723597 -1 0 0
242 1 1.889240476730156 10.173501743384147 8.232754066783432 0 0 0
243 1 1.9156743047578932 8.005426676314693 10.09116930357416 0 0 0
244 1 20.171240734092635 10.227835066074853 10.253544070052785 -1 0 0
245 1 4.059102324787073 8.050057052700597 8.071799270475333 0 0 0
246 1 5.88248695126997 10.044097328282856 8.179661495187263 0 0 0
247 1 6.073041393068046 8.204723815107053 10.093889864488752 0 0 0
248 1 3.961362973302347 9.960590499936197 10.170895471153475 0 0 0
249 1 8.207819538197377 7.910810953683503 7.9688117013223785 0 0 0
250 1 9.991426169269277 10.007705385010329 7.976781274253717 0 0 0
251 1 10.284461783775065 8.06468547166485 10.000001100856961 0 0 0
252 1 8.140744726534564 10.16783558377087 10.01718012594493 0 0 0
253 1 12.277103853096976 8.073517792914197 7.993314550693827 0 0 0
254 1 14.108413379372521 10.143808917052862 8.10486094638596 0 0 0
255 1 14.12468645386693 8.152213884702372 10.270657857294369 0 0 0
256 1 12.17627092371963 10.107380317627513 10.190519389998938 0 0 0
257 1 16.089604558166066 8.140495343724309 8.103585222999218 0 0 0
258 1 18.114509179093144 10.247512043331227 8.239423282001953 0 0 0
259 1 18.175691580074606 7.981948416028425 10.306928290797675 0 0 0
260 1 16.06621076819769 10.053742688504288 10.265453013696268 0 0 0
261 1 20.18967524754333 12.176967016571266 8.231030668588877 -1 0 0
262 1 1.9803159910621677 14.14388398417006 8.124601841286763 0 0 0
263 1 2.011992598035378 12.17179648646716 10.143449591339818 0 0 0
264 1 20.184068162048682 14.301987885430409 10.064248194509338 -1 0 0
265 1 3.9386835539837324 12.199068491503473 8.146750129297319 0 0 0
266 1 6.066477510079103 14.006488262733477 8.062227603014342 0 0 0
267 1 5.982882639996676 12.078191095931912 10.209822577433352 0 0 0
268 1 4.008455225434647 14.272867983096319 10.161688923495344 0 0 0
269 1 7.948676932573346 12.05618496419232 7.972476249716193 0 0 0
270 1 9.911315360094902 14.169062031721408 8.087031985612937 0 0 0
271 1 10.234508466048196 12.160402198151123 10.139304010703928 0 0 0
272 1 8.059998003615295 14.18536890294963 10.232066843999114 0 0 0
273 1 12.131621542243424 12.118530250766497 7.95532920050373 0 0 0
274 1 14.114674103793108 14.102859490922116 8.175693920362345 0 0 0
275 1 13.930528659109799 12.201320791282653 10.236339524924263 0 0 0
276 1 12.047753282622121 14.135186693813326 10.042926323556147 0 0 0
277 1 16.105855036833955 12.033119703646225 8.292819849874158 0 0 0
278 1 18.106088420523655 14.195367038192872 8.094678637906187 0 0 0
279 1 18.17419293994544 12.203727773446943 10.20882086055892 0 0 0
280 1 16.19805792307731 14.359245226792419 10.093812381827812 0 0 0
281 1 0.0638016396493839 16.20128676065572 8.083918076600924 0 0 0
282 1 2.021544851762033 18.19585288594761 8.16983101813956 0 0 0
283 1 1.8189788330257357 16.259510788267782 10.17056226153647 0 0 0
284 1 20.070428053937228 18.14471382479714 10.094785086932475 -1 0 0
285 1 4.085335464080249 16.125776136879125 8.123263271877834 0 0 0
286 1 6.130387576215233 18.095287397345203 7.9414135505853425 0 0 0
287 1 5.939175040551422 16.188479775769437 9.946148823147198 0 0 0
288 1 3.9740772212806914 18.035179952360497 10.069330058437448 0 0 0
289 1 8.169054294497222 16.337227021958384 7.975880883967034 0 0 0
290 1 9.978598228672626 18.296226126722537 8.164125623389802 0 0 0
291 1 10.031096794792 16.197078873618057 10.04234108432464 0 0 0
292 1 8.028135330977449 18.142254216552125 10.128338950445695 0 0 0
293 1 12.286246455263043 16.395145314833908 8.259759564916077 0 0 0
294 1 14.10769115611101 18.40515211925504 8.070140400868068 0 0 0
295 1 14.303195724856847 16.237818495924202 10.166731406214552 0 0 0
296 1 12.118764277364269 18.36892753532119 10.182801790311174 0 0 0
297 1 16.190990507801395 16.292138792471125 8.014214420626601 0 0 0
298 1 18.206495274670154 18.177206371484832 8.171976555475922 0 0 0
299 1 18.295527081082426 16.174039705917256 10.234139803608095 0 0 0
300 1 16.174654150609584 18.26815607129769 10.199137514977048 0 0 0
301 1 0.05179284486279556 -0.0016290794457383129 11.94871156559018 0 0 0
302 1 2.074677312066767 2.036797485079383 12.037041181319367 0 0 0
303 1 1.9486083571762731 0.08959041269412948 14.2742510312584 0 0 0
304 1 20.24061863552143 2.089318867973225 14.251569390488884 -1 0 0
305 1 3.853530079020829 20.145634989921092 12.256028236167404 0 -1 0
306 1 5.91611287412102 1.8971487610567719 12.105997906751082 0 0 0
307 1 6.146665474801074 0.07694734488764465 14.183577691917208 0 0 0
308 1 4.047246302066437 1.9223968555920188 13.985339185343623 0 0 0
309 1 8.181491129307341 20.234166800368698 12.160401377201437 0 -1 0
310 1 9.964021943629492 2.000522166309187 12.142716808390709 0 0 0
311 1 10.2789907337119 20.177488384993353 14.236098058956703 0 -1 0
312 1 8.198478007326889 1.8805427566203896 14.23767779293472 0 0 0
313 1 12.152682990835618 0.041059351949166364 12.024946436060866 0 0 0
314 1 14.28647519443341 1.9777379580817573 12.109988494967645 0 0 0
315 1 14.096247767431276 0.01349418717336703 14.069921859697283 0 0 0
316 1 12.15263404963559 1.7610144623635902 14.24587919222121 0 0 0
317 1 16.225394308327314 20.14907644312697 12.246486993963128 0 -1 0
318 1 18.429271571354267 1.9284959051158952 11.988016767573567 0 0 0
319 1 18.209666644347628 20.242017369471323 14.198536849913323 0 -1 0
320 1 16.30485380802874 1.9104428729304934 14.148907091221465 0 0 0
321 1 0.13876405185104893 4.056625838303676 12.012253403181587 0 0 0
322 1 2.1675894197152896 6.022969997430292 12.100347978142185 0 0 0
323 1 2.06257782059584 4.156711581216078 13.98813138915797 0 0 0
324 1 0.1231591779103274 6.037992533564795 14.021315900306089 0 0 0
325 1 4.131534469956872 4.091759800878924 12.14508990348268 0 0 0
326 1 6.122465904263918 6.209689359267834 12.072958822192493 0 0 0
327 1 6.268637556183536 4.08164857490041 14.149824005738012 0 0 0
328 1 4.233416654015031 6.020731346121109 14.18886685129222 0 0 0
329 1 8.044540501057753 4.090676725125934 12.148305045746607 0 0 0
330 1 10.05161406050622 5.967278932561372 12.21779852606638 0 0 0
331 1 10.13374221276539 3.9734165893965088 14.150449808188622 0 0 0
332 1 8.107342070662392 5.978898652853811 14.133345082302244 0 0 0
333 1 12.248716084246945 3.919025130476953 12.169618848009643 0 0 0
334 1 14.069599763297997 5.903159354776681 12.19354875170092 0 0 0
335 1 14.261295994969323 4.107887689109543 14.246733336596622 0 0 0
336 1 12.181425653560321 5.90238358798995 14.19171160711813 0 0 0
337 1 16.30374273849808 3.9420242373568675 12.149098874038003 0 0 0
338 1 18.196170619236973 6.132705204778339 12.275549512331182 0 0 0
339 1 18.30276671850494 3.9677583540237555 14.04153555079068 0 0 0
340 1 16.35063877896206 6.1364321761256235 14.29132194169129 0 0 0
341 1 20.23033271305659 8.156435599668946 12.170620120160747 -1 0 0
342 1 2.0886754094377173 10.197029267031033 12.03697355094634 0 0 0
343 1 1.842921635963648 8.143402381119508 14.16755395301121 0 0 0
344 1 20.227247131599096 10.352520716868016 13.880798110096084 -1 0 0
345 1 4.099897540089885 7.962663213041425 12.211960462267742 0 0 0
346 1 6.217103132931219 10.01485097165411 12.134997963051061 0 0 0
347 1 6.217340989708054 8.173527701456061 14.146891440974887 0 0 0
348 1 4.044156367144549 10.001632162462913 14.150437654076262 0 0 0
349 1 8.324627783536457 8.332695690267181 12.127445955494709 0 0 0
350 1 10.280972854482076 10.114941865316297 12.200863153347274 0 0 0
351 1 10.109283238999383 8.159777102437735 14.182069322957952 0 0 0
352 1 8.153899101582594 10.287531681170803 14.23061129071283 0 0 0
353 1 12.135449871276348 7.9359964896537045 12.19314514573233 0 0 0
354 1 14.09325133588163 10.015890373650924 12.320319309266418 0 0 0
355 1 14.14612554228776 7.991073989597747 14.008453001691317 0 0 0
356 1 12.254380182842018 10.075358170966657 14.262527752871154 0 0 0
357 1 16.16145817698454 8.097066801742422 12.264986542585248 0 0 0
358 1 18.068048851636437 10.041939702661567 12.091039039584043 0 0 0
359 1 18.296400344785404 7.997750207477257 14.31767070415181 0 0 0
360 1 16.18985712131331 10.046830636542945 14.209993396734673 0 0 0
361 1 0.03881548416223365 12.507886134096841 12.057911260812274 0 0 0
362 1 2.129623334654415 14.324267783863263 12.214076796846273 0 0 0
363 1 2.0673797560838123 11.957447741548501 14.158729826012861 0 0 0
364 1 0.12969224176237804 14.28232066854456 14.301033146828628 0 0 0
365 1 4.0755351276120315 12.169405071910191 12.0506901265906 0 0 0
366 1 6.145661909927989 14.065777643573895 12.092934995806147 0 0 0
367 1 5.931613922499559 12.038463078437983 14.094974387854997 0 0 0
368 1 4.022526429220079 14.098485333207687 14.16893351417519 0 0 0
369 1 8.088611554419872 11.961707878775394 12.130114866979953 0 0 0
370 1 10.042273485305008 14.237052803643362 12.163274283690203 0 0 0
371 1 10.066915708908299 12.261784359730717 14.15372403915344 0 0 0
372 1 8.157730256611707 14.200109704657912 14.203194088462316 0 0 0
373 1 12.231818842554825 11.998901064139073 12.27869708493137 0 0 0
374 1 14.261224360653769 14.07101324228018 12.159696391999109 0 0 0
375 1 14.28262471249801 12.140124431975314 14.307081945966512 0 0 0
376 1 12.15678593450342 14.060635218488432 14.11445648725906 0 0 0
377 1 16.07200456076882 12.118411301821475 12.212738172492259 0 0 0
378 1 18.074497613055726 14.206323713720852 12.2590270354204 0 0 0
379 1 18.225605776374458 12.303392460530386 14.228588932728417 0 0 0
380 1 16.106494640720747 14.116092042048814 14.434710157411976 0 0 0
381 1 20.228466079593673 16.168944765810597 12.162032283304576 -1 0 0
382 1 1.9853283287167292 18.132422795516888 12.353874486141954 0 0 0
383 1 2.1460706642641107 16.21107026357487 14.304745821385781 0 0 0
384 1 20.168969183621137 18.225798735236967 14.032601377673128 -1 0 0
385 1 4.050105413603259 16.178375337770444 12.074409178940899 0 0 0
386 1 6.072840039364423 18.285798503288518 12.104674357100201 0 0 0
387 1 5.956238018549025 16.1271947331407 14.180971026766446 0 0 0
388 1 4.116970047321139 18.388087163161945 14.235549988332057 0 0 0
389 1 7.8985322857353815 16.172311162743643 12.029841702140473 0 0 0
390 1 10.260932415895441 18.14004202513511 12.165473157199132 0 0 0
391 1 10.11542010733187 16.226404264763335 14.164367700089556 0 0 0
392 1 8.189731676347693 18.201588675521865 14.130371714284523 0 0 0
393 1 12.105531065177004 16.137312443110332 12.148304529970536 0 0 0
394 1 14.113549726747172 18.256755206695843 12.06759435943282 0 0 0
395 1 14.181665548696811 16.02816595869369 14.191129565157445 0 0 0
396 1 12.236467039241772 18.274618548195217 14.131693253353966 0 0 0
397 1 16.158918845164134 16.151373418114346 12.022304534959792 0 0 0
398 1 18.202336501443348 18.307126390458784 12.225783781105703 0 0 0
399 1 18.13093498121622 16.26346783793498 14.120583940314155 0 0 0
400 1 16.111040710956313 18.156595638040887 14.182955065286603 0 0 0
401 1 -0.00853362010022695 20.180890358600074 16.209356595094594 0 -1 0
402 1 2.2099148781385773 2.1499463952647453 15.998198677168297 0 0 0
403 1 2.047107874223453 0.1628818601107247 18.05373034887261 0 0 0
404 1 20.24330047260446 2.044170814001053 18.124127634310362 -1 0 0
405 1 4.0966667162982535 0.12303572399845686 16.099412136902213 0 0 0
406 1 6.185895601700909 2.145924858208334 16.1458309220843 0 0 0
407 1 6.148884216891815 0.19362386994548536 18.08396735869479 0 0 0
408 1 3.991903875867012 2.1260985111187187 18.125117675642528 0 0 0
409 1 8.071462989823267 0.034681783469298295 16.233540845615313 0 0 0
410 1 10.257723458157786 2.0613673974952005 16.31815351134988 0 0 0
411 1 9.94626998006564 0.08137553152835508 18.175703503945385 0 0 0
412 1 7.9915778523567855 2.1405891550926848 18.328731637158857 0 0 0
413 1 12.277505300853141 20.179285857413053 16.216109457916577 0 -1 0
414 1 14.054806524949312 2.0201349317390576 16.35021453178063 0 0 0
415 1 14.225368504584697 0.008697466796192543 18.151134012260524 0 0 0
416 1 12.065237665393898 1.8766483320870426 18.310821492370433 0 0 0
417 1 16.113952764284104 20.244084944408645 16.00309805260555 0 -1 0
418 1 18.16394805149353 2.0080576408352315 16.162681121027255 0 0 0
419 1 18.204972074774552 0.028105354545871666 18.09473506068165 0 0 0
420 1 16.134481969858776 2.0449814721231006 18.300655520681538 0 0 0
421 1 0.1044057033488447 3.983852190399436 16.239348043761186 0 0 0
422 1 2.1197661544015727 6.074193149401214 16.187252904985456 0 0 0
423 1 2.086428000022242 4.099867909922244 18.20525174242462 0 0 0
424 1 0.05702231840933938 6.053915564527639 18.356007852223605 0 0 0
425 1 4.197852402917108 4.090597487045862 16.14824327033044 0 0 0
426 1 6.26214603445312 6.158581465770023 16.379897740842377 0 0 0
427 1 6.055440449377808 4.151906513726594 18.452786910190643 0 0 0
428 1 4.149536642410085 6.163226525277061 18.33492161558683 0 0 0
429 1 8.275070705398603 4.140697551827216 16.28556094051298 0 0 0
430 1 10.461103567911467 6.056735905552307 16.104372448755015 0 0 0
431 1 10.06811645851949 4.081331238060824 18.320749182712735 0 0 0
432 1 8.156884313664301 6.0981508401014475 18.07887963438409 0 0 0
433 1 12.146359707762246 4.006771166172609 16.247371296114366 0 0 0
434 1 14.269828300006523 6.057860836214669 16.169865973859224 0 0 0
435 1 14.061924272394418 3.9560340533314475 18.275159538969383 0 0 0
436 1 12.074642584289613 6.067244097128432 18.281600805957233 0 0 0
437 1 16.14223057221384 3.9502623370345433 16.38745577902009 0 0 0
438 1 18.327961432324518 5.909942050658103 16.159555534647147 0 0 0
439 1 18.297868704722404 4.057763444927776 18.32274770713952 0 0 0
440 1 16.293440826036882 6.104694360391457 18.194737310568996 0 0 0
441 1 0.24213832271339292 8.141697436337342 16.253131743647234 0 0 0
442 1 2.084433292436561 10.086573622194543 16.39135504767267 0 0 0
443 1 1.9621574199097636 8.007487910685379 18.242387655189862 0 0 0
444 1 20.23322153708097 10.038102655707743 18.174187726339262 -1 0 0
445 1 4.183356484723844 7.9352918642245776 16.205946696280265 0 0 0
446 1 6.265938600413372 10.16598175786107 16.137974748897562 0 0 0
447 1 6.039589752264187 8.252915512004085 18.27844030746219 0 0 0
448 1 3.9068653097959216 10.196104436845289 18.261111615159734 0 0 0
449 1 8.230104832448498 8.010978318025122 16.100639652000247 0 0 0
450 1 10.107075009299473 10.098396204886072 16.374713495722578 0 0 0
451 1 10.082178826505832 8.082217430669969 18.184619141905873 0 0 0
452 1 8.041768025005089 10.071299251993409 18.284812885357955 0 0 0
453 1 12.364194782668005 8.078087236189528 16.30793141350481 0 0 0
454 1 14.212481557551287 10.153999092606243 16.332392654711416 0 0 0
455 1 14.036933443098253 8.142078281987986 18.33920361720539 0 0 0
456 1 12.088972817344521 10.214116909756264 18.363041753362317 0 0 0
457 1 16.20553192792174 8.033535592840353 16.280908567854265 0 0 0
458 1 18.265714031629873 10.042183173726889 16.184979948886557 0 0 0
459 1 18.256485897733235 7.972099989957549 18.2680598754573 0 0 0
460 1 16.151190563672667 10.044346659219745 18.240468092076984 0 0 0
461 1 0.04572538000101185 12.017710527369525 16.0734815626625 0 0 0
462 1 2.127661875152115 14.330720931517506 16.413384144218146 0 0 0
463 1 1.902281539990262 12.1766255044587 18.205103333257405 0 0 0
464 1 20.233237940723864 14.040346649030656 18.398240726892883 -1 0 0
465 1 4.061708295718707 12.111417308754499 16.307799715973864 0 0 0
466 1 6.050242687204142 14.035174360022722 16.220226826692414 0 0 0
467 1 6.118408426225285 11.962752872594166 18.32354470409517 0 0 0
468 1 4.179591876294442 14.120173579608876 18.332939144392235 0 0 0
469 1 8.224358841609217 12.316932612972401 16.12242192644543 0 0 0
470 1 10.076233789959677 14.110097852533888 16.173795411758935 0 0 0
471 1 10.041237116077097 12.215489473993832 18.36230499920221 0 0 0
472 1 7.883350966007566 14.238898087089865 18.41698750569238 0 0 0
473 1 11.975134995069302 12.120876396598558 16.211124861613886 0 0 0
474 1 14.087029468088346 14.28531431004389 16.27439285375467 0 0 0
475 1 14.278254184237195 12.076876345522457 18.276520324441215 0 0 0
476 1 12.096916676854837 14.230556958149837 18.119804412615423 0 0 0
477 1 16.22383607227223 12.1403334380851 16.239808753129836 0 0 0
478 1 18.33933603484586 14.228277583556912 16.21875557746811 0 0 0
479 1 18.350266592251398 12.124968972774884 18.106182343318338 0 0 0
480 1 16.234931727168348 14.342225568259224 18.11787116212886 0 0 0
481 1 0.0054193207382482456 16.212137353884263 16.103323628187994 0 0 0
482 1 1.8819107182796244 18.33459505142112 16.054651752772617 0 0 0
483 1 2.193203729109076 16.16272925807867 18.244302683286065 0 0 0
484 1 0.08927452219304066 18.10580879004364 18.179621324688352 0 0 0
485 1 4.144046382182806 16.14041865890135 16.31425823870207 0 0 0
486 1 6.2623507490865995 18.143028297672835 15.992282736521398 0 0 0
487 1 6.051813695329772 16.356766688735885 18.243322503344487 0 0 0
488 1 4.1540526670393465 18.45629457012593 18.273336584194727 0 0 0
489 1 7.936852884357218 16.085459749456234 16.340540078528807 0 0 0
490 1 10.13217554102823 18.32490667322673 16.23591416894396 0 0 0
491 1 10.066951770931206 16.20429341305823 18.1862344461105 0 0 0
492 1 7.9852478184220805 18.184289884907844 18.29630580931631 0 0 0
493 1 11.937572897906518 16.17177844525386 16.119051740352667 0 0 0
494 1 14.212315614769478 18.187112585908075 16.217128975958996 0 0 0
495 1 14.311332966252833 16.209126774459037 18.067596585337995 0 0 0
496 1 12.279166375241832 18.10077014714531 18.117289107525526 0 0 0
497 1 16.28216704648141 16.290494444088228 16.131745003007186 0 0 0
498 1 18.300388153207734 18.34874281545671 16.12850049150554 0 0 0
499 1 18.316225525436046 16.089839494483428 18.184508082675347 0 0 0
500 1 16.195149029700413 18.36605533199673 18.19819644369162 0 0 0

Velocities

1 -3.504173578393715 -4.285626399912234 0.7912370636116295
2 0.5320624905376357 -3.8363632797997327 5.961168755025838
3 -2.757119101499879 2.098165962753437 -1.8029109669596803
4 -4.2355858062412794 -1.9858859250091707 1.9247818636758316
5 -0.5895458277018025 -0.9621835856522223 -2.298892719143538
6 1.588659553034611 -3.2019875962349773 -2.5457966813945956
7 0.871865632409516 -1.1864105249095813 2.7178247784227305
8 -1.8841446995865194 -2.4482576767062594 -4.210238902420414
9 -0.6719344376740355 -2.660751459867983 -2.16791024992592
10 4.11814087819659 2.6014612450928145 -2.5187437482540465
11 -1.582648538812189 -2.211470569127466 -0.30308978147493393
12 -1.6009230357526838 1.7998518839518436 -3.0350037899294953
13 3.2662498531565 -6.9165752361571755 1.9441944114945984
14 -2.0841469590682244 -8.533838098443612 0.24513376999028721
15 0.0803659759560666 2.246777047788982 0.6113973874247438
16 2.247165881474521 3.917684150920883 3.311129898260388
17 -0.42651413092984913 -1.2935466540380949 -0.0027498523579243678
18 1.7628970062929366 -1.825211219959572 4.454145150531081
19 -3.8634162994285246 1.524295162852166 -2.7603088757990593
20 -3.558177737486598 -1.244620265467974 1.6928201223431627
21 2.6141680352558163 -1.8241451367722803 -3.8461656572516136
22 0.4977532860316656 3.208246159889661 0.20961163430561186
23 -3.069186527203266 -0.2571878233137 -4.8505714152800605
24 -2.244931315843554 2.3771070835611896 0.5882691367320294
25 1.9992032889684632 -1.593463555439824 4.5304862554812075
26 0.06992279241715778 5.257680695430969 3.5093003917082934
27 1.560012439943276 -3.190181019575944 2.137534226412835
28 1.8908008659687838 2.1667736485900515 5.095028303992187
29 0.07202559133359433 2.3149222884133596 0.2833099615244265
30 7.615138116308773 -0.8678492015824968 -2.6353467893842906
31 1.5654475325311745 -5.402051572708717 -1.890475090643735
32 -3.5068342584351053 1.4608263454880046 -2.373357541586708
33 1.391233660653309 -2.0774841489538804 -3.566985988471445
34 0.8468824136048447 -2.293412932436478 -4.144391465340006
35 -5.799483440566901 1.6976284028571897 1.3552202152239583
36 2.757646102663687 1.292327958946939 -4.201875212983068
37 -0.5667773557775511 0.44509275588102565 0.056519283581824835
38 -2.5212125717523075 1.3186474438695248 -4.404898077031297
39 -3.0197727246704473 0.06272877904582694 1.13838640464491
40 0.18173494216494063 -0.8972671395220119 3.9566748189605727
41 0.7650468563307556 0.6991499156473218 -2.237365170562957
42 -0.7693943516374274 5.7424298914792535 -1.9823205113090683
43 0.06759816114716669 1.933619425601578 1.9844138754068006
44 2.941403092794183 2.5999042429234236 3.458031832312433
45 3.1965781179705264 -0.7349913805245865 -1.7043724111763536
46 -2.9941107599257712 -3.207294743620454 3.023952475492752
47 2.4172928899988135 -1.5727029946056441 -2.745706061765693
48 5.659078739488083 3.298430583621361 -1.8384224737975954
49 1.0673882703436115 -0.022431414936476903 1.228111392942927
50 2.189903495491486 -4.112024353463256 3.847617280442716
51 -0.28572174623781965 0.4108009430552568 6.191888295624191
52 4.554023536503895 1.7481471092348513 3.2597521845555715
53 -6.500292632012205 2.5764244616343017 -0.6743331127661448
54 -4.568364754020489 1.0230990612988746 -2.6994529363341333
55 -1.2163009513603065 3.1193695716288996 -0.15280121810652017
56 1.5890499784026715 -6.521305084120074 -2.765472289770474
57 -0.7036673614526526 -2.2285585407000466 0.5557143885308421
58 -2.841518142072807 1.2459030818183847 -3.2849856847289725
59 -5.416665753838445 -2.051000594207801 3.9010095927639785
60 -0.6288353539203484 1.2486195745709283 4.958973658168489
61 3.133763301015702 2.8509920129351487 1.7522921415327863
62 -1.7564236524095176 -0.6494762117227131 8.153512592467065
63 3.4781208727613637 -3.464735021601829 -2.6041437962252387
64 1.3869537124198377 8.36357520943504 2.417425532830167
65 -2.455507756908231 1.351460995780053 -2.1835187733041543
66 -1.3680777065599266 -0.24420605370667403 -1.6778711167060367
67 4.160521361546044 2.9744006167337953 3.584016181269944
68 -0.662139944337053 0.23106530133230446 3.544905392723441
69 4.221413166950875 -2.0474187290988217 -0.7841364407462875
70 -1.972217743914718 0.0683751101735797 -7.157521820445756
71 -0.12769746629088954 -8.868777143693391 2.0505729222341817
72 -1.951265804546497 -2.3831080678476915 -4.679346056340379
73 4.810902228319905 4.05284478369676 1.5752340276126808
74 3.36741186126323 0.8832501927061632 2.827053813251573
75 -2.4707088376576603 2.648038727871896 -0.015610002605273201
76 -0.4861648315670324 0.5425803445857924 -0.114847613049055
77 1.808812834024963 1.1275927251188587 -0.9709153641393526
78 -0.3518093048124706 3.57462428977982 -3.540522397869213
79 -5.242397660572644 -0.7494561217603123 4.310544888736282
80 -0.7528552380156598 2.6838691245165873 0.41663023522215376
81 -0.798268415381978 -1.4881579625726742 4.232192010804163
82 3.3184324152548883 2.723954484573866 -3.3500508418523354
83 -0.04081943052885727 -4.243126913301887 -2.371070751194883
84 -3.785599457533707 -2.9662339444066275 0.6899597588739871
85 -1.8494739051355877 -1.024031125015154 2.8949881408217872
86 -3.827128147656568 0.30901221279614977 3.6057703208410614
87 0.5680767070106011 2.1911618364248575 -0.3268323089798086
88 -6.878916086391701 2.1664921778491033 0.465196982737024
89 -0.26387314698559056 1.8672288725018007 2.4154749508495335
90 3.6430295279750426 -0.24256172594044 -5.68624931230072
91 -5.7852740995518 -4.082755970988386 -2.0914933116078482
92 2.394822936567938 -3.549003091232723 -3.3482692953329023
93 4.302392859831813 -1.7249112925599719 -1.172836034199934
94 2.061622818377372 -1.1021066125987722 -7.829262281274193
95 -3.987339656699236 -3.9331810626014274 -0.0748005853644056
96 -1.3111383432466674 -0.628852130768007 2.817841174308617
97 1.0019646156867057 2.2321780166964484 1.304817889628673
98 3.5737418306521755 4.272331587899267 1.4564204793640134
99 -4.417824598701364 3.415475493026319 -0.7299321337763642
100 -1.5767341730187476 1.3215887655721787 -0.045325214533930715
101 5.253761713809497 -0.8878028470476785 0.5234655687148887
102 -6.4711072860459895 2.279605722411579 1.3738421263765452
103 5.551279654417473 2.3821369890803648 -4.858117331683138
104 4.737067481090575 2.472694943755329 1.6036545276303151
105 2.475228840883836 3.2348918081275646 0.16189577592190757
106 -2.4951198322010377 -3.722293812815086 4.294319181880638
107 -1.1225819799632641 1.4232322455131883 -0.4841698897424191
108 -0.7366062682661104 4.074526725386828 0.6657390312803829
109 3.6564425166824153 4.267201637756229 1.389383059423844
110 -0.6297361696977295 -3.0234058311957046 -0.7852511831259561
111 -0.8872661528152637 4.316447120094791 2.637266499630058
112 -1.3022817349701654 -4.071458573136844 -3.750457239771778
113 -1.6564344147725467 0.33590315409317284 -2.0464357465994842
114 1.2870349854786594 -1.4756054061387816 -4.06157531161377
115 -4.864232760924479 1.3344093710281302 0.7962445024861108
116 2.1816959287455973 0.3992645911811118 1.4585548954252339
117 -0.397091893211079 2.741072300521909 1.7671252718719215
118 -2.9645695139298516 -2.635255348477504 1.2844281620348301
119 -2.7341893070381253 0.4667057576626664 1.09122715854914
120 1.5459770082665654 -0.1475751090860213 1.8158446696810737
121 5.737036765302812 0.9869680651609528 3.3388269801436445
122 2.516578420868797 -1.3608817598403218 2.1514883399820595
123 -1.2203282191350437 -5.174111862590332 -1.540334182435482
124 1.5826952585423408 -3.667763504193981 -4.998526716511828
125 3.0174400036099938 4.933589602721029 -1.616923319955628
126 -0.6273177781295861 -5.526774217183551 1.7675232168327433
127 -1.938424951051082 2.155517474263223 0.8816158084857821
128 0.23999978218349657 0.9405849968923987 -8.762052129003088
129 -2.190296168505544 -3.405717018740787 1.9049438271894916
130 -1.8254399837419844 -0.38276314387790494 0.7695418463837007
131 -4.150839312179198 -1.7808028329525287 2.7454940348849246
132 -0.03677224671979437 2.5610345068013323 1.9791423329025808
133 1.798817423555148 -2.2968077975899086 1.6305229184694163
134 2.5452413377285796 -2.631034672245179 -2.803025316842398
135 -1.8172642312796086 -1.4766109018233198 3.393518670955304
136 0.9710450418028885 -3.8419370094530905 -0.182519049684914
137 1.7038538087713524 -1.679670388183885 -2.2839765612129224
138 -1.2648944608501467 -0.12222217583980882 1.57779202428666
139 -4.2518073068501305 -3.6240137156118957 -2.151738697716263
140 0.6704189901908305 -0.5033927875385923 -3.75683624331733
141 4.902834719518048 -6.738358387649387 -0.43542698041004063
142 0.596431686351183 2.302271702433469 2.228933996765799
143 2.116970248300083 4.745218700021339 5.060040273205007
144 1.368314649619797 -3.972191019077995 -4.2512882280296935
145 -1.2279988166175315 -3.201741300327688 2.5205989248022616
146 -1.634521314339561 0.4087660812078366 1.2249066901821613
147 1.1386693954165117 -4.537326310862772 2.017227512133452
148 -3.5632813757251505 -6.025405266482313 -1.2601050762213872
149 3.308048403915113 2.4650731673515334 -1.1621070382741527
150 3.9775056750425906 -2.29545645049065 0.8146418574376897
151 4.645961220775104 -3.3654781213064537 1.1675007566722577
152 -1.185438813911496 2.097703599596178 2.8153639041596366
153 2.6544630184586153 4.5015123907961145 0.837034472760264
154 0.4078150157324398 3.107199247289862 -1.7419514922897905
155 -1.3739927175146895 -0.8257906711563312 1.0587631300371374
156 1.9416678240128764 1.1506385159163433 3.8304625021175522
157 3.5206978642874445 -2.260105266920721 4.302733683013825
158 3.169894998974757 4.662210509359806 -0.5211278670596093
159 -1.4550672399697853 -0.8811468158170188 -6.123273615662421
160 1.0794450841964323 -2.2233530477907033 -0.7717242297464791
161 -3.5623057895962487 -1.6873010588726716 1.3010762724935891
162 -1.8597142327636584 1.481269439070333 0.355614662231247
163 -1.0972223638304148 4.8882082827867865 -1.4708776934787633
164 -1.0070675681994492 -0.8411602661732761 3.2475480785843436
165 1.5574910111811047 1.330901068677793 -1.9001086849639957
166 1.7191154944404028 -0.39068286220159915 3.6466803029460615
167 -1.7166613443910195 -1.2342872194089816 3.4376666305879344
168 -1.5867624682125085 -1.137118465300307 -1.3453870758674504
169 -1.115711193564405 -3.913355078217925 -8.005994065365712
170 7.001078271946179 -2.4790223202417874 -2.7837211649127496
171 1.3507121947678018 1.1382119843252183 3.727737868625036
172 5.463594669173956 -5.60754600672692 -0.19955895464987916
173 3.5321567225917296 0.9093713049605865 -0.47185443951900835
174 -4.738667830956821 3.6140750612502024 -2.685690276642771
175 2.4145051731071066 0.4073313540458703 1.2631993933341965
176 -2.277548140334793 -3.446896611230202 4.4919361060761505
177 5.8486220875107175 2.3293543970892734 -5.393893892768616
178 -1.075469609137013 -3.0078883130020078 1.9186945295260505
179 1.1828308791776316 0.3744749105300719 2.5253910178941648
180 0.5027507069643771 4.264186595717917 -2.168840527751289
181 1.9749684434003556 -2.421622889865428 0.7640635361967122
182 -0.4556685875614858 0.11099870053469171 -1.7711687572915222
183 3.359083337216541 -0.10659119267064115 2.594068509908217
184 -3.023000397172849 8.129754416210274 -1.3363145003586783
185 -1.9137697136740657 -0.884984970667559 1.8191467781148871
186 -3.8327259067352406 -0.019191259278918994 -2.8944666531505554
187 -0.2836110914155804 2.063879602349877 2.0192333539276697
188 0.9445560669298084 -5.11423448779739 -4.024178739241997
189 -2.1643994781482343 -5.509350142703448 -0.42664378572382394
190 -1.5365225194211014 2.592662649457613 0.9284592515191841
191 3.528751633507999 0.3812116705939233 -4.026952173010914
192 1.3491222710407091 -3.9813544434874455 -1.027119792523369
193 -0.7203441142388723 -4.960473822643291 2.808569595038567
194 2.0941462737567824 -3.610383272369341 -6.493189329416202
195 -1.9991266745682585 -1.6001387043188693 -1.5983003229853654
196 -2.049419844852328 -3.001172977591865 -3.409225889141864
197 2.390083022297053 -2.623650932583514 -4.523285587870083
198 1.2620650836741245 2.8098582044315936 -1.0435544058473678
199 -1.3132383705656503 -0.7923080417936914 -0.9737256637018046
200 -0.46085012747987697 -0.669009363723105 2.3173652564437814
201 -1.5603603569134012 -4.988712786534777 -3.6266172074285445
202 2.871400956066106 -0.0260994488270628 -2.5250707797035057
203 0.8498434907482182 1.6196174608908325 -0.06755502025186497
204 -3.827364773473712 -3.785189036940949 -4.168167580663728
205 7.086624374227468 -0.6116429249641744 -2.3837607134089036
206 -3.6127244120497948 1.3598179273550635 2.7635747576531915
207 1.8954292784176445 0.26037448573289795 0.8905193954979392
208 4.099293457750417 -3.4870705075716133 4.847161017815608
209 -0.23405517194944056 1.1405681511859473 4.217007782217587
210 2.6283176451798793 6.752353980563825 -4.210533986315865
211 1.1111513443805832 -5.2369524498154 1.840098850685758
212 -3.261603348906582 -2.4100861150678083 -3.553411798113588
213 0.6168688528826719 2.8961349483426373 -4.254627887651097
214 -3.1100472589453134 5.8958037354202375 0.6797501541992057
215 0.8075271567671288 -0.11737907269779253 3.3215683848348063
216 -0.9107137003955054 -0.7222121275033371 4.683935079697847
217 -1.7760457656507391 -0.4877117272703399 1.216505796708053
218 -1.3346285194368073 0.026246301835822633 2.2400531937155326
219 -1.006542573080672 1.2826355676693777 -2.8962047142478573
220 -0.8354469599009245 1.735630128193139 1.1309919721907231
221 2.714295817311972 -4.203793169478802 -0.4284135815963479
222 0.7737359930540813 5.3337940705273565 -4.072609965430914
223 0.8484952950794233 1.5620590473348825 2.7218030531222244
224 -1.4442739882669158 2.162373370669534 4.1433222521666275
225 -1.7674199919908071 4.1097795911394 4.098715394255279
226 0.5046321058819323 -4.861064718810386 -2.1175930643461505
227 0.25054201190265535 -1.1916341086849371 -1.8405969309290429
228 0.4821987595147869 -1.9728172251417257 1.0547024426776597
229 -0.31206117467962347 -2.869118305207428 -2.6902463452193905
230 -7.242746581832705 0.09164649272451618 -7.262809472767677
231 -0.09213536821071941 -1.3134057950928952 4.081747418778711
232 -0.5326124337889329 -1.8523960900719105 -1.7679381502341682
233 -1.1094119306906145 1.4195152682791412 4.12107777742804
234 0.9836121424313204 -1.7685582685345687 -0.6273295687638435
235 -3.986114451871761 -0.42295680548210846 5.002179814494311
236 -0.2564336284752861 1.9369619747423619 -4.267566429859481
237 -0.08428450960982295 -1.42254219364543 -3.188509231609391
238 6.353173090941606 1.3229025233272969 2.6500915213829197
239 -0.7682460623197749 -0.5370180883055142 -3.71366570462732
240 -0.8446950759083903 -0.35262719473182397 -1.7877869692081458
241 5.173822186872927 0.9511791391693879 0.4383090277028588
242 1.79533181780231 -2.6753526141955657 5.229898236733171
243 -3.07688964675473 -2.9658706824073127 3.97925985635174
244 7.045160439148652 1.0452893175550408 6.107892667935742
245 4.081925476520564 -1.8498344718066289 -3.3157568500298087
246 -0.38964073824521384 -0.6844117569006387 -4.450258534848561
247 3.3886261335539873 -1.446859798743605 0.5219808765155813
248 3.4847176961793362 5.990363440740976 -3.240473117927454
249 2.8061717881660355 -0.11339997844121638 4.458132451023033
250 -4.217614716999585 -0.5099852319709945 1.7197822703741759
251 4.113246604594822 -6.557175884516329 4.409835014464645
252 -4.533186597958103 0.7254747928016599 -1.0903326180543984
253 4.968648195819266 -3.291916215758236 0.0630862363771047
254 4.5807024698679575 -1.1905135481416194 6.9334231989607975
255 -1.7231811726078243 0.7629197682463745 -1.2187142590027966
256 -0.3711319889099969 1.647425021711176 -5.171266910592663
257 -1.9563536856039092 1.8269607186431722 -8.18825320625399
258 -3.9609758562182624 3.8971343661582574 -2.4280309462783696
259 -8.760451297831585 1.1064701348596844 0.4680914101395097
260 2.541634224425806 -0.03046889896011684 -0.9351045593152301
261 -3.2670032031907783 -4.116832590401998 4.754847912521892
262 3.820414362153313 3.650253494159348 0.19335004205602144
263 3.094952614869112 0.7961097823881675 2.2960133108772602
264 -0.5569000291254784 4.179165307554515 2.8612929471251287
265 0.6303535988306168 1.8641271074408836 -3.0069129094825118
266 -0.80606313081504 -1.682150243775491 1.361144538269952
267 6.843740276325679 1.3881052636618951 -1.816871988259325
268 5.091839733088094 3.7638244606102167 -0.1725029640735503
269 1.6839383614226702 -0.8378426160133742 -1.721353755064107
270 1.9665030174863074 -0.1982608883598074 -1.5824370398043883
271 -0.09122724040193632 4.425510851745874 -1.2410289258258278
272 -3.599028297588922 0.8036104981204565 -0.4165534581386312
273 -1.8177479456541727 2.81043799911707 -0.3446996798326026
274 2.057097205509556 -2.1324030734697286 3.273865653641107
275 1.7669111513756162 4.890755799076463 0.6149199820586237
276 1.0050520610281133 0.12316158878148878 -1.4089328893039004
277 5.175153307346598 -0.4745887287571135 6.174340747710719
278 1.5973889098110623 -4.486195616492033 1.5326751701303336
279 0.8428048760737209 2.2190771638760713 3.742988293877421
280 -0.6820190918052297 3.5600981117434847 -1.0436766161108018
281 2.66362547061714 5.828052443365323 3.19741901898323
282 -0.21572877823334224 2.2581389372392184 -0.17266151067913563
283 -1.4838054785196442 0.7715852617572572 5.970369786395187
284 -1.7858793349188193 6.374410506664796 1.9382575789467
285 2.347292921370563 -2.5309582384984965 -1.0787528652008165
286 2.383892440574401 -1.8096174264535452 5.521344201240569
287 -4.8543063803120665 -1.9922018587035382 -3.1572578305370205
288 2.304829862354733 1.2509761500549983 -1.4725147412445496
289 -1.8474273949055755 5.8937137335975285 3.0981861751841238
290 -2.680711462275662 3.982492828345408 -0.19995248315705216
291 0.39421645338996314 -5.835730836336141 2.7789715426810386
292 -3.504323579050202 4.977505684642689 -2.2150086258421067
293 -0.519407290639171 -4.480957647463212 -2.101565103373101
294 5.607264814326751 0.25106493710488464 0.06379875788504741
295 1.0068042496210723 3.1141532396509843 0.7155778474616317
296 -2.300576724188312 -1.6057127091703567 0.8670947238278838
297 2.6692178087063105 -0.685003677584392 0.5397095865543322
298 -0.27801687104776573 0.7969747873620091 -0.9355622499329538
299 0.2536507902402455 -0.9115059837125545 3.036178452522754
300 -5.306238021915174 -5.486310741869182 0.3266345602309304
301 4.075023345969946 1.5141284187800725 -1.9171091148405428
302 0.6447739925613378 -0.08038707952951436 -0.6591490606743475
303 -2.7528326810813377 0.5090320280285494 -5.750051945264994
304 -5.991249364433336 0.09087715296073702 0.18759107296985625
305 4.0488880011708765 0.023022225067665495 6.25807072135353
306 3.711498902987872 0.1972165113020971 1.278741013207626
307 2.0223397662458296 -0.32780574667984197 -4.117143800758685
308 1.2008306226917262 6.980602244557935 -6.667173479776859
309 -0.4294635777638996 0.1749951113861602 -3.9686574829226737
310 2.848318172512638 -1.2824814354793768 3.464803204047508
311 1.5604455398625565 1.437402331090166 -1.713529606880132
312 -4.072852312230031 -0.9416717032953699 -1.6666383487859335
313 2.4979979515185247 2.0877238016521105 1.7164209602262217
314 0.5442039516577757 5.862256517093684 3.582636827361112
315 -1.7046574073585679 -0.467191334156074 1.2470679530426558
316 -0.6442539856918432 0.3847943791440773 0.3167828561942111
317 -2.28071721094152 -4.561530736102007 3.2788143188209897
318 1.9273793783860436 -0.38217743668913445 2.414106844069947
319 -2.595448974559254 0.22600448028630127 1.032813179133273
320 -3.6621166015751454 1.9835017024045325 3.3018927622401373
321 -1.3229928119794367 1.2568094716860583 -3.6895333520851685
322 -1.4419787108502307 -7.151904075794003 6.503481105334429
323 3.526295307095015 -2.50023851120551 -0.2701619086830535
324 -2.2256087082232674 1.6291386706611635 -2.2952788904903456
325 -2.1945452916867145 -1.101481422382624 8.465835978637353
326 3.7307688657839977 0.5560198527579222 3.663793688380356
327 3.4621850878070015 -2.141735274119637 4.606753683085303
328 4.561523523927124 -1.0242901305030616 4.917301922717305
329 1.2364712566853506 3.8916563600124836 1.4727781380022693
330 2.0271514088182236 -6.612180201135546 -0.5304951315441153
331 -0.46979784266440444 0.9015883044087183 3.1017103189761377
332 5.692420678917954 1.1136048687211233 -1.0634970110534896
333 3.6873154941808624 0.16582033395320206 7.941043931219784
334 -0.7610219363184354 -2.510622924636561 -1.1365972692678288
335 -0.9991437887436453 1.9155122264743802 0.320018965073642
336 2.3701699457444914 3.460535506435156 -5.150777376527137
337 -1.7513406203973352 2.0637869486283353 1.7439625680716828
338 -5.978529529977486 0.6403209255536241 -4.954448388317889
339 0.7698381971937872 -0.7449417855454653 -3.504574186531267
340 1.7777001018484127 0.06089715909432171 -1.4254443535227161
341 -5.921697343619604 3.256564304420894 -0.15181233547884188
342 0.2804739584285601 1.4587923385998036 -1.7724957840546358
343 -1.803902115905371 8.181653809527118 -4.807465861828148
344 0.8692551105990326 -1.0621829680987018 -0.2966144246148599
345 5.02328985608434 7.948833068261426 -0.46460286300167364
346 -4.47470195819347 -3.2845974418369135 4.751391376480123
347 2.7846561425138106 4.609443759824544 -2.5703586920273866
348 -4.536853034766683 -0.3953674592370159 -5.704231102022625
349 4.493550341328855 -6.454157059686392 2.199359426871736
350 -3.4494748428249844 0.2521496467248954 -4.874489188563293
351 3.4080108468457793 4.425002154511091 0.5333463883524235
352 3.0354000213966272 0.2047016644497559 2.439938737197815
353 2.70263506294027 -1.7941852518171777 6.192349324462234
354 1.049417645556194 -2.667800109033993 -0.6169356393273766
355 2.4319901978044087 -1.567799511443289 1.4600936785760947
356 4.187994501206966 -0.025071788958673288 1.7949638215520285
357 -1.158912829567781 2.4151078189944886 -1.474517799686961
358 -5.620326744671367 0.32446620013026045 -0.2672885073005966
359 1.9382049108716184 3.8745615045187707 -1.4922400267769302
360 2.3283315372112243 -4.4061186407938715 2.83332629682998
361 -0.22041229328417888 -1.9241493731492902 -2.4906524155402816
362 1.101922480295447 2.054337879709615 -1.333400036257305
363 -3.4584662673061333 -0.18693768779320524 0.8202247733601816
364 -4.052457373672723 -0.9292671993829369 -2.8107544858748312
365 0.32300181543344536 -1.7481412106500964 -1.1049946793276757
366 0.6069108190867758 -6.599285596893444 2.042162246624293
367 -1.1076923972663655 -2.242316445369333 -2.622859721113914
368 1.554616846779503 0.27666941483497803 0.10213406286914122
369 2.5665630057295994 2.243051749347121 2.784829172559692
370 1.1139060667721796 0.9476122838476538 -1.5705844192385177
371 -4.582737091455698 8.598721033902068 0.03419948539810583
372 1.8567139328004434 1.5940791037572712 -2.54562769877332
373 -4.231512727969499 6.996196557229119 -3.3399727768867
374 -0.2985341613638699 -0.1549035323777858 -0.7609174074448549
375 -0.04621464677999043 1.70744690930965 1.1728541465138187
376 -2.4268682979614375 -0.8893624336054217 -1.45959352013918
377 -4.126134642758236 -1.221980844541811 -0.5258691001041634
378 -1.3482213475408735 3.64062524184354 1.3576429812377289
379 1.852818592525606 0.6640106638786822 -3.1977692147923227
380 -3.209459722392907 2.885547176192967 2.7745213532297317
381 -4.793923675903385 4.154596870730276 0.8609044020496608
382 1.2475734037222126 -1.76355924887582 -0.4191908835317199
383 -4.1059364318131415 6.157729489137489 -3.678822154460394
384 -3.421444632489333 4.587600266711373 1.8959701448375916
385 -0.5756427719081658 -0.20209497773528812 6.337725909973179
386 3.286755307893841 -5.284938941666185 -2.968304556340162
387 -0.42446676362189323 2.2106526802185273 -0.8901180041140734
388 2.7190742222244464 4.988757101178819 -0.41596088254300967
389 -1.3419096369004289 -0.90688704286785 0.9721400529277516
390 -0.4150055474361128 1.9505417599131982 0.6679445758957928
391 -6.3397967924219865 0.5899794988384587 0.4242932447980443
392 1.7452079735636077 3.1214259665179154 -3.095495305764962
393 -0.8420965997219378 -0.5082452674053003 -0.7541371743539887
394 -1.2058681566117204 1.297658561878149 -3.1054056200325624
395 2.219471814086393 -2.003677295014161 0.7211808309077339
396 2.8329632896156043 3.637649607140429 -0.3400894784029323
397 -1.1431339242388296 0.6003602628816493 -5.48964053087419
398 4.409331552048099 0.5267274645635213 -6.68281952847274
399 3.557543908970231 2.263855397874305 -2.121652847622625
400 -5.256647574107764 1.7216963478649894 4.478371494832376
401 -5.252900677836769 -3.3068127847865085 -0.7074804075102418
402 1.428303342893605 -4.269387177010231 -2.8916357163140183
403 -1.624461701641461 0.8910502584603439 -2.1230650802303983
404 -1.9536449652931474 -1.6649462665215908 -4.236252171933769
405 -4.577889415240929 -1.5907873349637434 3.909694546626448
406 -3.645800665948845 -0.40379958468389776 3.3122913700577032
407 -0.3506712785646552 -0.07568647386928343 0.8622643952686584
408 4.980384811032131 1.785706112482496 -3.579648436617258
409 2.3420539453709415 -1.7890625364751929 -3.209553392633214
410 0.37023761541843975 0.6974561878370169 1.0936757100682666
411 0.38731093960802804 3.8791088040736277 5.777029272994305
412 7.078774132323832 -4.070872232336101 -6.496782960632089
413 -2.07381958652609 -0.4490365162788428 0.004865358809807964
414 3.948025616735102 3.7012744538034497 -3.2218758732901187
415 -1.476619735034702 2.2063399770741965 0.005047960375528682
416 -1.5270011447652063 -6.870989462559042 -2.549356125300146
417 -4.800411590579736 -0.9304879415279396 -1.4524848644244803
418 1.2523012463859766 -7.9469317547565925 -2.570251220909139
419 -6.722022957435572 0.8172914996879561 -3.084978118177232
420 -0.5975117452374898 3.503549409474746 0.5004258044146978
421 1.8816095344000856 -1.0404111273782108 -0.607944776888814
422 -0.08226477127158864 -1.301691397466945 3.5263706475972647
423 -0.09256749788859633 1.1788070093855305 10.026652435692528
424 -1.438331723697856 -2.0332325036950465 -3.7637562071516992
425 1.0881124617867837 -1.0443676443220498 -0.286025106577804
426 1.0908925208583418 -2.2714868573357463 -6.944333343614239
427 1.4207635283600937 -3.6878373243453146 2.513811800173003
428 -0.12219466081974215 -1.028502102996399 1.8498196208578077
429 -1.670686345702412 0.14636325592258653 -3.2823974542761336
430 -6.470424601345359 -1.9074630040753024 -5.605991021729467
431 1.5290514184391493 -2.165946487015299 1.6642367560171076
432 0.5580688323587621 5.0256272626212075 -2.11399239888231
433 7.158443868721731 -3.8926397124057464 -1.2879159021938325
434 2.5494356955020274 -1.6691799320047442 1.0150632103243589
435 2.381682457915492 -2.786182701647313 1.3672816212546044
436 -2.994009931780042 -5.509698675362325 -3.7498084892891557
437 -5.110491525076014 3.586961317287079 1.3180786534647408
438 -3.663150097488762 -2.3567522896291027 -5.817778224663973
439 0.1166297299828264 1.595471653971444 0.2520928673223958
440 -1.8665030825436872 -5.1280900366296756 -2.294174423914054
441 1.109050063294341 0.674115666819842 1.1705044850202873
442 1.681963282584592 -4.355740732876653 1.1250101932921523
443 -0.0036916252371517883 1.6397905921535691 2.9206649978244816
444 2.242234008891369 -0.4922048302922588 -3.859706599798013
445 3.786752529773526 0.147228292838621 1.0402301705963013
446 -5.207402000732493 0.1922973383365911 4.8700891011581735
447 -5.4191596390809655 1.091537170873684 -5.602792123269095
448 0.5452726328435262 3.574357163053403 2.231859807583873
449 1.24542021226326 7.443188478668272 3.681227598196872
450 2.722718449902428 -4.351260750192053 -5.021907085620775
451 -1.8067787480490412 1.588705375669912 2.3390646820169945
452 -1.2129316679167073 2.2107324460412 1.4798865716595522
453 0.26156213764552744 -0.8433949063202896 0.6582385601722799
454 -5.856316256447068 -3.5916605805105033 -0.27547058169475924
455 1.640052373652589 3.401114666500347 4.456791969312008
456 -1.4408568601344391 2.8826158339726287 -5.056413881801373
457 4.994194872771352 -2.4697609616951275 2.909407520261889
458 -0.780753076675426 -1.5218433391841832 -0.4647297955704368
459 1.1929542558359754 -0.2103862674510879 0.9151274740779526
460 -2.0352393978147143 -0.3411841291637535 -0.33827940912329174
461 -1.074780285277578 -2.4516985281749277 -1.3837286562966928
462 2.722582945671915 -0.1162621889485447 5.735218814879314
463 1.073755854390101 -0.68045251069372 -4.373661373122521
464 -1.9130180554231804 4.566644008957404 4.445446456002183
465 0.27463575100756527 1.4607536519699045 -0.5589365104650676
466 -2.060369949393065 -2.9348406955419954 -2.7378492799708845
467 0.9927181982743551 1.2385545659993715 3.5922514365341685
468 1.4444668433798045 2.2009614321681075 -0.4806520782319189
469 -4.995853372310662 0.7406650598724257 3.2281285696154436
470 -2.0993531991039185 -2.061013672619001 0.5615746018924498
471 -4.549824430302333 1.0728515327010084 2.4288295589829922
472 -3.528567759082136 -0.05966643809757434 -8.721402969548496
473 0.8293038879744568 0.9424756762337055 5.074920943582144
474 2.5664150051719035 -7.191234074559613 2.5372789476864286
475 4.249785490634462 -3.947726628521851 -1.1941929547915429
476 2.6507885358379246 0.5177937881250368 1.7106702931041182
477 -5.4699149325069465 3.107870051709514 -2.023834859355251
478 0.188050878740533 -3.508799883573223 -7.0630644427590825
479 1.99127910417987 1.459342463560572 -1.039233377706923
480 3.5117817777623834 2.345408166953657 -0.9373531240347408
481 1.9475588826934855 -3.1216097434899446 -3.1348447831911552
482 -4.167938223441495 2.006810774050156 -0.8879141437546152
483 -3.0381560142250934 -1.3902707470645423 -6.751960387740289
484 -2.063371989411338 -1.4315214793771776 2.514062807980895
485 2.3360521444102975 -0.7397935434526395 -1.9059557147856885
486 -3.8420940221784003 -1.1436867202812562 1.2517166870564373
487 -1.9620287799152953 3.3282562336326227 1.8252246270847798
488 5.179460167698586 0.09485956629922651 3.6004495025809353
489 -0.47623525631039443 0.4776993691099532 -2.7549444475667886
490 -4.961146207873616 -2.0083321604312125 1.420981418617032
491 -2.5326337349184396 -0.0893148994183641 7.674052777037431
492 0.69417434316066 0.9116787544919219 0.5526628761032026
493 -1.1841721976686934 0.189838097332916 0.8367781239619733
494 -2.3575665279472244 6.654339965967181 5.0369541966528635
495 -2.402170330687171 -4.619881805607682 2.876348941210436
496 -4.646819621146325 2.211690250429882 -0.49211744417257663
497 -1.684313091864902 -0.25221582993052294 2.951605313480401
498 2.7018132801153887 0.5006367506213445 -5.738092870572111
499 -0.572961660515088 4.434541175168849 -2.514438297613983
500 1.68160349640817 0.521423893861346 2.688574318585079
