12
Lattice="4.48241715416713 -0.02506648852544556 0.11038701052060376 -2.2629167929303686 3.869353881604883 -0.1103870105209907 0.05946668521628256 -0.03433310671800122 6.878009002836406" Properties=species:S:1:pos:R:3:spacegroup_kinds:I:1:magmoms:R:1:forces:R:3 spacegroup="P 31 2 1" unit_cell=conventional energy=-54.79313177857567 free_energy=-54.79313177857567 dipole="5.177778001855126 8.968174569509111 1.379704796225641e-12" magmom=0.0 stress="-0.00011584741366234212 -0.00044148099262288066 0.00048065620153990297 -0.00044148099262288066 -0.000625625753528376 -0.0002775069873468119 0.00048065620153990297 -0.0002775069873468119 -5.131022445712272e-05" pbc="T T T"
Be       2.93483002      -0.31329218       0.52839880        0       0.00000000       0.00326479      -0.00102161       0.00120390
Be      -1.34549404       1.39940952       4.29906567        0       0.00000000      -0.00284486       0.00626899      -0.00097765
Be       1.34625605       1.43195444       5.64040384        0       0.00000000      -0.00560682      -0.00752691       0.00066048
Be      -1.67926731       2.35065816       6.34961021        0       0.00000000      -0.00251714       0.00231659      -0.00120390
Be       1.94413790      -0.49986037       2.57894334        0       0.00000000       0.00685154       0.00067077       0.00097765
Be       0.62644758       1.84753605       1.23760516        0       0.00000000      -0.00371509      -0.00861911      -0.00066048
F        0.97716058       0.71385095       2.14430960        1       0.00000000       0.00937483       0.00370584       0.00105242
F        2.76433206      -0.05786622       3.84203874        1       0.00000000       0.00085163      -0.00142895      -0.00035001
F        3.78056324       3.60604634       6.46705200        1       0.00000000       0.00324267      -0.00411621      -0.00477529
F        0.18909945       1.16883826       4.73369940        1       0.00000000      -0.00147806       0.00997176      -0.00105242
F       -1.37281296       2.33071557       3.03597026        1       0.00000000      -0.00166332       0.00002305       0.00035001
F        1.29211281       5.04275387       0.41095700        1       0.00000000      -0.00518607       0.00075013       0.00477529
