6
Lattice="4.77 0.0 0.0 -2.385 4.130941176051771 0.0 0.0 0.0 5.18" Properties=species:S:1:pos:R:3:momenta:R:3:stresses:R:6:energies:R:1:forces:R:3 stress="0.02076553535647955 -0.012359653704146477 -0.009700162725853839 -0.012359653704146477 -0.06518756610083144 -0.0004251438590439193 -0.009700162725853839 -0.0004251438590439193 -0.14059516727016486" energy=-7.727424624613539 free_energy=-7.727424624613539 pbc="T T T"
Be       0.81678681      -7.12429966       1.20055727      -2.27187950      -1.15327240       0.86711152       0.00947115       0.00569916      -0.02110058      -0.02869463       0.00126016       0.00188836      -1.54712132      -0.41562606      -1.95032147      -6.63447474
Be       0.24866603       0.84108894       2.38520593       0.29775484       3.47275598       0.96274204      -0.00485995      -0.03180568       0.00827788       0.00782558       0.00199943      -0.01575946      -0.75362334      -3.02054099      -7.15132036       0.80957784
F       -1.21857695       6.44979426       1.05681147       2.36238599       2.20186573       0.55456889       0.02666407       0.01801424       0.01448620      -0.00855369      -0.00128364       0.01012975      -1.48198841      -5.77285715      -3.98677333       1.39191173
F        0.08668362       2.39228077       5.51344444      -1.44974981       2.21188661      -0.85400567       0.01017339      -0.00557242      -0.03509775       0.01605211       0.01360441      -0.00480345      -0.78155454       3.33221993       3.49525925      -7.47571695
F        2.35247673      -2.16130675       1.27805156       1.47828201      -4.59036245      -0.15193315       0.00215860      -0.00031974      -0.05968449       0.02225665      -0.01529837       0.00013394      -1.65268091      -2.23124647      -3.84396368       3.78246465
F        3.04400274       5.86803458       2.03933703      -0.41679354      -2.14287347      -1.37848363      -0.02284172      -0.05120312      -0.04747643      -0.00931115      -0.00998216      -0.00394879      -1.51045611       8.10805074      13.43711959       8.12623747
