2
Lattice="4.0 0.0 0.0 0.0 4.0 0.0 0.0 0.0 4.0" Properties=species:S:1:pos:R:3:momenta:R:3:energies:R:1:forces:R:3 energy=1.1701403980625908 free_energy=1.1701403980625908 stress="-0.0009907439586212786 -0.006311899873043685 0.003860141732682847 -0.006311899873043685 -0.03918723601595268 0.02400165739420856 0.003860141732682847 0.02400165739420856 -0.014646652483122646" pbc="T T T"
H      115.58366301      -2.02586818    -128.06182216       0.12325611       0.07650247      -0.05183698       0.58507020       0.65053790       4.04475666      -2.47379143
H      115.48379941      -2.64672409    -127.68208143       0.30629586      -0.08518877      -0.42496389       0.58507020      -0.65053790      -4.04475666       2.47379143
