540
Lattice="26.4 0.0 0.0 0.0 14.309999999999999 0.0 0.0 0.0 14.309999999999999" Properties=species:S:1:pos:R:3:initial_charges:R:1:momenta:R:3:forces:R:3 energy=-4604.121661098849 free_energy=-4604.121661098849 stress="-0.020213232774448534 -0.004102149610900312 -0.002125012673749303 -0.004102149610900312 -0.016413342893435778 -0.000600588785684944 -0.002125012673749303 -0.000600588785684944 -0.014988433479948729" pbc="T T T"
Li      -4.31179467       1.15757002      -3.53766375       1.00000000       1.27284053      -0.52205270       0.65918652       0.57759572      -1.22911985      -0.34580753
F       -0.68093948       2.71149194       3.60691628      -1.00000000       1.26673895       1.45175308      -0.43955234      -0.19668518       0.07542681       2.13318931
Li      -0.49823886      -5.58289912      -4.90414825       1.00000000      -1.92722037       0.76525901       0.66151448       0.44962148      -0.42529319      -0.59867922
F       -0.03331653       5.15978132      -1.04662929      -1.00000000       0.94935180       0.16292128      -3.21857670      -1.37262250      -0.53573400      -3.46985412
Li      17.80981565       0.01315400       5.96048214       1.00000000       0.44495902      -0.41293282      -0.18342844      -0.92500678      -0.33011347      -3.44995614
F        8.19215336       8.46576130     -11.86238669      -1.00000000       1.56811512      -1.12007819      -1.18658049       0.75671380      -1.88884789      -0.13586879
Li      -3.74577257      -7.23458983      -5.14670950       1.00000000      -0.56276644       0.16038479       1.64538455       0.71075587       0.06912337      -0.51011992
F       -1.45851815      11.04591845      -8.37453696      -1.00000000       2.85865358       0.06158141      -0.74308592       0.58296972       0.64021175      -0.31362934
Li       3.36229351       3.69834558      21.10573476       1.00000000       0.98487277       0.99995743       1.10497729      -0.02671542      -0.46545573       0.43264224
F       -6.08791696       0.77633097      16.97936652      -1.00000000      -3.45542628      -0.86679890       0.35122015      -0.65425029       1.26268186       0.64707166
Li       4.17822285      -7.11135971       2.19558257       1.00000000      -1.86197733      -1.31807889      -1.02032269       0.07634456       1.26714230      -0.07939185
F       -3.10562331      -4.44169586      13.16251301      -1.00000000      -1.78761725      -2.36602638      -0.61915830       0.47705437       0.53091078      -0.04226716
Li       6.63430833       2.57721271      15.04062744       1.00000000       0.32826143      -1.01980718      -1.36042298       0.15661915      -1.07617803      -0.39447158
F        2.61272330       0.85879598       7.27727354      -1.00000000      -0.72755024       0.41245172       3.94085768       0.65482288      -0.99697175      -1.49695811
Li      14.66816839     -13.20864464       6.54225104       1.00000000       0.81920777       1.73285756      -0.23015973      -0.31352957       0.16788179       0.67043879
F       -1.39429687      -5.39011005       7.82796459      -1.00000000      -1.13290278       0.29864333      -0.63588503      -0.14807440       0.08381124      -1.03358534
Li       3.12256300       1.22781438      15.22190016       1.00000000       1.53369009      -1.31198994      -2.41887057      -0.69484858      -0.04654358      -0.07561452
F       -0.16268935     -14.28624177      18.79449875      -1.00000000      -0.37455965       2.91601236      -1.47924413       2.64083625       2.05437180       2.67394379
Li      -1.15464589       1.81838251      10.50671227       1.00000000       0.26446468      -0.66628934      -1.83274013      -0.07867162      -1.09789227       0.60392471
F       -0.38154743      -0.51807163       2.28105228      -1.00000000      -0.63358243      -0.85660186      -2.11960736       0.31711931      -0.76203544      -2.39464617
Li      -2.34193632     -12.41625456      13.92787616       1.00000000      -0.44683523      -0.62556935       1.34793615      -0.66774747      -0.46783047      -0.77499186
F       -7.11041556      -5.07720732       7.73112444      -1.00000000       1.76800719       1.62029620       2.20876712       1.43439096      -0.44241351      -3.51515407
Li       2.18667658      -1.91955855      18.76289719       1.00000000       1.53846130       0.84706427       0.19305981      -0.07172825      -0.52428283      -0.23861836
F       -2.84317552      -7.27053276      16.88512636      -1.00000000      -0.55324990       2.72213343      -1.55855403       1.23660139      -2.06920750      -0.57185437
Li      -1.58384580      -0.45208321      -2.08983600       1.00000000      -0.36837903      -1.52140934       0.97451067      -1.33543393      -0.59485946      -0.82154901
F        1.16541566      14.80056512      -2.67935185      -1.00000000      -1.07697022       2.50709198       1.87059685       0.09260600       1.46848009       0.43574888
Li       2.13414722      -0.91546670      -0.38621963       1.00000000      -0.05191390       0.81699144       0.66049785      -0.85438080      -0.98939696      -0.67212226
F        8.88470971       6.52890401      -9.94188627      -1.00000000       0.82304899      -0.26496785      -0.07977904       0.16721211       0.85654631      -1.40494671
Li     -10.21852974      -0.79826026      11.45308051       1.00000000       1.29723285      -0.50077084      -0.67610823      -0.87670029       0.90661192       0.10310645
F        3.36362522      -1.09357597       5.47663230      -1.00000000       3.04534890      -0.02935734       2.87335868      -0.06030036      -0.97908665       0.48735834
Li       8.13025663      12.65801700      10.87738639       1.00000000      -0.46833485       0.50157619      -1.41832897       0.23730804       0.47803554       0.79905424
F        2.69973802      -1.06726475      -2.16474891      -1.00000000       3.78619174       0.62216342      -2.09983234       1.00074361      -0.03877018      -0.93996077
Li       6.38646732       6.84559442      -5.42487297       1.00000000      -0.91732735       1.74771571      -0.85396697       0.68483206      -0.45784674       0.10639354
F       -6.72689736      15.80419762      -3.52529633      -1.00000000       0.14799273      -1.86239563       2.69040691       1.35012931       1.62931969      -0.44093651
Li      10.35153815      23.78575358      22.85327972       1.00000000       0.09365799      -0.72860778      -0.59601714      -1.42678818      -1.23731522       0.32064829
F        2.61045242       1.19333590       4.74082690      -1.00000000      -3.69593463      -1.40597200      -2.10942507       0.84620860      -0.08261281       1.44677629
Li       3.65722560       4.11060580       0.64874084       1.00000000       0.62699810       1.40446884      -0.52605478      -0.24120719       0.28389266      -0.61635094
F       -7.80582106       2.90861178      13.62679191      -1.00000000       0.79918809       0.23164190      -2.11779338       1.38408175      -0.13780245       1.05160182
Li      -6.96504887      -1.28519375       8.05553068       1.00000000       0.39036997      -1.99013775       2.50978130       0.61871435      -0.64662657      -1.23945577
F        5.33468171       1.03417987       5.38000576      -1.00000000      -3.03371287       1.44301914      -3.97857320      -0.23478058      -2.83726690       0.94608728
Li       2.14594403       6.25203068      -0.85177773       1.00000000       0.41384468       0.49044990       0.35629012       0.73056427       0.58514517       0.14664958
F        8.53347405       9.58015510       9.27443842      -1.00000000      -2.90306194      -2.49964488      -3.41633241      -0.59818348      -1.73604088       1.20853765
Li       3.12084167      13.52177079      22.61219573       1.00000000       0.90502829       0.55908071       0.74954579      -0.47052636      -0.28864422      -0.40259725
F        0.10297889      10.06667650      12.65891253      -1.00000000      -0.65060449       1.68396900       1.37544179      -0.49797335       0.34659586      -0.57084931
Li       1.89312797      -4.71960493      11.48186627       1.00000000       1.79638422      -1.04870991      -0.39186401       3.00218278      -1.94886723       3.63570066
F        6.45047992       8.68481118       7.15341545      -1.00000000       0.19521750       0.42348051       1.70104033      -0.78724722       0.14861627      -1.35679235
Li      13.43609208       7.02131501      13.29445610       1.00000000      -0.11223784       0.66636167       0.19552749      -1.12263904       0.69627066      -1.17009211
F        5.15313493       6.44725919      20.92584056      -1.00000000       1.12405076      -2.31337248      -1.75372847       1.50793031       1.54893207       0.67385138
Li      -4.81661776       6.10725469      -2.89976557       1.00000000      -0.46844910       0.85297057       0.02286565       1.82033070      -1.09398133       0.54989767
F      -10.32804009      11.75769194      -3.27197176      -1.00000000       2.23823689      -3.08070642       0.53509933       1.56359009       1.94506472      -1.07597810
Li      15.43354208       7.70003375       6.91448260       1.00000000       0.30841941      -0.13089234      -1.26490805       0.21257263      -1.70781622       0.15986159
F        3.54068712      11.58222039       3.56083361      -1.00000000      -0.01608549      -0.32300913       0.92153060       1.07283484       0.52253350      -0.86395773
Li       9.80556288      18.52828815      -6.20325956       1.00000000      -0.22497532      -2.05002969      -0.26132259       0.22413358      -0.78272660       0.14999787
F        0.73159462      14.66411631      -5.47496220      -1.00000000      -0.83062930       3.75254263       2.03127189      -0.05198379      -2.83768096      -1.01727501
Li       3.16395772      11.17917833      15.92128313       1.00000000      -2.44844763      -2.70809714       0.47872378       0.03922983      -0.38393829       0.06996252
F       -5.52752294      16.97969531       4.38392552      -1.00000000      -1.73718576      -2.73295967       0.71887516      -1.98013253      -0.01311436      -1.56093426
Li      -4.77310206       9.77299288      10.46655946       1.00000000      -0.80484145       0.05760171      -0.73861383       0.92106849       0.40042378       0.11785554
F        8.98474387      12.58566605       2.53108767      -1.00000000      -0.38983508      -1.48804026      -1.57995683      -0.07233818       0.15541613       0.03904592
Li      13.14265248       3.06238653      22.64561167       1.00000000       0.64262359       1.20127507       0.29640539       0.37265044       0.37116974       1.11641019
F       -1.73860534       1.15533350      15.95266319      -1.00000000       3.01728320       3.06937131      -0.96058859       1.41748784       0.30759574      -1.45763995
Li      10.26123299      16.30543490       4.42729858       1.00000000       0.12829315       0.34911498      -0.24735703      -1.18960119      -0.12294389       0.46595876
F       11.09091210      11.36663215       1.86422259      -1.00000000       2.06984666      -1.72563651       0.33866699      -1.28741065       2.38637268      -1.61235311
Li       7.57444159       3.95269146      -3.85088071       1.00000000       0.16122915      -1.11368436      -1.41526809       1.64206144       0.51836321      -0.15858927
F        0.04200343      -1.92611869      -0.52387839      -1.00000000       2.69606448       0.33910310      -0.14335721      -0.38054960      -1.60638878      -0.28480101
Li       3.06530477      19.02134418       2.73171330       1.00000000       0.90271820       0.36399607       0.71171028      -0.34044763       0.65378667       0.43220293
F        6.43589374       6.12989621      13.92679322      -1.00000000      -1.44059430       2.60167504       2.71844528       0.70581993      -2.47794622       0.14575286
Li      11.35746442       9.03381212      13.51737741       1.00000000       1.42705287      -0.24320847       1.28958192      -0.61761019      -0.23401001       0.89555884
F        5.96222503       0.83772138       0.31046099      -1.00000000       0.39983014      -1.24434725       1.52812445      -0.67970354      -0.59891571      -0.79000350
Li       7.27227235       5.31688296       6.59024794       1.00000000       1.53073945      -0.28641796      -2.66525219      -1.13527264      -0.22499309       0.00461364
F       -4.87293352       8.44624323       8.70390811      -1.00000000       0.41944556      -1.35751504       0.68022248      -1.44548262       0.26237659       0.02062705
Li      -1.88001253      24.97793994      11.75733385       1.00000000      -1.24926597      -0.75769949       0.15767631      -1.68429376      -1.03170219       0.74335157
F        1.79091631      16.75139181      12.91129255      -1.00000000       4.74412647       0.61009281       2.67609752      -0.06812270       0.48017322       0.30036536
Li      10.44484997      -0.76938890     -15.89495183       1.00000000       0.94575494       1.62291418      -1.13991340      -0.29128144       1.37762837      -0.53707778
F       -2.92671419      -5.32036714      -3.71696482      -1.00000000       0.43639532      -2.10469453       1.54475740      -1.28635770       2.25708186      -2.33061957
Li      16.33309657      15.31028127       0.40728672       1.00000000       1.58394735       0.76667906       0.28328543       3.61804818      -1.20408274      -1.48132031
F       -1.03883479       1.05927980      -1.50502794      -1.00000000      -1.75079358       0.17740628      -2.01301393       0.76916267      -1.30978409      -0.31131351
Li      -1.89118880      -6.18720955      11.20565613       1.00000000       0.92341447      -0.43623009       0.18538221       1.54098542      -2.64879675       1.96320891
F        1.61322028       1.14878898       2.42935742      -1.00000000       1.21881928       1.10403083      -0.45995108       1.70685407      -0.87294909       1.81868598
Li      -1.19439427       7.78082050       4.59487602       1.00000000      -0.49858116       0.30763602       2.53283922       1.95092100      -1.52839598      -2.51522912
F       10.53394533      14.40467265       2.91545775      -1.00000000      -1.65432208       0.42312152      -2.06876621       0.87477551       0.22011288       0.40192002
Li       4.36223623      -2.68809186       6.20160667       1.00000000      -0.09288959       0.60661939      -0.82883120       0.28592083      -0.89208466      -0.52435055
F        1.71145753       2.99866304      -6.61450417      -1.00000000      -1.80127327       1.19028644       0.95383450      -0.13790027       0.50454027       0.88471163
Li       2.32790900       8.93558011       7.31827637       1.00000000       1.14714224       0.62063991      -0.54839411      -0.44027582      -1.21577331      -1.90076390
F        5.39077054       3.81205941       0.16134936      -1.00000000       2.00948713      -2.72776064       2.46027175       1.14238965       0.53981324       0.62804413
Li      15.49041345      -9.23421653       0.96382184       1.00000000       1.11894218      -0.18239829       1.59088934       0.67295262       0.69742289       1.11920298
F       -8.09801926       0.22228021       7.37453989      -1.00000000       2.07305374      -0.78430413      -0.56453850       1.13944074      -0.92092889       2.20882183
Li      16.45692629      -3.38562214      12.94922277       1.00000000       2.08822595       0.69947078      -0.83143560       0.33748931      -1.48746636      -1.18322753
F        0.66794566      -7.26512568      14.33294387      -1.00000000       0.19591608       0.27195253      -0.28479826      -0.73848470      -0.98892948       2.02785168
Li      -0.79483916      -0.77485605       5.83824201       1.00000000       2.79676092       1.34006694       1.10646191      -0.94777875      -1.10983831       2.79546939
F       -1.13292699      -9.11077897       3.57100328      -1.00000000       0.32932083      -0.16125544      -1.15286406       2.61487604      -2.24801308       3.72878860
Li      -1.75092341      -9.81939601      -5.20395563       1.00000000      -0.11616780       0.00021553      -0.38339465      -0.69842977       0.91846688       1.30381290
F       -4.99042847      -0.60270999      15.49288738      -1.00000000      -0.09553231       1.90540651       3.06561311       0.77408591       0.42778038       0.36726858
Li      17.55524457      -8.10378129       4.93492461       1.00000000       3.15403864       0.66479855       0.84916202      -0.05686429       0.60878644       0.39208792
F        3.08971580      -5.18773111       8.90849322      -1.00000000      -1.06436204      -0.94197990       4.01933422      -1.70747857       1.19033458       0.22181239
Li       8.77847545      10.73473132       8.04412657       1.00000000       1.24549754       2.10783896      -1.13011126       0.37847306       1.52651315      -0.50218177
F        7.52342068      -0.09372503      12.34003220      -1.00000000       0.37858405       1.86768378       3.61440803      -0.98712313       0.37266929       0.09211065
Li      10.44326317      -7.01529818       3.00887304       1.00000000       0.58622957       1.29657347      -0.15273192      -2.37097718       2.13490237       0.09690323
F       -2.58806099       6.98944091      -7.32092739      -1.00000000      -2.82482983      -0.65980160      -1.71629752      -0.15114341      -0.45031847      -1.17603497
Li       5.33193590      18.26309614      -1.67166975       1.00000000       0.67826337       2.09252161       0.51766946      -1.09491438      -0.71738367       0.02484739
F        6.05819063       4.25057428      -8.62125199      -1.00000000       0.52861150      -1.43557829       2.78409320       0.38085775      -1.62404615       2.70619833
Li       3.39054343       8.68319790       0.26562757       1.00000000      -0.17886216      -0.29612263       1.53072829      -0.18815940       0.27783654      -1.28743126
F        3.63846089      13.87021975       0.42652179      -1.00000000       0.46907514      -3.22740253      -1.64490689       0.83098130       0.06898828       0.21778282
Li      13.02296829      12.26170523      -7.76566288       1.00000000       0.89298356       1.58499172       2.31041857       0.01989325      -0.52863005      -1.41118030
F       -3.85900473      19.57471809      -4.97474335      -1.00000000      -3.42975908       0.86560902       0.16875085       0.60460615      -0.31194761       0.08362798
Li      13.50831729      24.53198140      -2.37342253       1.00000000      -0.65661432      -0.16734209      -1.30476197      -0.23244345      -0.43024380       1.19124081
F        0.97285039      10.32032099       4.74505494      -1.00000000      -0.24961252       2.07778641       2.53592528       0.24723478       0.08300116       0.96513633
Li       1.83306028       7.60250666       4.61010583       1.00000000      -0.65462418      -0.32043749      -0.29070356      -1.28834671       0.43275884      -1.06279420
F        8.59455130       5.34038997      -3.07160764      -1.00000000       0.92479002       1.80220997      -0.49692591      -1.66700818      -0.42410049       1.73795914
Li       9.34690320      -3.34887860      15.42154950       1.00000000       0.64309056      -2.07386755      -1.10800755      -1.45126466      -0.96927407      -0.13635403
F       16.08762753       5.73794183      10.20728340      -1.00000000      -0.85552981      -3.20034074       1.78287325      -0.10173780      -0.25042380       0.80415974
Li      12.68003257       5.80302946       7.38262025       1.00000000       0.42018132       0.09093359       0.65962433      -2.07703185       1.93455216      -0.54338290
F       22.34379096      16.35010486       2.82047616      -1.00000000       0.63978107       2.41433026       0.04474731       2.12132376      -1.00628894      -0.34079395
Li       7.80744679       9.77395722       3.28714366       1.00000000       1.32403615       1.88145930       0.60357511      -0.30181301       1.60555392       0.31445087
F       12.90135286      -5.46096489      29.04611098      -1.00000000       4.47253473       0.26722745       0.96008731       1.99783762      -0.41953596      -1.33298503
Li       7.35458331       1.34432890      11.11106278       1.00000000       0.05208808      -0.07181215      -1.00348570       0.64795277       0.60657692       0.25562405
F        9.60601462       9.66651285       6.77455123      -1.00000000      -2.46442045      -5.41614249       1.33711993       0.00165354      -0.03643324      -1.65484314
Li       4.86325614      -5.04470588       8.14874253       1.00000000      -0.96047910      -0.09218770       0.23616708      -0.16309300      -0.75052737       1.17410487
F       14.54596971      11.71091097       5.11971029      -1.00000000       0.22737382       1.82333577       3.24748770       0.61827722       1.32989187       1.02838991
Li       6.40846834      13.77064398       5.88762728       1.00000000      -1.82989643      -0.53203532      -1.11877584       0.90194564      -0.25998329      -0.04561153
F        8.30113087      21.21835839      -1.53452916      -1.00000000       1.20573779      -1.31934259      -1.22994430       0.46729243      -0.56527311       1.38269344
Li      -7.26078750       9.09281362       9.22780052       1.00000000       1.27481105       0.91620271      -1.44133844      -1.43927382      -0.42472424       4.04916093
F        4.48803108      13.22983592       9.61643488      -1.00000000      -1.15360958       0.11581263      -3.35821414       0.41156267      -2.51022132       0.49399634
Li      -4.04085754      17.50668803      -2.56531407       1.00000000      -1.15433368       0.23877832      -0.99759232      -1.32936259       2.37685638      -0.73188461
F       10.35260309       8.04756133       4.93892010      -1.00000000      -0.25462169      -1.72758252       1.09771282       1.52517864       1.80958334       1.00991518
Li      -1.34495735      12.78374385      15.30860784       1.00000000       0.60544622       1.57439416      -1.23891644      -0.32170945      -0.72801576      -1.42500157
F        1.80355461      20.40550706       2.99251957      -1.00000000       3.07240919       0.28826086       0.78480667       0.60732758       0.00855438       0.92121752
Li      14.32418710      16.44681551      -3.61788529       1.00000000       0.04366457       1.38641870      -1.91774057      -0.10232056      -0.25692050      -0.50283867
F       -3.74559884      11.58308695      -4.24803966      -1.00000000      -1.77170174       2.53196955      -2.96900329      -1.08340220      -0.24336342       0.12734739
Li      12.72677410       0.74301683      -0.24430772       1.00000000      -0.52660054      -2.35601546       0.70703960       0.27532733       3.58967119      -1.12808963
F        7.03854392      12.03507961       6.21170797      -1.00000000      -1.52442045      -0.20801777      -3.76692584       0.95221954      -1.37276928       1.78364588
Li       7.59157391      10.04695030      -8.23517451       1.00000000      -1.02807656       0.70054911      -0.56760472      -0.83841107       0.31850027      -0.25203179
F       10.02619822      17.30545943      16.34216304      -1.00000000      -1.19608983      -2.17306542      -1.32052964      -0.09257811      -0.12946555      -0.03289439
Li       9.97899332       6.71485713       8.54438529       1.00000000      -0.83240864      -0.99337947      -0.52707034      -0.18357164      -0.64134192       1.92569393
F        8.39458166      -0.15520059       9.38126514      -1.00000000       0.80294649      -2.36118777       1.18614769      -1.60132707      -0.42916748       0.55333231
Li       5.73643876      13.69057347      -2.16502329       1.00000000      -0.83182042      -0.88469488       1.25581398      -0.30399290      -0.62687856       0.86366858
F        5.02199348      13.77746048       7.06068341      -1.00000000      -0.80142318       1.26920583       0.17307493      -1.81372844      -0.38454712       0.73589157
Li       0.44576383      -2.70239727      11.71813487       1.00000000       2.83933175      -0.66630371       0.88703062       0.07983454       1.63579124      -1.37889946
F        4.93535139       7.79876853      12.70850798      -1.00000000       1.84731493      -0.34455759      -1.54583329       1.94321628       0.58952980      -0.39169104
Li      -3.35542805       0.48656926      15.59331485       1.00000000       0.39253145      -0.09690792       1.46160278      -0.89248476       0.26331978       0.43660790
F        9.37786944       4.74374568      13.62874513      -1.00000000       0.27682278      -2.16062570       1.09610569       0.09256283       0.80420014       1.97089145
Li      -2.34315577      17.17878545       2.30448465       1.00000000      -0.77660341      -1.03309795      -0.05208701       0.05795200      -0.83855526       0.87294201
F        7.80857714      -0.02240639       7.02698865      -1.00000000       0.07410843      -2.10734519       0.87749948       0.47730873       0.37159026       0.73919135
Li      -5.29440493      -1.73526504       9.51462657       1.00000000       0.59427353      -0.74820794      -1.17084182       1.20872105      -0.90591503       0.54302185
F       11.30576153      -2.90522541      13.75181483      -1.00000000       2.92123388       0.39651157      -1.79255992      -2.25294707      -2.02964503      -1.71285915
Li      12.22711525       1.81261868       6.77903587       1.00000000      -0.11412905      -1.07822496       0.29892854      -1.48814989      -1.16131024      -0.22505987
F        8.14371989       2.54493229      -7.54218546      -1.00000000       0.97916653      -0.79918714       2.29257517      -0.47535264      -0.90777469       2.12741256
Li      -3.96928195     -11.04936240       8.43223120       1.00000000       1.32932381      -0.24472396      -0.81986776       0.48313592       0.43129020       0.22769814
F        9.87829025      -1.55645351      -3.04824033      -1.00000000       0.61160944       2.30317190      -1.29066534      -1.71128863       0.29332134       0.13069710
Li       3.98704078      -2.98588921      -1.78275077       1.00000000      -0.34252060      -0.37328359       0.63049007      -0.75266341       0.46529512       1.22946524
F        6.82757036      -5.50099871      -2.98448441      -1.00000000      -1.64294003       1.41942487      -2.31692356      -1.22873359       0.29764094      -0.62052021
Li      -9.95180672       8.24828500      11.21423376       1.00000000       0.39836101      -0.31842392       1.29967472      -0.58673100       0.60030775      -0.70852591
F        8.03528080       4.43914291       1.49919380      -1.00000000      -2.45771541      -1.53513740       0.74566750      -0.79303616       1.06321248      -1.90017165
Li       3.54071749      -4.98597257      18.46918378       1.00000000      -0.81366587       0.86457743      -1.31181817       1.01085871       1.10664396       0.11370617
F        3.87561955      -9.27678614       4.65956600      -1.00000000       0.74573371      -2.22826788       1.68041607       0.53950893      -0.73692666       0.83239301
Li      24.81556509       1.23836364       8.34929650       1.00000000       0.79581950      -0.86843178      -0.43913950      -1.00243053      -0.46331941       0.39160441
F        4.33508848      14.84735409      -2.48019423      -1.00000000       1.38239821      -0.71444389       4.24288686       1.38995386       0.19344028      -0.29948828
Li      -2.19917438      -3.64423918       7.61095746       1.00000000      -0.11820126      -1.24256987      -1.34337915      -1.29069761      -0.70833332      -0.53537464
F       12.73417279      -2.08013611       8.40604388      -1.00000000       2.67541009       1.56879834      -2.17634048      -0.80363628       0.46114403       0.12682340
Li       9.71465626      15.38117669       1.25978190       1.00000000       1.87780822       1.17267711       1.04547231      -1.11177550      -0.13917653       0.30168018
F        7.55982358      -0.09921560       1.38842078      -1.00000000      -0.24699397       0.98573454       1.91423483       0.46835428      -0.91952451       3.08024763
Li      18.36248481      15.34891613       3.25706054       1.00000000       0.38179010      -1.00419248      -2.40288025      -0.06434191      -0.81721930      -1.21956027
F       10.98723686      -9.31022065       9.28427223      -1.00000000      -2.73781509       1.85305715      -0.42010861       0.28976662      -0.22347604       0.09581139
Li       9.66112210      10.90673957      -1.89471393       1.00000000       1.13689717       0.98704392       0.89127437       0.46135464      -0.36110774      -0.89069488
F       15.51278766      13.90828573       6.17219605      -1.00000000       0.80258678       1.30723044      -2.80491321       0.47674902       1.09856365       1.75872363
Li      20.18228398      -7.46872159      21.47808509       1.00000000       1.35539162       0.48988262      -0.55117931       0.07376493       2.03237526       0.40185022
F        3.24524089      -3.33658020      10.88679430      -1.00000000       1.11913242       4.34216860       0.17517312       0.11416381      -0.00222809      -1.21490909
Li      18.06155778      -6.88477573       1.40128294       1.00000000      -1.71300804       1.22969632      -1.69117010       0.97004923      -0.76806967      -0.31873057
F        2.22420482      -6.93673795       6.21687826      -1.00000000       1.69840229       0.81572861      -1.10394686      -0.72527592       0.29589023       0.70918692
Li       9.02574350       3.95583689      -8.93507661       1.00000000       0.58990208      -1.19726635       0.66387820      -0.11269209       0.16194849       2.01824764
F        8.13374548      13.97824227      -9.83701843      -1.00000000      -0.90727838      -0.15839035      -0.77213790       3.58629330       1.63062480       4.78587520
Li       3.00389989      -6.87143762       9.77848600       1.00000000      -0.02023039       0.02706477      -0.77437884      -0.24811420       0.24968612      -0.62576387
F       17.18835791      18.60749379      -9.51348904      -1.00000000      -2.24263005      -0.16759132      -3.19861857       0.34231992      -2.98653516      -0.88470474
Li       2.89931579       3.34956345      11.63211989       1.00000000      -0.72506733       0.90305497      -0.93358327      -0.18397721       0.77238899       1.46737806
F       11.72017328       2.19831633      -4.18758697      -1.00000000       0.55362685       0.73790514      -0.16088078       0.51927808       0.77352745      -0.92445794
Li      11.98513755      16.90615220      -2.26615447       1.00000000      -1.03027862       0.21283889      -1.96465160      -0.15646605      -0.19521203      -0.00270327
F        4.91639708      10.11371397      -0.78395725      -1.00000000       1.93187415      -0.17934720      -1.38767765       1.33273895      -0.79817714      -0.11432636
Li      22.82057312       5.37616868       6.60112895       1.00000000      -0.30429901      -1.82071971       0.13448836       0.66212415      -0.03253920       0.28667857
F       18.91574779       5.81313961      -4.46906801      -1.00000000      -0.17968337       0.41641973       1.87561213      -0.21634594      -1.18388957       1.02517898
Li      13.30213389       8.48544805       4.82317507       1.00000000       0.52389910      -0.08462995      -0.05053527       0.17794974       0.83008603      -0.01454837
F       21.40830208       4.35096438       2.11318268      -1.00000000      -2.92208662      -0.38872084       2.14454030      -0.81348437      -0.67382306       0.58749563
Li      -5.94676081       3.25059385      13.06095231       1.00000000      -0.52335291       3.10957440       0.94952656      -1.00361881       0.73626605      -0.21047949
F        6.40708189       8.33514591       4.40967166      -1.00000000      -0.65882697       1.70275704      -1.78654984       1.14450642      -0.97289727       1.34915437
Li       8.39287973       7.95365075      -3.41321634       1.00000000       1.52557822      -0.19263507       0.47609760       1.06699760      -1.08807057       0.21300883
F       14.20295319      14.29889543      -3.78382119      -1.00000000       0.66919683       2.12219084       1.22294034      -0.50830636      -0.72080673      -0.33529277
Li      12.70230681      -0.70304038      11.51696192       1.00000000      -0.45661201       1.12610243       0.49983893       0.94814734       0.84067413       1.28039552
F        3.79047615      -8.73971844      -1.37455005      -1.00000000      -0.02341937      -0.73200880       1.77080861       0.31175493      -3.04146036       0.14727987
Li      27.54856334       1.11233868       5.89617358       1.00000000      -1.69291688       0.45606526       0.51934672       0.46385283      -0.10004051       0.15113045
F       13.65092192      17.37569198      -8.22210075      -1.00000000       2.70426383       1.36065618      -1.18255291      -0.94819615      -1.31478778      -0.96314895
Li      12.14350658      10.08340956       1.41364243       1.00000000       0.66365945       0.72565678       0.11276384      -0.02562499       0.34791738       0.39122249
F       16.85135721       8.44054639       5.73608925      -1.00000000      -3.32939584       2.11218180       5.33508746      -2.68115034       0.55498377      -1.07734757
Li       0.35500874      11.21543687       6.35039325       1.00000000      -1.58854629       0.90962191       1.06186040      -0.08619885      -1.29439899      -1.02075783
F       11.79681833      -5.60186480       9.57011597      -1.00000000       1.00512953       1.81353251       1.43310504      -1.05335022      -0.16226729       3.16163099
Li      14.84174432      12.39779872      -0.03656099       1.00000000      -1.01727946      -0.63311914       0.71484166       0.50798277      -0.35674561       0.96538931
F       22.75819404      13.80820579       8.71467645      -1.00000000       1.94253628       2.50304253       1.75054007      -0.39124282       0.30097418      -0.11395762
Li       2.13558443       4.32900637      -4.95504334       1.00000000       0.10893057       0.88401458      -2.15655483       0.34974432       0.80869572      -0.29972073
F        4.70516838      14.56589996     -11.59632437      -1.00000000      -1.47488685       1.22102823      -0.94663645       1.10030050       0.50188709      -0.43489324
Li       5.01534193       0.37735060      -4.91998772       1.00000000      -0.13001934      -0.22630772       0.62059671       0.24182622       2.42040577      -0.60914238
F        1.85468562       8.62461393      -0.96208264      -1.00000000      -0.41872717       2.14122593      -3.27174374      -0.37628712       2.18099316      -0.87349538
Li       6.27703024      16.46807038      -7.21330023       1.00000000       1.78203839      -1.16885544       1.52480758      -0.53256863       0.97035694      -1.72894074
F       10.87401739      17.38849589      -7.24571028      -1.00000000       1.83226523      -0.74992110      -2.87377217       0.69884830       0.18552544      -0.18902876
Li       9.32247629      17.20227716      13.26903520       1.00000000      -1.50304354      -0.87700780      -0.90049428       0.32488811      -1.05283168      -0.85401408
F        7.48822235      11.52659704       9.25566611      -1.00000000       2.15077432       0.35047802       4.54498897      -0.37990939      -0.01491216       1.37518121
Li      17.73691503       8.68599507      -7.30706146       1.00000000      -0.74804854      -0.12202448       0.16839080       1.78675642       0.00546810       2.30715874
F       19.57342161      13.54205775       9.88759876      -1.00000000       1.81169832       0.80707151       2.05720386       0.72579017       0.25980661      -0.45192825
Li      20.38024329       5.85786561       3.93680312       1.00000000       0.39062851       0.96573761      -1.38698281       0.51409959      -0.43253800      -1.44029719
F       15.88181496      12.15956598       3.25024262      -1.00000000       0.11583137       0.77733151      -2.39859397       0.45097577       1.12557601      -0.91923108
Li       7.06922883      12.73886292       8.30053239       1.00000000      -1.65360727       0.24123458       0.13356905      -0.22948494       2.06171757      -2.28225583
F        4.99716408       7.53071437      -4.75212502      -1.00000000      -0.80856267      -1.30314754      -1.44454645      -1.20947405      -0.49039601       0.24838108
Li       7.79911190      17.76661018       2.84533998       1.00000000       1.16849561      -0.49267128       1.04721723      -0.18612840      -1.09874159       0.72162766
F       -3.51760444      14.60726172      13.59876857      -1.00000000      -0.57069856       0.49981137      -0.64274405       0.59495599      -0.36374829       2.02918873
Li       5.77239788      10.20566757      15.16367900       1.00000000       0.01388667      -0.15371855      -1.00407025       0.67497760       0.55460452       1.32847502
F       11.00799159      21.15420224       7.17367212      -1.00000000       0.83900456      -3.05955560      -1.89720576      -1.57819393       0.44541638      -0.67405700
Li      15.45480941       7.51699964       3.52999945       1.00000000      -0.66714928      -0.05591899       2.00072829      -0.27833385      -0.46951337       0.11837699
F       17.41240533      14.74055762      10.82193231      -1.00000000      -1.42116268      -1.02773152       0.42742157      -0.24600424      -0.73536949      -1.84937594
Li      14.61728928      11.01313223      17.21934106       1.00000000       1.23267773      -1.75155548      -1.35915907      -0.91798784       0.39185332      -0.19494421
F        9.06547837       5.47984565      20.65707709      -1.00000000      -0.12611335       0.50645771       0.21012986      -0.45226959      -0.64734447       1.85368617
Be       0.27638815      -1.29177867      -5.57662760       2.00000000       1.48339899       1.13316207      -0.40831147      -1.98136037       1.54493580       0.49755081
F        5.74934663      -2.40509877      -3.02312045      -1.00000000      -0.41969826      -0.47935197      -0.50137107      -0.78500551       0.24921742      -1.21157964
F        9.81608714      -5.23309149       0.42345573      -1.00000000      -0.65645681       0.21920544       0.72241381       0.92229144       0.71758177       0.25594644
Be      11.60612904       2.71607280       1.65255031       2.00000000       0.31150720      -0.42819359      -0.99036511       0.50788852       2.18073260      -0.99744334
F        5.28141654      10.36401456       9.45525558      -1.00000000      -2.67252972      -2.20742353       1.27973876       1.53736907       1.63826786       0.05570517
F       13.29117383      -2.62759668       0.81498688      -1.00000000      -1.53999236       1.06856383       0.61946582       0.04453864      -0.19128935       0.69945611
Be      17.66108513      -1.70543614       1.35650582       2.00000000       1.60742076      -1.29431722      -0.53369348       0.41163421       1.70424162      -2.30428107
F       18.80833235       5.89859369       7.21491671      -1.00000000      -1.30588644      -3.12619829       0.90912268       0.03899563      -2.27385648      -0.58816721
F       -0.19212153       7.06754191       5.87088591      -1.00000000       1.49252702      -1.87375107       0.16475551      -1.86296076       2.21698301      -1.94926690
Be       9.99023355       6.59994103      -8.61453589       2.00000000      -1.97420627      -0.51465541      -0.54628241       1.56225359       0.00254244       0.07708884
F       20.21439825       5.89361063      -1.82857414      -1.00000000      -0.30984468       2.08774235      -1.39587173      -2.16808039       1.88567893      -0.99541957
F       10.25818809       0.49871733       8.76232221      -1.00000000      -2.09543808       3.34297541       0.04754497       1.23996730      -0.95038633       0.56996063
Be       6.31783484       5.23072545       1.26031500       2.00000000       0.12925516       0.26273606      -0.87501223      -1.68126841       2.08813074       0.41690979
F       11.57588061      -3.89355470      -3.14834601      -1.00000000      -2.87925060       1.06603767       0.40337815      -0.00744763      -2.96639731       0.99780304
F       13.32411948       7.67707653       6.60608586      -1.00000000       0.96248361       0.19853791       0.96055608      -0.38183927       0.68937515       0.37503684
Be       1.14583331       6.79312500       1.71992463       2.00000000       0.76469060      -0.83361932       0.66662224      -0.57993296       0.01684634      -2.08672889
F       23.10075950       4.89552477      12.13497738      -1.00000000      -2.58904566      -0.70477176       0.07220934       1.87462291      -0.01808490      -0.64509591
F       19.44873797      -6.95310652       4.39268346      -1.00000000      -0.26691740      -1.03635951       2.06363679      -0.38429644       0.17294576      -0.27834683
Be      11.79728247      -1.98579636       0.49439230       2.00000000       0.13999416      -0.20166815       0.74866353       2.21168427      -0.73463288       2.58103331
F        8.81810112       2.40807223      -4.85169119      -1.00000000      -1.18042769       0.38992668      -2.30730898      -0.00220672      -1.60211955      -0.89400819
F        6.94606389       3.91056364      -2.04105444      -1.00000000       3.64818275       1.97272108       0.63339062       1.35292620       1.10567228       0.62533591
Be       5.35933202      -2.44452399       3.45015072       2.00000000       0.70944992       0.01274192       0.01381699       0.81266516      -2.02516195       0.50607294
F       12.08857163       3.80224861       3.05842808      -1.00000000       0.04405254       2.54163280       1.06931559       0.43629271      -0.23327714       1.46046768
F        4.68300628       2.58913734      -6.53128218      -1.00000000      -0.46286906      -1.49325249      -0.53602561      -1.37460736       1.65181043       1.28913650
Be       7.45566241       7.18801288       3.47338179       2.00000000       0.51142819       1.20737803      -1.58947129      -0.30926878      -0.49159304      -0.16811396
F        5.25341698      -1.86444755       1.87900902      -1.00000000      -1.15491871      -0.46876187       0.19160909      -1.22601730      -0.24395015       0.69576045
F       11.65480376      -0.87091666      10.27366997      -1.00000000      -0.19588423      -0.57114989      -0.05688256       1.79113728       1.12294301      -2.84763762
Be       4.53595393      11.69303504      -4.28692693       2.00000000       0.17217433      -0.34906643      -0.47853069      -0.77715943      -1.95114063       1.06189834
F       16.34281910       2.16815814      17.10316261      -1.00000000      -0.31787268      -1.09680797      -3.09932448       1.04285896      -0.22223913      -1.51909718
F       12.30763606       1.62160846      18.67073565      -1.00000000      -0.57278903       1.20454764       1.89472300      -1.28352137      -0.37252178       0.04851646
Be      13.57623773      -0.67726693       9.00606650       2.00000000      -0.19876813      -0.93966630       0.99496383       0.75453296       2.27638989       1.07481482
F        4.83668807       2.43681045       4.06986168      -1.00000000       0.35447204      -0.80789160      -0.18815667      -2.40905689       3.47270431      -1.83109392
F        0.09342214      -6.78707443      -2.66537951      -1.00000000      -1.58580441       1.94871243      -1.41797321       1.03348260      -0.58809859       0.44555010
Be      21.82699082       9.55601896      13.68388873       2.00000000       1.41988641      -2.37008317       0.37658232       0.59817248      -2.65107695      -4.34032819
F       12.93364355       1.85749143      16.20465880      -1.00000000       1.31226945      -2.77885494       2.52278611       0.34505754      -1.69315041       0.83998750
F       12.19853566      -1.57127436       3.42562756      -1.00000000       1.13569739       1.10145236      -1.48224061      -1.36455684       0.79774057      -0.30692263
Be      15.82348604      10.08995297       5.28878392       2.00000000      -0.47913948       0.98594336      -1.67930718      -0.78780974       1.95550714       1.81286008
F       10.99949793      21.00662598      -0.96547469      -1.00000000       0.49778406      -1.04763954       0.59742729      -0.45253987      -0.10437195       0.39692295
F       15.58414653       2.63267509       6.73831795      -1.00000000      -3.26222394      -0.18950813       2.48230347       3.09231510       1.89214130       0.86448238
Be      10.33850492      15.77099509      -4.23773957       2.00000000       0.69738643      -0.10893944       1.75014625      -0.88959968       2.04071474       2.45164645
F        1.82891511      18.90965962       0.52118668      -1.00000000      -1.21623478       2.27804978      -1.04740739       1.87698997       0.17347094      -0.57401995
F        9.27443879       6.52944455       1.45529273      -1.00000000       0.39828533       0.81618853       2.43622930       1.02666027      -0.67912597      -1.75432935
Be       3.63185166       6.19568642      -8.26628018       2.00000000       1.32892537      -0.79616945      -0.28127736      -1.30019002       0.50099829      -1.12832270
F        9.60522031       1.68656433      -2.64450158      -1.00000000      -3.35218256      -1.90879559       1.04490045      -0.72947251       0.00486732      -1.52058404
F       14.89570464       7.08765631     -20.06969506      -1.00000000       0.13716540      -4.12223280       0.04428677      -0.84867135      -0.10047314      -0.12421354
Be       7.69357906      -0.03978505      -0.22075389       2.00000000      -0.40875404       3.02305947       0.56934824       0.67460615      -0.44497196      -1.37796631
F       11.82117437      15.18886259      12.11970077      -1.00000000      -1.33587252      -0.53422203       0.60733389      -0.06856889      -2.00087687       0.78721545
F       15.25887774       7.44130143      -0.59979837      -1.00000000      -2.16898507       0.24690979       0.54875918      -0.51428814      -0.38305553       0.77198543
Be      12.70925546       4.69635160      -0.03372278       2.00000000      -0.63623867      -1.03222555      -0.03629214      -0.76709549       1.38157465       1.68919840
F       13.88582729       4.35305646       1.01502029      -1.00000000       0.47599622       0.36574680      -1.05835694       2.54655421      -0.97335368       0.04375399
F        7.39749992      23.22934596      -0.35907025      -1.00000000      -0.63855402      -2.31746918       0.22681429      -0.98694231      -0.10117051       0.43824586
Be       8.79725179       7.84788702       0.29963848       2.00000000       1.17817249      -3.26313959       0.52588388      -2.34870059       0.96297795      -0.12142298
F       18.13760185      10.94689841       2.54516179      -1.00000000      -0.59593330      -2.39792712       1.59306298       1.07743774       1.88244200      -1.06285989
F       14.97545311       9.69985644       4.00427738      -1.00000000      -3.07884411       1.83184316      -0.20091823      -0.26523507      -2.68381949       0.42783100
Be      19.38297353       3.64815641       9.88097480       2.00000000       1.07616645      -0.73485382       1.29505246      -1.37553063       0.34797250       3.53907998
F       11.80800134       6.59507991       2.49106870      -1.00000000      -0.72536479      -2.20624265      -1.04236353      -0.55766064      -1.73324825      -0.97827767
F       11.86644558       9.75836506       7.89350163      -1.00000000       0.90336006       0.09153594       0.50522435       2.58652177       2.39880749      -1.97833608
Be       9.64609640       4.88559456       1.07460242       2.00000000      -1.24198853      -0.10086956      -1.18719076      -0.03040979      -0.75653287      -0.08930151
F       12.09383797      10.36073599       5.37869167      -1.00000000       1.40126542      -0.16879086       1.17738954       1.56787833       0.42033935       0.18976772
F       10.31551579      -3.02576926       9.50574784      -1.00000000      -2.55553673       0.15371386       0.96746419       1.31720060       1.22334657      -3.31871599
Be      17.23872732       5.70642345       9.00451941       2.00000000      -0.55067691       2.25934625       1.57807676       1.76757023       1.63569256      -0.78750392
F       18.22251763       1.93671524       8.30310870      -1.00000000       0.74283212      -0.24164662      -0.21863788      -0.70535546       1.93245857       1.84044088
F       21.02694494      11.05471392       7.55868528      -1.00000000      -1.70519421       4.53332001       1.15801216      -1.63192676      -0.73758115      -0.28873868
Be       7.30545321      10.23365777      10.31651503       2.00000000      -0.61770715      -0.88105075      -2.13105438      -0.93047725      -1.68973708      -0.98029626
F       20.95154457      11.67189321      16.53257554      -1.00000000      -0.51064437       2.40878739       0.32256275       0.26361866      -0.11325441       1.44993391
F       14.99585307      12.92214531       8.86074857      -1.00000000       1.67818832       0.78095138       2.69361244       2.57333387      -2.49201972      -1.43684985
Be      14.83504926      -5.10108683      14.57132986       2.00000000       0.35917965      -1.19143507      -0.84546635       2.26771597       0.62149548       0.16892298
F        6.26099410       1.38337275       8.83247211      -1.00000000       0.07704405      -0.01053972       1.50677952       2.64779786      -0.15318325      -0.10983742
F       -1.29705913       6.40230704      10.32937032      -1.00000000      -3.74184463       0.51907040      -0.55189214      -0.61048462       1.52795249      -0.98968430
Be      12.38909034       5.72664794       3.78795037       2.00000000      -0.05906774       0.96827877       0.42208617       0.73454949      -1.06430313       1.13517532
F       21.41092016      13.14565696       4.35358655      -1.00000000       1.98052677       3.12460683      -0.47093952      -3.52333183       0.13412023      -2.09636772
F        4.13560067      -4.99109298       1.90136174      -1.00000000       1.20012433      -4.33944575      -1.10236786       1.23537947       0.32020645      -1.08791399
Be      15.01685820      10.70763996      -4.22204600       2.00000000       1.07402842       0.90082775       1.60549366       0.23297267       1.19844881       2.24982116
F       19.99398305      10.91746168      -3.46655269      -1.00000000      -4.05361295       1.51097637       0.75301040       0.35315546      -0.15701395      -1.12857389
F       13.38020304       7.12682862       3.61884426      -1.00000000      -0.82660380      -1.51496943      -1.28959384       2.13721385      -1.02119278       0.89979722
Be       5.48600742      18.64945299       4.31241226       2.00000000      -1.91468717       2.74473218      -0.56707195      -0.39305547       0.99276616      -1.27741887
F       18.32699943      10.92254754      -1.79905430      -1.00000000      -0.25717069       0.24001569      -0.45039094      -0.16930326      -1.72889576      -2.89137482
F       16.35171312      15.29889327       8.56175977      -1.00000000      -2.47290836      -0.35649562      -3.64635764      -5.35926492       3.56626900      -1.32780802
Be       6.09374131       9.05550530      -1.48287976       2.00000000       0.68164379       2.24193348      -1.09280904       0.39759664      -1.46905047      -0.02758834
F       19.27058958      11.91760542       5.03004288      -1.00000000      -1.86034728      -0.72032869      -4.23524635       0.33963876       0.47366593       0.34563891
F       13.44909819      20.72311858       0.78442287      -1.00000000      -0.31131894       0.45271266      -2.94915510      -0.25685490       0.94976370      -1.16269643
Be      11.37439562       8.31713037      -3.09589847       2.00000000       1.68445759      -0.14064014      -1.08113273      -1.35866827      -0.63269419      -1.40275774
F        7.04327320      15.99404316     -11.17549683      -1.00000000       1.09510926      -0.99251013       0.05128146       0.57169329      -1.49814596      -1.70953972
F       10.28837468       0.35770256       6.12261075      -1.00000000       3.45824796      -3.73543710       0.42951712      -0.47891422       0.18882134      -1.68738195
Be      16.46750557      11.84431935       8.15818223       2.00000000      -0.54853655       1.62338723       2.43874409       1.70135103       0.42692478      -1.73683878
F       12.35517846      13.54061293      -0.21345939      -1.00000000       0.01514157      -4.07324388       2.49738517      -0.47181739      -0.30105531      -0.45213394
F       19.42609725      11.23520121       0.37898814      -1.00000000       0.28463196       2.20417951      -0.51694489      -0.70878937      -1.82984759       0.07675897
Be       9.13454770      13.31835076       5.84713267       2.00000000       1.19757252       0.52451705       0.72150500      -0.80641880       3.41518115       0.50699844
F       14.62161886       9.37054907       6.61912888      -1.00000000       4.35147588      -1.60597031      -1.52233475       1.03633763       1.86180295       0.18805774
F       18.77356726      13.18721490       2.80906599      -1.00000000      -1.38048950       0.70336031      -3.04152323       0.04172484      -1.33473694       0.22489345
Be      11.85708247      14.06008317       4.29665877       2.00000000      -0.54296355       1.57800158      -2.38311829       0.73782356       1.18731900       2.49034758
F       12.36612893      23.25040510       2.57554241      -1.00000000       1.01625224      -3.10349559      -3.08871304      -0.42083176      -0.31494297       1.38113837
F        8.66772647      17.36530047       4.14549564      -1.00000000      -2.17908841      -1.30126135      -1.09079982       1.88953847      -0.64926026       0.17462675
Be      12.17211056      10.60073984       9.60409843       2.00000000       0.37622075       0.13424769      -0.99084894      -0.69211505       1.52724315       1.26447408
F       14.69495200      17.28486351       3.49833055      -1.00000000      -0.48161196      -0.03656104      -0.01564220      -3.01000517       0.43172486       1.29356918
F       14.67441152       7.08637284      11.53603852      -1.00000000       0.16766541       0.27384017      -0.08247966       1.29520883      -1.00019701       0.77799151
Be      10.84066161      23.92862101       5.50620033       2.00000000      -0.19882697       0.35983962      -0.39042943      -4.09385654      -1.31458274      -0.13849071
F       13.23454889       4.66541351       4.84401586      -1.00000000       0.66384903      -0.03679618      -0.18934876       1.70193125       0.74045670      -2.04941899
F       15.35812726       3.22322192       9.22305718      -1.00000000       1.99238206       1.08236006       0.83474766      -0.79899204      -0.66911497      -0.11930237
Be      10.52092887      13.13184377       9.27645819       2.00000000      -0.31587583       0.43332761      -3.40322787      -2.51037046      -1.66459704       0.33827778
F       10.75081715      16.09126776      14.42809790      -1.00000000      -1.54574566       0.92460255       1.81973713       2.40905697       0.43830517       1.34517545
F       24.35398216       9.16227615       4.91449427      -1.00000000      -1.67526786       0.58325240       3.30996967      -0.95226642       0.01818480      -0.06342824
Be      14.54005976       5.65810123       9.47455666       2.00000000      -1.51911966      -2.02624508       1.18472794      -0.88439700       0.94050676       0.39323335
F       13.36607289      11.45072243      10.56456691      -1.00000000      -0.74910879       1.46468470      -1.49730111       1.42749586       1.93657116       0.18748292
F        5.64709981      16.75287640      10.78728737      -1.00000000       0.35427464      -1.64896937      -3.08773150       0.88191838      -1.19071944       1.54488140
Be       7.88298630      13.82582017      17.38776351       2.00000000      -0.33900690       1.16024890       0.08363497      -0.64672969      -1.57011882      -4.94304252
F        8.39717838      16.01966908      14.36759534      -1.00000000      -0.35398275      -1.45700971       1.89718093      -1.80159888      -0.90346922      -0.16403726
F        8.01493365      10.51529034      11.67211913      -1.00000000      -2.88884341       0.52212105      -0.67327221       0.73652428       2.39572311       0.54193613
Be      13.42543814      -5.19872998      -6.50014651       2.00000000      -2.22530074      -1.57809705      -2.04336652       0.18192540      -3.12028430      -0.42222879
F       15.88560123      10.27736484       1.54905397      -1.00000000      -4.54410907       0.24569344       0.60927421       1.08543939      -0.80531640      -0.58498176
F       19.18043695       8.07880425      11.08361421      -1.00000000      -1.45461672       0.54707295      -1.74318684      -0.22871943      -0.19265802       0.35389396
Be      26.50900407       5.91298551      -3.27187624       2.00000000       0.97035962      -0.28778471      -2.11993953      -1.70192009       2.04849780      -0.37691076
F       33.01085850       4.07255797       8.97712366      -1.00000000       2.51683595       0.73766525       0.41452539      -1.52785953      -0.51722419       0.00691565
F       12.77312392       5.18826998      12.76608527      -1.00000000      -1.04398965       1.04970182      -1.06234226       0.72500565       0.67259804      -0.18766203
Be      20.93552362      -2.49064963       5.59548718       2.00000000       0.11353080       1.80591407       0.09045283       1.58060176      -0.99149753       0.16691173
F       18.24688873      10.89776484       9.25883685      -1.00000000       4.90001651       5.09766824       1.87068994      -0.70145289       1.17091448       1.37436093
F       19.19671208      -1.09706904       0.36246662      -1.00000000       1.72844966       1.78748437      -0.19522746      -2.11018043       1.42788143       0.88569285
Be      14.89669324       1.35858504       2.40182188       2.00000000      -2.68901327      -2.03089408       0.74800827      -1.31840044       0.79100382       0.81027381
F       22.41186946       0.50665401       5.49764516      -1.00000000       4.20392689      -0.25962631      -1.94687431       0.69372923       2.10380500      -3.87015162
F       11.38339831       4.35738740       0.88604662      -1.00000000      -0.30270731       1.92039674      -3.45265934      -1.85548398       0.59488508      -0.72051382
Be      13.20722712       3.03485961       4.29282720       2.00000000      -0.43265806       0.33152732       1.18360435      -0.81032941       0.54335446       0.81149072
F       24.90039070      12.18485933      -3.33285036      -1.00000000       1.78413095      -2.94555408       1.45543220       0.67714190      -0.75455885       1.45941210
F        8.20264678       6.65419000       8.97873368      -1.00000000      -4.10960278      -0.16397651       2.01260939      -0.33319501       0.67544265      -0.90672926
Be      11.89016531       5.12887659      10.80637842       2.00000000       0.07747805      -0.54907825      -2.46411801       2.93504666      -0.37581359      -3.87525491
F       24.97951659      -6.34408513      13.22201871      -1.00000000       3.06842422      -1.21057316       0.15514241       0.54890370      -1.18586116      -2.24129078
F       21.78383031      -1.32513164       6.66684832      -1.00000000      -2.56540459       0.36088587      -0.39647313       0.41735554      -1.48069256      -0.22709742
Be      19.10310579      -2.23060182      13.27027523       2.00000000       2.23669303      -1.06114093      -0.71550059       2.35399435       1.45763311       3.05993842
F       17.06263325       8.01710566      17.32725615      -1.00000000       1.42449354       3.27698291       0.89503775       0.83459881       1.40868636      -1.49691675
F       20.37065181       0.24141992       6.64834778      -1.00000000       0.72040816       0.69291906      -1.47767136      -1.43909514       2.14789020       1.89631910
Be      16.60711051       2.67184461       8.28566923       2.00000000      -0.07546635       0.90688478       1.10878514      -1.30993209       1.13524537       0.88999443
F       15.94072428      -3.80209402       8.83148793      -1.00000000      -0.92344171      -1.64282275       0.48155577      -0.01103471       0.89758770      -1.31763283
F       20.16252680       3.02625878       8.56944611      -1.00000000       3.44373662      -0.45463273      -0.24198264       0.01903869       0.91343646      -0.83538887
Be      17.40079482       0.15523241       8.93323908       2.00000000       1.30889034      -1.70697854      -0.68404600       3.96305089       1.59878138       2.47942822
F       22.55245487       7.83797459      12.47167925      -1.00000000      -1.47460254       0.16429673      -3.32715618      -0.74040128      -1.21839577      -0.01847173
F       19.05434827      -5.17770970      15.31209952      -1.00000000      -2.65581139      -1.51819058       1.33060894      -1.85826865       0.17480215       3.05561465
Be      18.92150952       6.49065147      11.36997909       2.00000000       0.74952385       2.28986570      -0.10974946       0.16772553       0.02666872       1.89086986
F       17.41373003       7.63826559       9.00709517      -1.00000000       3.37967450      -0.74817602      -1.65234177       0.22961042      -0.78855360       0.02508974
F        6.73589081       5.88574981       4.31415341      -1.00000000      -0.16487986       0.61923965       2.25039016      -1.03311456       0.13987766      -0.59549027
Be      18.66200695       3.50075468      15.44986147       2.00000000      -0.36986956       0.02419251       1.65484811      -0.80819036       1.74049645      -2.85561217
F       27.26846867      11.88967135       9.67510506      -1.00000000      -1.60184122       1.91679519      -0.00340482       0.59539293       0.46495822      -0.49569327
F       11.31424813       5.77048344       5.11198518      -1.00000000       0.27798200       0.31106305      -1.67334161      -0.74297971       0.32851946      -2.33191905
Be      18.55068125      -2.65605139      10.78432357       2.00000000      -1.01636468       0.17623345       0.73439149       1.19238512      -1.04036921      -0.93193862
F       22.68756401       2.96431039      14.89574755      -1.00000000      -1.79616699      -0.57336193      -2.02504709       1.00573995      -0.70397731      -0.45139767
F        9.60294111      -1.98849472       6.91185660      -1.00000000      -0.23157268       1.37538122      -0.14277362      -0.20197937      -1.72804087       2.94738381
Be      20.17836636       6.07962428       0.09539236       2.00000000      -0.32706245      -1.45336029      -0.66454423      -1.61538766       0.56896926      -2.94161865
F       14.10135713       1.68738474      -1.77194833      -1.00000000      -3.08155808      -2.32409269      -1.87357733       0.84150745       1.03929972       0.45048592
F       32.60881983      -1.54874960      -0.28683876      -1.00000000      -0.25428996       0.02328659       0.58820639      -0.49034526       2.18761124      -0.07101525
Be      25.73564049      13.16109837       3.63647970       2.00000000      -1.56271939      -1.06671607       0.70043499       1.63779425       0.54026078      -2.53687807
F        9.93773881       8.68059885      -2.07956592      -1.00000000       2.39745172      -0.78148435       3.10141511       2.00837556       1.09717932      -1.01068000
F       21.13429007       5.42920141       7.36874108      -1.00000000       0.05991359       0.92889580      -0.78355026      -0.46811943       0.22957012      -0.54275412
Be      18.67577206       3.41290679       4.74546781       2.00000000      -1.39600340      -0.51074724      -2.14417073      -0.46076455      -3.73996257      -1.48518179
F       23.14145355      12.20140853      14.45493774      -1.00000000      -1.45249638      -0.66750686       3.75186878      -0.23018596       1.46162655       1.16386541
F       20.84743680       8.37067580       6.16222756      -1.00000000      -2.17799669       1.04267970      -4.79701401      -0.97737633      -2.59440363      -0.71890690
Be      22.43714626       4.55524643       0.87508978       2.00000000       0.06168189       1.80848007      -0.85013508       0.94457721      -0.31402356      -1.35778012
F       21.67343924       3.69988887       6.20262460      -1.00000000       1.78564475      -0.48160578       1.40380332      -0.30860413       0.47005983       0.81928471
F       20.14746241       2.38969944       1.05449514      -1.00000000       1.47760348      -3.20423580       2.01783333      -2.20029755      -0.18256392      -2.05299283
Be      23.75868419      -1.61081812       9.84717580       2.00000000      -1.34228421       2.17166703       1.07774962       1.18667013       2.57835496      -0.58595174
F       18.91207432       3.29810695       2.73871593      -1.00000000      -0.89561885       0.69921709       2.04880010      -0.66777603       0.07807479       0.70839939
F       16.13880084      13.64554253       0.99387455      -1.00000000      -0.44730580       1.58475655      -4.00687885      -0.88400732      -1.18382503       0.73105442
Be      10.02694691      20.12096106      12.35575993       2.00000000      -0.47796728      -1.13849004       0.09913632      -4.02409659       0.98336061      -0.78344197
F        4.01594550       7.44342582       5.11635476      -1.00000000       2.35734358      -0.92930161       2.68985414       1.38779537       1.17430523      -2.73040628
F       21.66294308      10.46497388      14.84722166      -1.00000000       2.09582982      -0.46460444       1.60993089       1.00478237       0.60135558       3.90875213
Be      28.05051033       1.66676410       8.91005392       2.00000000       0.57030487      -1.57578178      -1.20192537       0.65762450      -0.21204458      -0.27710419
F       26.32958618       2.54514583       5.90473401      -1.00000000      -1.34827798       3.16972622       1.16381415      -1.44744637      -1.06404939      -0.25948057
F       12.98195775      17.39871749      -0.32304501      -1.00000000      -1.29482683       1.80569820      -1.76831995       0.13765961      -0.85588037      -1.70135397
Be      26.69539182       4.19640920      14.47553444       2.00000000      -1.54415548      -2.48855376      -0.00119414       1.29688508      -0.87072509       3.06836649
F       17.18816719       9.00879623      13.52103069      -1.00000000       1.42616246      -0.58810693      -1.55487409      -2.98814898       0.79743412      -0.09808901
F       13.97890435       4.82988855       7.70825119      -1.00000000      -0.41724738       0.20526084      -1.32594664       0.94402177      -0.50038458       0.54110048
Be       8.23388093       1.24371471       8.11470240       2.00000000       0.31475913       0.66775001       0.44736808       1.76445434       0.09428496      -0.24676450
F       24.27736216       8.21684491      15.10143762      -1.00000000      -2.13503858       2.41389064       1.10682665      -3.39091101      -3.78702080      -1.92481829
F        9.05944335      -1.14526861      14.03780759      -1.00000000      -3.47424929      -0.80875922      -0.53629308       0.88227001       0.44154579       0.29696303
Be      18.68096610       8.88798727      13.42423694       2.00000000      -0.09494481      -1.77511535      -0.10075559       2.81071177       0.02941628       1.04858202
F       12.72059877      14.00583641      20.22320250      -1.00000000       1.55901639       0.29722965       0.85168977      -0.04114964      -0.28986063      -1.56380883
F       25.99829696       7.21611551      17.23163725      -1.00000000       0.48580920      -1.22548637       0.08253730       0.49110552       0.03956739      -2.27211914
Be      26.54391284      15.24249563      16.15214592       2.00000000      -1.06431124      -0.25585727       0.48555752      -0.27795632       3.66865020      -1.38113863
F       23.49898848       9.36259562      16.85044110      -1.00000000       0.23525358      -0.42057628      -1.18210286      -1.70027301       0.40463422       0.36527361
F       23.83747030      17.09502025      12.12682671      -1.00000000      -2.10818838       0.78364772      -3.43084774       1.20857294      -0.78310103       0.23387251
Be      22.62235260      11.30255855      16.17561465       2.00000000       0.23281748      -1.26177287      -0.86108278       0.64119320       1.50845957      -2.00269808
F       13.37341225       4.22090786      10.54887955      -1.00000000       1.51853945       0.20424997       1.04110576      -0.04257422      -1.11312789      -0.01706462
F       13.84391254       9.88296032       9.40143318      -1.00000000      -0.04467937       1.39859071       2.16063641      -2.06594410      -1.63156326      -3.71776215
Be      13.17311615      22.03683917       1.78913156       2.00000000      -0.70496781       1.21812263      -2.71527975      -1.46625569      -1.24560526       2.05707647
F       17.57173564      18.24374824       9.15879695      -1.00000000       1.10132138       0.53437266       0.23101295       2.22439130      -0.29106525      -0.89643051
F       21.90171523       7.76950081       0.40087814      -1.00000000      -0.61548066      -1.29979625       0.57019177       2.00088190       0.29411087       1.49608632
Be      15.46399913      13.39920336       4.75794842       2.00000000       1.75418235       2.01060510       2.42984447      -0.87253950      -3.82878859      -3.16064198
F       14.87857866      15.94095708      14.99087256      -1.00000000      -1.18345331      -1.08789369       1.87473282      -1.47414200       0.62912498       1.51467901
F       29.26180379       0.49302537       9.57656187      -1.00000000      -2.17130586       0.98437765       2.58535566       0.46427750       0.13548119       0.66736679
Be      20.10594283       4.33257854       6.79579764       2.00000000       1.28876822      -1.26867665       3.66983049       0.79364200       0.22986318      -0.34019557
F       27.17072994       7.41868760       8.49301658      -1.00000000       0.08678318       0.28835143      -0.75705798      -0.17405003       0.45775932       0.11382302
F       19.45964318      17.04835187       6.34082818      -1.00000000       1.65014217       0.57798041      -1.48008301      -0.78105850       2.20280615       0.43110485
Be      16.11280227      17.99604281       3.55309933       2.00000000       0.77711270       1.60880899      -0.79931575       1.99813412       0.59614621       0.40809156
F       17.98833601       0.65565574       1.38171493      -1.00000000       0.55537714      -0.67599274       1.14964859       1.17070548       1.59496910      -0.47931353
F       17.75072843      13.05542736       8.82609002      -1.00000000       3.02220844       1.43542483      -2.36422197      -2.88741241      -5.13610673      -0.36946601
Be      27.15394543      10.50839451       2.92545008       2.00000000      -0.07618971       1.73877943      -0.34850232       2.53257505      -2.53749088       2.50557779
F       16.62822956      11.58950038       6.45710045      -1.00000000      -2.33900253      -0.67016490      -2.63179193      -0.36959370      -1.21811762       1.90225729
F       15.20537911       9.89268756      25.70677668      -1.00000000       1.87546768       1.21437814       0.50086388       0.59031416      -2.95981577       0.24769659
Be      18.92248819      14.67586443      11.53210638       2.00000000       0.01193961       0.22787826       1.23467247      -0.41620352      -1.15017650       1.66557984
F       20.21928497      20.83522021      15.92793809      -1.00000000       4.93925602       0.94623362       2.10820832       1.48638345       0.96259406       1.90726567
F       22.92836910      12.83863192      17.11808264      -1.00000000       0.61542860      -4.16538538      -1.45775016       0.34398668      -0.33499671      -0.82784964
Be      24.18147692      10.74271954       4.31976409       2.00000000       2.14876042       0.52946277       0.66869075      -0.76673516      -1.63730355       2.73806690
F       16.31272911      16.67934179      13.37776765      -1.00000000      -1.67032751       0.12166119      -0.92626301      -1.46905408       0.60913616      -1.26253445
F       10.18100540      12.84227242       4.72435043      -1.00000000      -3.08186051      -1.51186531       0.17129200       1.63545481      -1.15720641      -2.75397108
Be      20.72308056       8.37846766       4.37496996       2.00000000      -0.29297409       2.33243463       1.23548073      -1.02829306       4.52624996       2.91733874
F       21.20666151       9.25173308      16.83069086      -1.00000000      -0.03132472       1.72828532       3.24731472      -0.80994226      -1.89892663      -0.12509900
F       12.98229478       6.16610686       9.91859588      -1.00000000      -0.57216998      -1.53482851      -0.92939323      -0.76762434       0.48623211      -0.07812937
Be      14.99330588       4.50862483       6.36418554       2.00000000      -1.75955311      -0.93449010       2.16309863       0.42073799       0.33924651       1.38222598
F        9.62667782      10.20205639      17.94387558      -1.00000000       2.91924917      -2.17557422      -2.37190368       0.83989978       1.90897907       1.57616574
F       17.13447968      13.17930143      18.80511332      -1.00000000       0.61599553      -0.31159064      -0.10670254       0.56603270       2.46223751       1.64973374
Be      17.22289567       9.69902762       2.73465443       2.00000000      -0.61825876      -0.57621470      -0.64451077      -3.00774993      -2.06207898      -0.80049924
F       15.73656558      20.10985659       5.49852858      -1.00000000      -3.61800847      -0.92739666       1.02027768      -2.24696517       0.02042012       0.18534207
F       16.98616345      18.38590575      14.59876911      -1.00000000      -1.23292381       1.08634941       0.38541112      -1.42101163      -0.08810104       0.99766007
Be      20.24777933      10.26219591      15.75948544       2.00000000       0.17278080       1.01925832      -0.05028966      -2.31326103       0.49436575      -0.48460949
F       14.86206154      10.58127459      13.49935671      -1.00000000       0.57424999       0.91913701      -0.72801405      -1.76694814      -0.82360224       2.04812715
F       14.61028165      14.80891837       3.88181318      -1.00000000       1.13228369       1.33328992      -0.75077530       1.00792933      -1.03585932      -0.97303755
Be      20.99280110       9.38989582       7.35304308       2.00000000       0.24773675      -1.30262844      -1.07656735       2.12307181       1.81468024       0.20083961
F       13.52549482      15.26673470       8.17837130      -1.00000000      -0.73644183       0.34457492       0.39680259      -0.84706420      -0.96052101       0.01733574
F       20.88197592      10.11719808      19.14013807      -1.00000000      -3.54259968       1.51651281       0.43934209      -1.95488380      -0.88044951      -0.46834974
Be      24.94080467       9.09958003       1.69354932       2.00000000      -0.40640391      -1.82560039       0.19416840       2.32238150       3.07406720       2.75269534
F       25.06756209      -0.19795558      -4.49476295      -1.00000000      -4.06996175       2.43849751       4.15764686       0.52165156      -0.18548416      -1.59336295
F       28.53838979       9.30320462       3.16344747      -1.00000000       1.54193085       1.11875439       0.69884297      -1.68234892      -0.47586146      -1.14300651
Be      20.63601740      -0.75644757       2.75718449       2.00000000       0.17172161      -2.08742189       2.99675640      -0.47919846      -2.61655042      -1.43803590
F       26.36322438       5.44327469       1.37153989      -1.00000000      -1.38390749       3.53080037      -3.80710634      -2.09157937      -0.12592772       1.41022623
F       23.11307313      -0.15100025      -3.03460660      -1.00000000      -0.31051392      -1.89740246      -2.35067144      -0.27196389      -1.15218094      -1.18762511
Be      30.20580156       0.29007901       6.01728090       2.00000000       1.14235128      -3.43815627      -0.80873943       1.20410778       2.89284855       0.31944489
F       28.82104394      -2.95378408      13.65027916      -1.00000000      -1.02207953       3.96104525       1.38761049      -1.24795050      -1.33946441       0.64746645
F       36.64335361       6.86629947      -3.44188555      -1.00000000       0.23065072      -3.78295986       0.41577475       3.22364382       1.22605716       0.84352654
Be      33.51663362       5.76796944      -1.93410067       2.00000000       1.50019670       0.95361583      -0.51423050       1.66092077      -0.37591955      -0.19685530
F       30.97275138       5.55959443       1.90619916      -1.00000000       0.71403698       1.47302346       0.44675309      -0.36006835      -0.31050820      -1.05313531
F       26.88891909      -2.33161674       3.62160335      -1.00000000      -1.29879054      -1.07786880       0.56812861      -0.45424799       2.25830766      -0.91673771
Be      22.28635012      -6.49897210      16.44381447       2.00000000       1.88399320      -1.89842418       0.51062606      -1.10237951       1.80848944       0.25951598
F       10.81330055      -9.76087596      11.79659379      -1.00000000      -0.97683226      -4.09906519       1.40119484       0.97037608      -1.32029414       0.25726039
F       25.67647742       3.04331951      13.43376577      -1.00000000       0.00020548       0.66710395      -2.43729853       1.61418722       2.12517193       1.11248706
Be      21.77357951      -1.05599110      13.80298793       2.00000000      -1.44393208       0.99373020       2.84014326       0.62176608       0.49222339      -0.52063041
F       17.10584866      10.36906080       4.27755173      -1.00000000       0.61981453      -1.10807722       3.42761156       1.05810903       0.29361160       0.21820405
F       27.53584881      -3.19156538       1.36920171      -1.00000000      -1.28043143       0.26026336       0.16190304       0.02603243      -0.25205219       0.80866841
Be      26.60645804     -10.09728943       4.12613941       2.00000000      -0.32419876      -0.07853613       1.41096856      -0.36797650       0.11183296      -0.05319631
F       24.67769606      -2.40371230       8.51164781      -1.00000000       2.58739783       0.30777905       1.21116596       1.87882890       2.53666529       1.16393892
F       26.87555332       2.75701508       1.45729914      -1.00000000       0.94096567       1.80756833      -0.88991668      -1.75445286       0.27931406      -2.06552904
Be      28.30395582      -3.77291869       9.12267069       2.00000000       3.95691907       0.66975447      -0.85091850      -0.74944267      -0.23485938       0.44836295
F       20.68269529       3.84607780      11.05923418      -1.00000000      -0.03728398      -2.62146362       2.63072540      -0.17883158      -1.22068807      -1.11633135
F       32.17983738       5.71290736      11.28312097      -1.00000000       1.36408996      -3.52452769      -0.73900733       0.71678502       0.41518629       1.40814663
Be      17.25016624       3.68046701      12.83897016       2.00000000      -1.61764392      -1.21112186       1.10300244       1.83719315      -1.17316044       0.59527537
F       20.28847824      -5.23342306      13.59513578      -1.00000000       1.19109507       2.79849323      -0.34577992       1.31814096       1.76611279      -2.56826676
F       27.26641210       9.76518389      10.40882568      -1.00000000       3.59381174       2.96421856      -2.04020362      -1.29684722       0.38143369      -4.16271577
Be      20.98792685       2.62556343      16.68745380       2.00000000       0.43403174      -0.01487360       0.58096211       0.09973478      -0.06622392       2.74195894
F       23.89102549       4.56866060      16.27464749      -1.00000000      -1.07367036       0.60641409      -1.29863191      -0.36450995       1.07735598      -1.76943671
F       17.16068138      -2.27052769      13.98898683      -1.00000000       1.16603992       1.52464540       0.65268669       0.27384556       1.63478162       1.91349691
Be      15.66494101      -8.08340511      12.48841263       2.00000000      -0.55350286      -2.37172447       1.45574542       1.12123705       1.25302232      -1.30141289
F       24.36750031      11.15536018      16.28807947      -1.00000000       2.27273148      -0.44130932      -0.10444929       0.73869431       0.66304316       0.24333672
F       18.87425145       5.07826180      14.82147292      -1.00000000      -0.91588714      -0.85598916      -1.52960799       1.01736118      -1.14898637       0.77783299
Be      24.88302148       5.94831385      16.61732518       2.00000000      -0.32733723       0.98737162      -2.30489344      -1.03606532       0.49769598      -0.63964805
F       24.36324652       0.32748128       6.57165630      -1.00000000      -0.21171170       1.10559863       2.08528569       0.97504162       0.80662033       0.51064125
F       26.39159783      -9.23532187       7.97384739      -1.00000000      -2.08270922      -0.00062147       0.65196171      -0.92555633      -0.22065695       3.00278622
Be      29.32495013       0.32225733      -3.07752856       2.00000000      -0.23564816       0.06609358       1.03799080      -3.58224333      -0.74187132       1.00727770
F       22.82996002      -4.97353192       6.76026970      -1.00000000       0.52224293      -1.11981526       0.74121091      -2.34600490       1.70387250       1.49016774
F       27.89429383       5.44646491      -3.69627830      -1.00000000      -1.06087634      -1.60597357      -1.02807703       1.41383635      -1.04877473      -0.38447768
Be      23.99673477       8.52294472       6.36660024       2.00000000       1.03010300       1.46369987      -0.67333371       1.44040399      -1.37218804       2.99268705
F       30.47609598       9.38419588      -8.03738092      -1.00000000       3.33173659       0.07430024       1.37683618       0.81746128      -0.29013259       1.70024187
F       33.17925201       6.81636492       2.00387645      -1.00000000      -0.98111033      -0.20524435      -1.76449995      -0.99776554      -2.17555726      -0.18994488
Be      29.06491334       2.22174084       3.49661640       2.00000000       1.50720079       0.56173858       0.29575746       0.15688374      -1.55084123      -2.79927837
F       23.55198961       2.59684666       5.05611183      -1.00000000       1.46898325      -2.52795162       1.09793116       0.87565303       0.63214489       0.66229582
F       25.60288319      18.79819224      -3.32184284      -1.00000000      -3.15651021       2.46353274      -1.74575558       1.33217820      -1.98619111       0.36042899
Be      26.63618349       8.09117931      -1.02043981       2.00000000       0.43295409       0.09360892       1.57280022      -0.39262378       1.70236437      -0.93802347
F       16.17636135       5.09943030      17.17429330      -1.00000000       2.73904422       2.68716333       3.15550483      -0.56191815       0.15418640      -1.45778049
F       14.69930143       8.42910216       1.87117645      -1.00000000       1.49964424      -1.16282881      -1.77056193      -0.33339079      -1.21152230      -2.01042626
Be      19.59434918       1.60613198       7.55728203       2.00000000      -1.23764680      -0.12589278      -0.02803920       1.66219411      -1.73533118      -1.70482828
F       18.24517891       3.91666395      11.45857698      -1.00000000       0.12071148       1.22004298      -0.70029700      -0.46988435       0.36504552       0.24989033
F       27.65686396      10.40250053      21.83928841      -1.00000000      -0.94292851       0.39282013      -0.94070954       0.05731899      -0.82446509       1.98447645
Be      32.10977933       1.15546529       3.64870462       2.00000000      -0.16918387       0.66514427       0.48964917      -2.20219606       0.55922437       2.14122894
F       33.16721940      10.90436435      16.72976455      -1.00000000      -1.25994714       2.63229757       3.66129460      -0.69167434       0.14711747       0.75775678
F       20.55681493       0.10229218      13.42957760      -1.00000000       1.13110999      -2.55106760       0.68220677      -0.09622729       2.33387411      -0.88998109
Be      31.77910903      -6.20664962       5.94369604       2.00000000      -0.37265203      -0.82841281      -2.21549011       0.33160402       0.82661027      -2.06000015
F       29.40077101      -7.07281210      11.65957450      -1.00000000      -4.47722517      -0.21264217       0.78601244      -1.02453962       0.02099582      -2.45175304
F       24.62211469      -1.93625461       4.20645929      -1.00000000       0.22158093       4.59392730      -0.26285741      -2.54293303      -1.00752655       1.12903863
Be      30.77557934       6.43331284      11.71918798       2.00000000       1.02388938       1.16168591      -1.03525669       0.06768935       2.57963993       0.95679930
F       24.52529077       3.63683985       7.56833380      -1.00000000      -1.76733264       1.32983261       0.64641327       0.67735624      -0.24988149      -1.34687708
F       18.79225112      -1.26709075      11.88544819      -1.00000000       3.24439759      -1.15937732      -0.96463135      -1.33678782      -1.69879302      -0.93334607
Be      31.65629795     -11.11168210       9.53988746       2.00000000      -0.91157960       1.64659986       0.76333413      -0.43054919       1.51599695      -3.03466516
F       28.77750810       2.48405836      10.35637560      -1.00000000      -2.87432230      -0.60242024       2.27083605      -1.71413030      -0.87888996      -2.63928296
F       26.46365596       9.32298946      14.83374062      -1.00000000      -1.07774605       2.57421786      -0.16872920      -1.38516137       0.29849159       0.76410780
Be      22.93106048      -0.86560206      18.65445354       2.00000000      -1.29139869      -0.64320082      -0.23544423       1.33193403       1.30598138       1.29108733
F       26.24786053       2.29178985      23.01242159      -1.00000000      -0.28686199      -3.81069682      -1.36247455       0.96934068       1.85673104      -0.35133008
F       16.37820434      -9.05806169       7.74484163      -1.00000000       0.98908597      -0.66012341      -0.02575541      -1.38519502      -1.25553544      -1.11629563
Be      26.58534290       6.55307238      21.53043744       2.00000000       2.38066442       1.41719547       2.01300325       2.62143270      -1.64561041       1.49562851
F       28.19521750       3.52347985      18.20996810      -1.00000000      -1.34744589       0.31184794       1.33072247      -0.62335234       0.47085882       0.30853260
F       23.86569692       2.42952211       9.68331650      -1.00000000      -0.06561941      -0.75348253       0.59617550      -1.53076819       0.23828446      -0.54529287
Be      36.82704314      12.16981896      17.43959995       2.00000000       1.70025552      -0.06965523      -3.16206958       0.58948598      -1.22707717       2.70465390
F       25.85824510       9.53318618      17.29141008      -1.00000000      -2.01275624      -1.19163497       2.57986543      -0.34399944       1.39811209      -0.77248561
F       29.27837317      11.65299495      22.79270871      -1.00000000       2.36042522      -3.00991750       0.00779986       2.45066493       1.14827549       0.44471461
Be      22.03139701       2.27021817       5.38317517       2.00000000       1.21294850      -0.43684990       1.03342205      -0.94241588       0.10940769      -0.46595507
F       22.53809494      11.43311518       5.12129496      -1.00000000      -1.93595217      -1.25395570       2.84140017       3.28810211       0.88346972      -1.99115287
F       27.17008534      13.00769349       6.95027760      -1.00000000       0.54934675      -0.37113047      -0.39189792      -1.54759905       0.36259510       0.88901854
Be      22.36801328      14.44864760       6.96027628       2.00000000       0.92532095      -1.22627747       0.40356839      -0.69688387      -2.61552038       4.40589926
F       20.87165559      12.19692912      -1.37163053      -1.00000000      -1.20504773       0.78608200      -1.92628156      -0.25179163      -0.64755324       0.25505170
F       28.99837015       7.31218510       0.92980103      -1.00000000      -2.58628396       1.94862793       0.14659162       0.57778324      -1.31571345       2.50450645
Be      24.86505302       1.77245746       4.91593030       2.00000000       0.30012543      -3.17934732       0.69248148       0.76360086      -0.64529409      -1.81971576
F       17.92536109       1.93093276       4.65805353      -1.00000000      -2.57287651       2.05405767      -0.47261675       0.03602040       0.35039027       0.84424052
F       31.77702482      10.56723538       4.75730754      -1.00000000       0.32994308      -0.17825867      -0.71087851       0.20175784       1.89654644      -0.86612603
Be      19.34144029      14.96616562       0.18935806       2.00000000      -0.69185847      -1.22035802      -1.10564694      -0.03374297      -1.63874753       0.84691984
F       26.95215078       4.90936002      -8.23191670      -1.00000000       0.89448025      -0.48440558      -1.26825880      -0.16847090      -2.11794014      -3.10656760
F       15.57149459       4.57821853      12.72923276      -1.00000000      -2.35242029      -0.72458662       2.29797353       0.53065918       0.08726655       1.14076091
Be      31.63737568      -0.60773869       0.86553477       2.00000000       1.35260329       0.98807239      -3.50743727      -0.13486551      -0.20865093       0.00152069
F       18.95045782       7.35744894      13.92148198      -1.00000000       0.19853045      -3.60343871      -0.86551791       0.22362015      -1.96183711       0.30673983
F       30.42997347      18.43612809      24.67361298      -1.00000000       1.50473477       0.29191273      -0.45046232       0.55839550       0.23644220      -0.89721131
Be      23.53844891       7.39251422      13.66773468       2.00000000       1.23845623       2.74157545      -2.15596650      -0.83971059      -0.56691082       0.70014447
F       23.27546862       5.72276933      14.29994213      -1.00000000       0.26057984       0.06518569       2.13341680       0.96583626       1.81868033       1.40018366
F       29.78875312       2.66843143       1.84989983      -1.00000000       0.48571128      -0.91179923       0.30910185       0.04488866       0.82482434       1.91884516
Be      26.87219506       1.44873717      -1.22702430       2.00000000       0.64714086      -2.90204753       0.42037689       1.06025168       0.18954280      -1.61012756
F       27.28022139       0.61373861       0.05451334      -1.00000000       0.76455616      -1.34118117      -0.10438238      -0.13770698      -0.33188176       1.82987987
F       19.47066858       4.67687269       4.86960069      -1.00000000      -2.17773165      -0.54982300       2.99164093       1.61935442       2.02593677       2.36187081
Be      26.33641243       3.56348876       7.26222173       2.00000000      -2.01258584      -1.26051092      -0.56768765       0.21084660       1.16646009       0.21322788
F       32.76619979      -1.17632092       4.19748722      -1.00000000       1.76189732      -1.35101285      -1.40194958      -3.25459834      -0.43529908      -3.72758239
F       24.21582773       0.39614538       4.13513359      -1.00000000       3.08714028      -1.77413403       1.45903423      -0.48203213      -1.14915937       0.08177630
Be      14.67692233       2.77070814      13.67770677       2.00000000       2.72323245       0.06916338      -0.46306766      -0.63657640      -1.62759055      -0.29842872
F       21.76598574       7.30205909       4.11335101      -1.00000000      -0.90111694      -1.18966183      -0.60077362       1.07178244      -1.15119583      -1.87442237
F       38.98819733      22.64689272      12.26576392      -1.00000000       2.97557576       2.10493817       1.18684112      -0.73790459       1.05970080      -0.07109754
Be      18.00820787      11.93107442      18.26215340       2.00000000      -1.51009113       0.79065824      -0.39565700       0.33611391       0.34621276       1.78971030
F       21.93916656      15.98454538      21.74198229      -1.00000000      -3.92207388       1.24310793       0.29092585       0.16532182       0.56070916       0.07273754
F       29.38263880       5.68847289       7.30948513      -1.00000000      -0.98923599       2.42261424      -3.34306620      -0.01548010      -3.60008616       2.46372887
Be      27.07633359      10.66060671      14.00600974       2.00000000       0.34836039      -1.75508760       1.73844267       2.27440939       2.11993697       2.86562128
F       21.16508969       4.58271134      13.97977064      -1.00000000       1.94048649      -1.61833040      -1.16594773      -0.03256312       0.55074305       2.41144652
F       32.35843937      18.50710889      17.10453002      -1.00000000      -2.34797439      -0.33697160       0.64154040       1.61145147      -0.77952890      -1.31603691
Be      24.82665304       4.05981868      12.28257864       2.00000000      -0.91790724       1.90192757      -2.83512539      -2.74189968       0.69988571       1.10093994
F       18.34407762      14.75762927      13.24117908      -1.00000000      -1.62021356      -2.60215210       1.86880586      -0.66898020       1.41849521      -1.64668916
F       17.45802915      20.97215773      12.32240286      -1.00000000      -2.39915521      -2.19444582      -0.60772477      -1.89707713      -1.36708227      -2.31233060
