64
Lattice="8.06 0.0 0.0 0.0 8.06 0.0 0.0 0.0 8.06" Properties=species:S:1:pos:R:3:magmoms:R:1:forces:R:3 energy=-270.397664372841 free_energy=-270.397664372841 dipole="-6.868985913326984e-09 -1.9085596142403186e-08 3.1396348338698798e-09" magmom=0.0 pbc="T T T"
Li       0.00000000       0.00000000       0.00000000       0.00000000      -0.00000721      -0.00001843       0.00000232
F        2.01500000       0.00000000       0.00000000       0.00000000      -0.00005186      -0.00000865       0.00003786
Li       0.00000000       2.01500000       2.01500000       0.00000000       0.00000789      -0.00001747      -0.00001129
F        2.01500000       2.01500000       2.01500000       0.00000000       0.00001564       0.00005484      -0.00002803
Li       2.01500000       0.00000000       2.01500000       0.00000000       0.00000706       0.00001413      -0.00015012
F        0.00000000       0.00000000       2.01500000       0.00000000      -0.00003548       0.00006319      -0.00053632
Li       2.01500000       2.01500000       0.00000000       0.00000000       0.00001301      -0.00013160       0.00003727
F        0.00000000       2.01500000       0.00000000       0.00000000      -0.00016357      -0.00018910       0.00000518
Li       0.00000000       0.00000000       4.03000000       0.00000000      -0.00000152      -0.00000192      -0.00000177
F        2.01500000       0.00000000       4.03000000       0.00000000       0.00012161      -0.00003054       0.00001616
Li       0.00000000       2.01500000       6.04500000       0.00000000      -0.00000944       0.00000128       0.00003723
F        2.01500000       2.01500000       6.04500000       0.00000000       0.00001780       0.00001742      -0.00003224
Li       2.01500000       0.00000000       6.04500000       0.00000000      -0.00002291      -0.00001500       0.00013570
F        0.00000000       0.00000000       6.04500000       0.00000000      -0.00000145      -0.00013896       0.00055021
Li       2.01500000       2.01500000       4.03000000       0.00000000       0.00000728       0.00014076      -0.00002643
F        0.00000000       2.01500000       4.03000000       0.00000000       0.00009722       0.00023347      -0.00010597
Li       0.00000000       4.03000000       0.00000000       0.00000000       0.00001814       0.00002489       0.00000893
F        2.01500000       4.03000000       0.00000000       0.00000000      -0.00017000      -0.00003915       0.00003771
Li       0.00000000       6.04500000       2.01500000       0.00000000       0.00002112      -0.00000927      -0.00005681
F        2.01500000       6.04500000       2.01500000       0.00000000      -0.00008419      -0.00004725      -0.00002681
Li       2.01500000       4.03000000       2.01500000       0.00000000      -0.00001623      -0.00001847       0.00013928
F        0.00000000       4.03000000       2.01500000       0.00000000       0.00020792       0.00004007       0.00025374
Li       2.01500000       6.04500000       0.00000000       0.00000000      -0.00008347       0.00014474      -0.00000695
F        0.00000000       6.04500000       0.00000000       0.00000000       0.00016581       0.00017305       0.00001017
Li       0.00000000       4.03000000       4.03000000       0.00000000      -0.00000875      -0.00000421      -0.00000895
F        2.01500000       4.03000000       4.03000000       0.00000000       0.00013555       0.00008830      -0.00010014
Li       0.00000000       6.04500000       6.04500000       0.00000000      -0.00002023       0.00002529       0.00003103
F        2.01500000       6.04500000       6.04500000       0.00000000       0.00001536      -0.00004362       0.00005693
Li       2.01500000       4.03000000       6.04500000       0.00000000       0.00003362       0.00001894      -0.00012501
F        0.00000000       4.03000000       6.04500000       0.00000000      -0.00008292       0.00002568      -0.00023745
Li       2.01500000       6.04500000       4.03000000       0.00000000       0.00006165      -0.00015366      -0.00000442
F        0.00000000       6.04500000       4.03000000       0.00000000      -0.00018747      -0.00019835       0.00009911
Li       4.03000000       0.00000000       0.00000000       0.00000000      -0.00000875      -0.00000421      -0.00000895
F        6.04500000       0.00000000       0.00000000       0.00000000       0.00013555       0.00008830      -0.00010014
Li       4.03000000       2.01500000       2.01500000       0.00000000      -0.00002023       0.00002529       0.00003103
F        6.04500000       2.01500000       2.01500000       0.00000000       0.00001536      -0.00004362       0.00005693
Li       6.04500000       0.00000000       2.01500000       0.00000000       0.00003362       0.00001894      -0.00012501
F        4.03000000       0.00000000       2.01500000       0.00000000      -0.00008292       0.00002568      -0.00023745
Li       6.04500000       2.01500000       0.00000000       0.00000000       0.00006165      -0.00015366      -0.00000442
F        4.03000000       2.01500000       0.00000000       0.00000000      -0.00018747      -0.00019835       0.00009911
Li       4.03000000       0.00000000       4.03000000       0.00000000       0.00001814       0.00002489       0.00000893
F        6.04500000       0.00000000       4.03000000       0.00000000      -0.00017000      -0.00003915       0.00003771
Li       4.03000000       2.01500000       6.04500000       0.00000000       0.00002112      -0.00000927      -0.00005681
F        6.04500000       2.01500000       6.04500000       0.00000000      -0.00008419      -0.00004725      -0.00002681
Li       6.04500000       0.00000000       6.04500000       0.00000000      -0.00001623      -0.00001847       0.00013928
F        4.03000000       0.00000000       6.04500000       0.00000000       0.00020792       0.00004007       0.00025374
Li       6.04500000       2.01500000       4.03000000       0.00000000      -0.00008347       0.00014474      -0.00000695
F        4.03000000       2.01500000       4.03000000       0.00000000       0.00016581       0.00017305       0.00001017
Li       4.03000000       4.03000000       0.00000000       0.00000000      -0.00000152      -0.00000192      -0.00000177
F        6.04500000       4.03000000       0.00000000       0.00000000       0.00012161      -0.00003054       0.00001616
Li       4.03000000       6.04500000       2.01500000       0.00000000      -0.00000944       0.00000128       0.00003723
F        6.04500000       6.04500000       2.01500000       0.00000000       0.00001780       0.00001742      -0.00003224
Li       6.04500000       4.03000000       2.01500000       0.00000000      -0.00002291      -0.00001500       0.00013570
F        4.03000000       4.03000000       2.01500000       0.00000000      -0.00000145      -0.00013896       0.00055021
Li       6.04500000       6.04500000       0.00000000       0.00000000       0.00000728       0.00014076      -0.00002643
F        4.03000000       6.04500000       0.00000000       0.00000000       0.00009722       0.00023347      -0.00010597
Li       4.03000000       4.03000000       4.03000000       0.00000000      -0.00000721      -0.00001843       0.00000232
F        6.04500000       4.03000000       4.03000000       0.00000000      -0.00005186      -0.00000865       0.00003786
Li       4.03000000       6.04500000       6.04500000       0.00000000       0.00000789      -0.00001747      -0.00001129
F        6.04500000       6.04500000       6.04500000       0.00000000       0.00001564       0.00005484      -0.00002803
Li       6.04500000       4.03000000       6.04500000       0.00000000       0.00000706       0.00001413      -0.00015012
F        4.03000000       4.03000000       6.04500000       0.00000000      -0.00003548       0.00006319      -0.00053632
Li       6.04500000       6.04500000       4.03000000       0.00000000       0.00001301      -0.00013160       0.00003727
F        4.03000000       6.04500000       4.03000000       0.00000000      -0.00016357      -0.00018910       0.00000518
