8
Lattice="4.03 0.0 0.0 0.0 4.03 0.0 0.0 0.0 4.03" Properties=species:S:1:pos:R:3:momenta:R:3:stresses:R:6:energies:R:1:forces:R:3 stress="0.05242818983405834 -0.00593005061968143 0.0002820498157093762 -0.00593005061968143 0.06274838717272291 -0.03933232315397539 0.0002820498157093762 -0.03933232315397539 -0.04275043009835138" energy=-18.692449252203893 free_energy=-18.692449252203893 pbc="T T T"
Li      -3.79516750      -0.29045932       2.10782444      -0.71006879      -0.81221494       0.09950427       0.00278527      -0.01468948      -0.01278038       0.00822913      -0.01064160      -0.00292439      -2.14271873      -0.95574327       2.10572686      -2.61802879
F        4.35741052       0.33226810      -1.01248936       0.58132758       1.99343067       0.77987766      -0.00418997       0.01464470      -0.00288922      -0.00670546       0.00880020       0.02135895      -2.46591767       0.62835950      -3.33843898      -0.13815066
Li       0.43569411       3.23091397      -0.98509561      -0.47757560      -2.04810235       0.62303120       0.02606763       0.00577228      -0.02769412      -0.00066850      -0.00825540      -0.00352498      -2.69416647      -1.74646658       0.03730013       3.42988843
F        3.78593198      -1.25967362       2.32152402       1.44281905      -2.12635415      -0.58114720      -0.00837189       0.01086988      -0.01469376       0.00676958      -0.00181388      -0.01472155      -2.04434798      -1.83457939       0.26664191      -1.73793307
Li      -0.71283825      -0.22589142       2.72161848       0.89892903       1.77635288       0.07911798       0.03916218       0.02161055       0.01034927      -0.00729636       0.00676101      -0.00779860      -3.12157730       5.30232757      -4.70908993       0.50700311
F       -0.64668643       0.69104601       3.31819283      -1.26572615       3.24584383       0.65386273      -0.01944907       0.00816500      -0.00205891      -0.01229611       0.00635519       0.00055014      -1.60988722      -2.15810352       0.84385045       2.29704011
Li      -0.69264945       2.81377208      -0.71182568      -0.53296916       0.42204464      -0.05870995       0.01652142       0.01232072      -0.01019389      -0.01489985      -0.00221923       0.00549831      -2.01752683       0.96688115       1.26725750      -0.29048088
F       -0.25391079       3.71902682      -0.26938416       0.06326404      -2.45100060      -1.59553670      -0.00009738       0.00405475       0.01721056      -0.01246477       0.00129576      -0.00436792      -2.59630706      -0.20267545       3.52675207      -1.44933825
