512
Lattice="21.72 0.0 0.0 0.0 21.72 0.0 0.0 0.0 21.72" Properties=species:S:1:pos:R:3:momenta:R:3:forces:R:3 energy=-2335.649268974775 free_energy=-2335.649268974775 stress="-0.00874031918402029 0.0006703359499343093 -0.0006887533782479114 0.0006703359499343093 -0.00972421710021951 0.0008477536533744385 -0.0006887533782479114 0.0008477536533744385 0.0005634465442749026" pbc="T T T"
Si       5.99716499      27.87590139     -26.25127186       3.05051067      -4.52499716      -0.21937691      -1.64275377       0.06053944      -1.61880875
Si      13.74745125      10.91570506      -1.59390805       7.29516708       2.65415087       1.74953918      -0.31261180      -0.20304616      -1.36500577
Si       2.84502188      31.47283506     -19.02713803      -1.43422107      -0.78354459       0.87208486       0.77387797       0.48146514       0.23608045
Si      16.30245785       2.49350485      -7.43428515      -2.57220136       6.64384762      -4.85471565       0.54697308       0.67439335       1.18753043
Si      -0.05813101      -3.25143869     -25.61932596      -2.91486059       1.55282018      -1.04797916       0.38861394      -1.96347971      -0.48991214
Si       1.43721611       4.44337009     -16.68836693      -4.28764751       6.52813880      -0.81253958       0.75686950      -0.06788616       0.54452807
Si      12.58670298      16.17591733     -12.09416881      -5.91155132       8.97354763       2.39128313      -5.38216839      -0.45021514       1.94582742
Si      -4.18599665       1.04217771     -19.14543961      -2.16029225       1.63975775      -1.41607759       2.82342208      -0.25738838      -0.86069623
Si       1.99107259      20.95149530     -32.37423610       2.39426910      -7.27489494      -2.99249527       1.02777488       0.72805635       0.47019720
Si      12.56249621      16.80229874      -9.55875067      -3.39650356      -2.58103133      -2.78018627       0.64087042       1.14553285      -0.27893668
Si      24.33054931      17.01191067     -30.57111621       3.18538974       2.58812982      -4.14234377       1.24722701      -0.44955134      -0.74910785
Si      15.84794781      15.51832414     -19.56214475       2.95125955       6.83898459       2.69767361       1.07717090      -1.66244990      -0.21303757
Si       8.92723195      15.29340224     -25.91307969      -0.56392983      -0.64365790       0.72874553       0.31371208      -0.77138011      -0.05850453
Si      14.07979909       7.07181369     -17.57455480       2.78497597      -2.92354056      -3.91701746       1.13934929       0.24006858       0.46059011
Si      -4.47742699      20.23846229     -12.64348491      -3.04011079      -4.60042004      -3.39315502      -1.00861402      -0.20584646      -1.10530328
Si      15.38139131       9.30876122     -17.11004721       3.92385907       0.69043373       4.45275105      -0.26264882      -0.06590532       0.15796979
Si      28.57874790      22.62521073     -10.93764096       7.45338475       3.57865593      -0.35345217      -0.05738383      -3.98141624       1.76080610
Si       4.57302229      13.02869671     -24.44409380      -4.33121984       4.18323116       1.96696326      -0.88531755       0.90893812      -0.56858464
Si      21.67151098      28.25664815     -18.85722857       0.30133884       9.44603620       1.57231563      -0.38394066      -0.68422672      -1.13468654
Si      31.62568663      39.58696475     -32.67879087       0.45272424      -0.74672113      -3.38409470      -1.44618185       2.75250522      -0.12958534
Si       0.64848244       2.88810831     -23.50514404      -1.03084510       3.22986050      -0.80909041       0.19229065      -0.06976899       0.68707849
Si      30.38074483       1.09680518     -24.37745899       3.99123260       2.66437535      -7.73308621      -0.47102821      -1.23367986      -0.12512448
Si      20.82187976      40.53599322     -38.18496523       3.25135656       3.37889807       0.82537290      -1.88530345      -0.59909116       1.11901221
Si      22.36627229       9.75499977     -16.60180192      -3.75634408       0.59311117      -2.17555573      -0.05903193      -0.56854425      -0.36367732
Si      10.52570681      25.08021595     -28.79334215      -2.11045076       4.04320936      -1.71705845      -1.13203691       0.28001720       0.20642375
Si      36.65534499      33.92123315     -34.60553911      -1.55452844      -4.38204248      -4.10451917      -0.01945345      -3.80243488       1.07660042
Si      25.76281180      18.79220789     -29.22718998      -2.10026629      -0.05829273       1.99908310      -2.56879568       0.40841330      -0.13012948
Si      24.39978826       7.15994472     -14.87528272      -0.07726592      10.10630359       4.00984355      -7.19492376      -1.36483219       3.33289131
Si      18.43413741      14.87952571     -19.58665446       0.37023054       0.18966573       0.98702932       0.87784778      -0.18861609       0.15031866
Si      21.11353796      29.85301619      -9.26106627      -2.80757298      -1.13506999      -5.96209092      -0.39476661      -0.50844230       0.33699555
Si      21.19412438      20.33109653     -24.61337261       2.00776638       6.43959016      -1.16527510      -1.33004303      -4.04684381       3.53469993
Si      25.44854517      26.85202289     -17.13956445       1.99761374      -3.09071539       8.45900948       0.31347819      -0.23067720       0.32531486
Si      11.71342178      29.70191924     -15.94339165       3.81912469       3.15972221      -7.03714422      -0.44224073      -0.11489675      -0.20472616
Si      17.40404481       5.15088002     -13.20889834      -0.17771107      -0.41159220      -0.56306220       0.09248738      -0.12480908      -0.89969607
Si       7.29482643      31.57702562     -23.86297503       0.12238727       4.27240719       2.46083713       1.88816907      -0.56689172       0.03459927
Si      15.13942531      34.87809937     -25.41791892       1.83813346       1.32903716      -7.86935986       0.17852710      -0.16391049       0.36706358
Si      14.13551825      17.19961112     -29.92813685       2.00305377       1.78490643      -4.22213706       3.17054683       0.31786350       1.91324895
Si      29.65657697      29.91539589     -19.43571092       0.77240582      -1.64263235      -0.70407330       0.51284025      -2.36205323       2.12321801
Si       9.95755607      25.49324508     -16.91520630      -0.33170171       1.01195338       0.68886125       1.18066813      -0.58165719      -3.41410677
Si       1.91067730      18.58753781     -10.89077584      -2.24327497       8.86183313      -0.46323594       0.21297106      -0.60956915      -0.22654991
Si       5.66816001      18.11933947       2.63200370      -4.32396200      -3.31463495      -4.15885322       1.70114197       0.21934361      -5.61581386
Si      19.36328959      24.65525366     -16.32095559      -3.02379251      -0.42604271      -3.60526413      -0.91319041       0.85493084      -0.58966949
Si      13.19861062      12.44524891     -16.28998422      -0.68873659       1.37932592      -8.18084506       0.14290673       3.97497759      -0.16966130
Si      21.52533231      45.82319968     -13.63047406       5.63374089      -1.14593868       0.93416754       2.14925004       0.35144902      -1.00390087
Si      28.02684942      24.41936252     -33.48156283      -0.73611630       1.09434478      -1.26430318      -1.38386128       3.91034196      -1.77061232
Si      28.60347316      37.49538942     -26.57353931      -2.12094573      -6.18897003      -2.00817985      -0.76583611       1.87324929      -2.32532563
Si       9.64348504      10.78970301     -11.93534428       0.51314707      -3.74026743      -0.34002257      -0.02030773       0.58780826       0.42752441
Si      14.56716954      41.92285366     -18.42528241      -3.86652104       4.49190180       1.13320971       0.35692642       2.44506685      -1.46831311
Si      34.47060906      38.18580031     -22.52949409       5.56338532       1.04507907       2.34849198       1.39763326       1.59112050      -0.98397945
Si      24.55276425       3.75920575     -14.39635425       2.58651046      -5.18855889      -5.17508179      -0.04129208       0.75513309      -0.08947872
Si      30.15366703      26.69326065     -23.20598054       3.61800927       1.10108052       3.20130263      -0.03936936       4.42634682       4.39701061
Si      36.09607254      20.28418210     -28.04299563      -0.42537075       3.66775047       0.56852919      -0.64755519       0.57803691      -0.38127897
Si      31.11638873      39.73388997     -21.42199639      -0.70727078       2.73444057      -5.33686133       0.09616388      -0.58758622      -0.97158240
Si       5.29404534      25.93022819     -28.59547233      -0.17491370       0.63099865      -5.55130044      -0.56080354      -0.58482776      -1.23202556
Si       8.05421357      20.07552688     -19.52564926       0.89272894       2.33000549      -2.08329791      -0.60068608       0.46292031      -0.73495049
Si      14.20394707      18.61105638     -17.05161273      -0.72127740       4.14697173       1.82511400      -1.43006563      -2.36667162       0.94388249
Si      43.36953865      25.85432267      -7.40340383      -1.18126390       0.08815807      -1.48118602      -0.84947308      -0.48268320      -0.25814155
Si      33.31677481      21.16219065     -31.34140502       0.61315544      -1.10997790      -1.05727008      -0.92279782      -0.30559868      -0.19409606
Si      23.75904182      15.54493946     -41.06271494       0.49618481       0.54538903       0.36530457      -0.65529533       0.17615838       0.18703516
Si      44.68277156      27.58150421     -13.31488848      -0.56886743      -5.10299017      -1.09310177       2.63755664      -2.42212112      -1.15155398
Si      28.88804422      22.41868177     -13.35494886      -3.24109026       4.96543361       0.33492956       0.56893856       0.36535491      -0.32566361
Si      31.53570651      20.85318479     -13.91024671       0.61506181       5.37972842      -5.37826121      -0.84809922      -1.17980955       1.60955989
Si       9.71475025      16.49850457     -34.45831559       0.13733297       4.33772490      -3.48037260      -0.38810284       0.01362521      -0.97665330
Si      32.54908676      12.19237000     -14.70003122      -1.60512321       0.04079746       4.18027224       0.96643373       1.47288422       1.40129264
Si      26.77649358      29.35782440     -23.95010615       4.41628326      -4.22581009       4.25816788       1.07784014       0.66064709       0.23610969
Si       4.34203728      37.72004414     -19.49772739      -0.51049733       0.19835701      -6.26488439       1.06162894      -0.54900018       1.07513331
Si      14.99421545      24.66333512     -24.27070917      -0.57456628       4.73749892      -4.64274843      -0.18522234       0.66681316      -0.11919872
Si       6.76404073      58.36353090     -18.85913119       1.33477965       4.24741488      -3.38379245       0.04025073       0.32802606       0.26156059
Si       8.05291350      32.44371412     -27.04898158       1.64837059      -0.46921757      -0.88363365      -0.42828238      -0.77490731       0.31262469
Si      -3.46622853      42.55533217     -30.04822241       1.23061979       0.85044125      -0.66597182       1.02733179       0.63159148      -0.43647426
Si      17.94136967      19.15033719     -16.91384570       1.65608179       1.79442237       1.66045268      -0.11339175      -0.15310224      -0.46539295
Si       7.75585207      31.23340063     -15.94001685       2.20688057       4.39510450      -2.20993511       0.15835202       0.12203335      -0.44846141
Si      35.47288742      15.33004664     -17.00921580      -0.29417971       0.92024577       2.83281205      -3.29811052      -2.63117568       1.93515219
Si      13.61771203      42.31303388     -25.82241895       1.81532714      -6.82653372      -3.94268429      -0.29578966      -0.03654722       0.31027207
Si      23.34840467      33.29232836     -29.72311758       4.56901197      -3.45502918      -3.00934331      -1.60050846       0.65782155       0.24539864
Si      18.65509187      25.70352261      -0.72050472      -3.99810080       0.07337478      -0.50745503      -0.38793460       0.37795854      -2.68812812
Si      11.14957299      25.03944298     -33.95507090      -2.77809673       0.00741681       0.94212155       0.14488564       2.45898907       0.66821082
Si      23.96123347      22.45778250     -21.95970099       3.48541044      -1.52283871      -3.01343252      -1.41879756       1.62603627       0.47015988
Si      -2.01568578      35.84270083     -27.85659220      -1.21268719      -1.21112034      -3.97735545      -0.85733562      -4.57689997      -2.70547803
Si      13.15673448      19.15539111     -31.48625578       2.49937635       0.21879753      -0.26338554      -1.19734544      -0.34823875       0.82503811
Si      17.03765883      32.35954160      -1.16452430      -5.33985995       0.66942251       8.15357457      -0.39532140       0.69355898       0.40747971
Si      24.32319025      22.66131379      -6.10167270      -0.76894466      -3.74568377      -5.58996707       0.03401783      -0.00903563       0.23571355
Si      13.85341296      34.97589933      -1.19679051       0.02663305       0.76522033       1.25873654       0.80808392      -1.68540042      -2.44748762
Si      18.64378656      30.48421625     -17.87650213       0.88972929      -2.41151063       2.90018838      -0.66203128      -0.56553637      -1.29564353
Si       7.58443521      28.95846624     -22.76895029       3.77512063       1.47064738       2.09277362      -0.03953270       1.46012744       0.61427216
Si       9.06824524      23.23010231      -5.60434105       0.20778233      -1.50479683       1.25005023       0.03041204      -0.37673639       0.06465991
Si      37.37126846      49.58859663     -24.32226218       6.12075251      -0.99979762       1.60445898       1.92669032      -2.20601117       2.42433839
Si      29.54004689      28.35010524      -3.34641605       2.42037745      -2.77146683       3.93545525      -0.30512213       0.33134664       1.71759409
Si      37.06473477      25.79703728     -26.48617686      -1.66167348      -2.07965665      -1.86349113       0.11595632      -1.50077199       1.05692388
Si      32.84402063      30.54937413     -12.04725691      -4.49183431       1.96201721       3.22344069      -0.07993748      -0.79293912      -0.55950612
Si      33.02455855      24.90830432     -14.67077457      -3.75788213      -1.39267836       2.95154771      -3.75928620      -1.43040970       0.41045799
Si      26.86995189      53.81924081     -41.77881857      -6.64961834       0.86746919       0.58643015      -0.66949211       0.26061542       1.77476487
Si      22.40851444      35.60510276     -27.16853302       5.76782891       1.83136728      -7.50538524       0.79430346       0.77517467      -0.01446436
Si      49.55410235      26.98413211     -23.78583815      -1.18403529       1.45231974       2.10256893      -0.00172976      -0.97783265       0.07150422
Si      28.72368893      27.16665608     -36.54740343      -1.35561830       0.81698828      -3.01947120      -0.39043118      -0.29146616      -0.10753988
Si      29.16657293      53.29006563     -20.59399089      -1.91109839       8.36530898      -5.68933405      -2.25715241       3.02500072      -2.67424940
Si      11.23424291      32.86347131     -29.51675054       2.97311020      -2.72760788      -4.50991330      -0.10261460       1.00540035      -2.69045664
Si      10.05799939      29.60578948     -22.66969885      -0.84049444      -5.73932213      -1.45451169       0.17398370       0.95674344      -0.16382199
Si      19.51164248      34.92052080     -24.03024200      -4.56190523       0.94055342      -3.06081300       1.11791623      -1.80977289      -0.83039602
Si      16.74445964      28.54190186     -17.26301178       4.66846640      -1.90333101       2.97692393       0.19547094       1.10339710       0.30626732
Si      25.32644675      27.63801071     -24.23743522      -0.98915275       2.73390467       0.22259021       0.51820709      -1.88379028      -1.13924226
Si      16.22359607      18.77426032     -14.48311407      -6.49383236      -4.16101067      -0.90594103       0.19798228       0.01571522      -0.16191134
Si       6.64962512      42.25966341     -21.53271018       0.97418994       0.79621861      -1.42336901      -1.86991005      -1.29580074       0.23200992
Si      -2.49711412      40.22650556      -9.50251856       6.03899291      -0.11335432      -0.14869260      -1.44944782       0.98188057       0.38856281
Si      -0.07098667      33.94735249     -25.68870119      -2.80684846      -0.56612877      -3.17527586       0.16299791      -0.44256560       3.46693197
Si      28.10309017      22.90284906     -20.33920540      -1.47077397       3.15679941       3.78850439      -0.53168259       1.19575399      -0.39459972
Si      11.65902652      17.55031862     -18.00396468      -5.86130743      -6.38962593      -1.76681132       0.78836225      -0.14131399       0.12929005
Si       6.18009358      36.35330189     -24.93153585       1.20993471       1.15533255       3.22150548      -0.49714119      -0.48074808       2.79448024
Si      10.50164025      23.39618005     -10.29359160       0.99986795       0.30817316      -0.85878347       0.82647651      -0.85348835      -1.48810859
Si      13.15570745      32.21991394     -15.66004132       2.64749107       5.69875967      -0.24794303       0.22714966      -4.05763213       0.57709002
Si      21.02636116      15.82421857     -42.22558232      -0.46195375      -2.41656378       0.98548352       0.31145006      -0.88457211       1.39796620
Si      24.78746903      12.74426771     -26.33946578       2.57411912       1.46311054      -2.79341993       0.26063535      -1.03265130      -0.30341382
Si      26.31269231      21.97732374     -26.74450638       4.09458241       1.36252609      -6.16043804      -1.44913238       2.77512167      -1.67858070
Si      11.57587964       9.65021613     -23.91394297      -4.00554596      -4.92793069      -2.88511952       0.03729423      -0.33133323       0.54659634
Si      18.67374853      40.89734695     -20.27515125      -2.58718926       3.61086106      -4.60506283      -0.01830481      -1.75395113       0.27521912
Si      21.89896625      35.26679723     -11.48276817      -6.23264266      -3.54773067      -0.76359751       2.59802021       0.82536958      -1.66287407
Si      11.82791093      27.26172612     -28.09520330      -1.11641373       2.31865262      -0.66353275      -0.59634458      -0.58392639      -2.01751435
Si      32.35430336      15.96916655      -1.66234888       7.25862057      -4.47853840       2.47693284      -1.19414047      -0.05169857       0.06167267
Si      22.19693520      49.32102324      -4.93699999      -3.79851528       0.85751813      -3.59707658      -2.39274289       1.51559172      -1.13844065
Si      25.10951585      36.60813176     -15.59270514       1.97111529      -2.32136308       1.60016172       0.42400774       0.12850395       1.80500181
Si      17.20592394      38.03445524     -28.35850740       0.16293265       1.52318758      -1.53227978       1.24677434       0.37260142      -0.90619214
Si      16.02868510      33.59226307     -30.06278734       4.50196739      -2.84112769      -1.77512651      -0.39616669      -0.06552294       0.20585309
Si      35.01431368      25.38853462     -15.06343500      -3.02385747       0.66214766       3.01386268       4.73667605       0.51425603      -0.56485449
Si      14.66338985      28.08872551     -20.50688598       0.34531343      -3.14424184       2.44031402      -0.08421203       0.02839429       0.16520238
Si      45.82144622      16.48353404     -16.92453901       1.34483506       3.08807018      -1.14053281       0.89332697      -0.13340973      -2.22845453
Si      39.08546960      33.31474694     -33.76251311       0.79757177       0.50194404       0.88486064      -0.18437514      -0.78379480      -0.79889808
Si      34.13973506      19.49409422     -21.62657759      -1.50430438       3.96363376      -6.17043614      -2.40464773      -3.82335041       0.05596293
Si      18.67222003      38.73345990       0.57135403       0.96185533       0.90633466      -2.25103182      -1.02034097      -1.11985745      -0.60021023
Si       6.31057039       6.48897383      -8.78919018       0.64681344       0.26748736       3.61295851      -5.05751234       3.71858976       3.19152273
Si       8.81035572       3.90527788     -15.16038107       2.59064794       3.68336953       4.23056517      -1.72116291       0.72535969       3.04069681
Si      18.06411111      20.66986591      -1.18852616      -4.50081898      -1.29776489       0.57491170      -1.24476882      -0.30259525       0.53697001
Si      12.90321649      15.83260300      -5.29047782       0.09232742       2.34584321      -4.30650736      -1.21733847       0.46720783       0.77013606
Si       2.65089528      -2.53843611     -13.28638759       0.86457027      -3.74681918       1.68775356      -0.94022562       0.34667092       0.64853018
Si       7.24237492      12.94544111     -29.57276612      -0.61744206       2.77731360       7.05322246       1.03372112      -0.66692835      -0.85362528
Si      15.91617046      17.07079371      -3.63251206       0.88459721       0.73473750      -5.94998202       0.18076005       0.18411539      -0.40912594
Si      22.00951400       4.95784187     -22.20978143      -0.01523684       1.30063276       2.11788393      -2.12985493      -1.80224093       1.01567205
Si      10.52152647       2.34245683     -25.01704209       3.96373187       1.17099584      -6.67742377       1.47542200      -0.01328437      -0.54036912
Si      16.65418812       7.51409774     -21.32490909      -0.40232527       2.74522462      -3.80128424      -2.09337166       0.77298323       0.41002715
Si      11.33005598      10.50863482     -17.82159850      -1.48047358       1.00865617      -6.14411640       1.84045122       3.08691890       4.02809863
Si      11.56950963      11.75359011     -21.84592951       0.33552697       3.35322150      -3.37404504      -1.24819225      -0.07854817      -1.24213436
Si       1.25388618       9.63171391     -23.72459135      -1.80405407      -5.46616216       0.70603093      -0.56428009       0.99483967      -0.63685900
Si      19.60986271       0.35564464      -1.93376959       4.42958796      -4.58064757      -1.12007591       0.88586195      -0.49943235       0.02273438
Si       2.68155197       8.36157846     -22.32537777       0.26128287      -4.59402257      -2.57267939       3.74782786       1.79062817       1.14874871
Si       7.81668205      15.24938693     -23.13304284      -0.94444496      -1.27786289      -1.45824002      -0.05407164       1.64087101      -1.78979467
Si      41.67948464      14.63600122     -11.81867084       6.39230901      -2.52121362       3.81560016      -1.13093685       1.38981691       0.63123790
Si      19.55727935      10.62751964      -8.40141679      -0.78040214      -1.93418587       2.76813976       1.02851600      -0.89045378      -0.01171102
Si      17.11070737      21.67242678     -38.66382883      -3.32939569       5.07782563      -3.01276873       1.37459596      -1.72754041      -2.06941093
Si      27.80875416       9.03150442      -6.14349970      -3.79011072      -1.34912368       2.51537066       0.46111441       0.64045903       0.39477618
Si      22.88980065      22.14270586      -8.25847105       0.44809454      -2.03346585      -3.60315397       0.02430021      -0.29292147       0.42139646
Si      22.31631508      29.81888154     -22.17817467      -2.81648549      -1.65653770      -2.47246544      -4.43088473       0.98202947       1.33296350
Si      13.41213778      14.76401865      -7.34665271      -3.70375942       0.59422240      -0.65024144      -0.56330680       0.15334355      -0.91816037
Si      30.68809208      26.40862951     -11.89761635      -2.90768058       7.04207906       0.09196752       0.34999674      -0.86940682      -0.21623248
Si      10.59119674       6.32772868     -11.41961758      -2.67958069      -7.11154060      -0.01954581       0.48777294       0.23172911       0.70000267
Si       8.17415700      13.38138374      -0.42402838      -2.12219917       3.90275913       0.75933451       1.72431203      -1.40532469       0.38822559
Si      20.81993712      20.84649279     -14.85879101       1.52463319       0.98798413      -1.27999243       3.79397345      -1.32527344       1.59459394
Si      19.45532762      25.60184274      -9.40403601       8.31291257      -3.51494153      -0.75228207       0.92087550      -0.64684934       0.31867871
Si       9.22700379      11.13718191     -19.44236666      -6.70824040       1.28350026      -2.66449695      -0.81430039       1.78979835       0.08252715
Si      29.07690212      18.35271946      -1.33659295       2.71958454      -3.20494705       1.87699591      -0.58581842       1.65227457      -0.06117549
Si      19.95573419      35.27705130     -30.30759340       0.13989321       5.29985257      -2.38557519       0.78411987       1.21110922       0.05053904
Si      25.11121106      18.23676352     -15.38242230       1.37737911       4.98037280      -4.95640024       3.46595100       1.23950319      -0.70371755
Si       2.72467785      38.67286441     -25.99992270       2.03975234       4.97040097      -0.05897389      -1.06381812       2.77621028       1.33554506
Si      13.18807046      36.51617526     -24.87632167       2.02118258       5.06594446       3.55981629      -0.02234264      -0.02709957       0.45181373
Si      33.35524252      31.95465745     -10.17943289      -0.73796479      -3.61379310       1.15264917       0.21650870       1.60915480       0.57249883
Si      27.29693091      25.18788009     -37.62038427       5.26576424       4.68889113       0.76108669      -0.67607503       0.85406432       0.16930552
Si      30.49768470      20.01849033     -33.40611292       1.18120934       0.70499652      -6.20938253       0.63628464      -0.97626893      -0.33723930
Si      13.04262442       5.65037725     -15.98284030       0.32309956       0.69985490       1.28538077      -0.42732757       1.01662008      -0.24009106
Si      12.20011353      14.41223947      -0.17516121       0.12410824       3.16933724       3.02987320      -1.30885527       0.45980500       0.51907856
Si      -3.73214056      26.49158638     -11.03462898      -0.81019523      -2.83368613      -7.31304587      -0.10251488       0.13912819       0.98366814
Si       8.36944092       3.58999896       2.73095717       2.15260800      -3.97114892      -3.88760298      -1.13233630      -0.20063137       1.25449555
Si      12.09661341      26.45799086     -21.08845049       3.21178109       5.52928461      -0.37764988       1.31728001      -0.64944314      -1.88835281
Si      30.62828266      27.56076855     -19.05347508      -4.08494130      -2.11787693      -0.60028915       1.81282149      -0.35322613      -0.47780887
Si      30.09159906      30.53861348      -7.33431592       5.58708796       0.78602776       2.65516500      -0.22161782      -0.17141393      -0.74509115
Si       8.27838812      21.81234764     -22.19506883       2.06266566      -2.83676528      -6.54625433       2.11279777       1.87660984       0.08805106
Si      14.38971537      16.45476274     -12.82698380       4.83271280      -0.47371401      -3.48386003       5.89999564       1.63623925      -2.93521378
Si       8.57789393      25.17025539     -24.45331974       2.78872920       1.78400123       1.84163078      -0.98902551      -3.73243559      -4.14375232
Si      17.35774725      35.30929343     -23.39530216       3.62819228      -1.56131998      -4.07821640      -2.69920940      -1.41111876      -0.69480924
Si      36.36928187      26.75973689      -9.01182306      -1.24585470       1.77337356       1.26109087       1.60602277      -0.34849834       0.15774877
Si      17.70161867      14.31069629      -4.03981385      -1.23012701      -0.04875724      -2.57300367      -0.18810424       0.09981909      -0.02403629
Si      26.96767367      19.77714578       3.97401113      -1.45239706      -3.07102582       0.42472545       0.74188853       1.39093196       0.97074435
Si      24.53457261      23.97203152     -17.91049950      -2.11146252       3.03172279      -3.05248294      -0.52385819       0.75221166      -0.80825109
Si      14.13660334      18.29154888      -4.95715101       4.88067889       1.08764769      -0.13132974       0.01405365      -0.10455206       0.13867801
Si      22.51921279      37.31216445      -8.07572788       1.09548243       3.79134350      -3.18072730      -0.21094683      -0.24483005       2.29350456
Si      23.66880693      22.87591023     -12.19879311       1.46907200       3.64215922      -1.69622594      -0.18099984      -0.48806632      -0.47067090
Si      44.42378718      27.98077366     -28.96859392      -1.27583573      -3.80227156       6.89430682      -0.35250826       0.25928593      -0.68172116
Si      28.56735310      32.45173874     -14.02652688       3.18664464       4.62056904       2.70084823      -1.17863469       0.57489561      -0.22473028
Si      37.07407538      26.76126332     -12.16257746      -0.16384649       4.22597527       2.72220835      -0.33787882       1.53820536       0.01910396
Si      26.21568505       9.21563866     -15.15280363       8.74677171       6.48584792      -3.64404919      -0.08332665       3.56451567       1.42714261
Si      25.86832675      21.44063373     -22.20215089       0.89223630      -3.02679114      -1.04190875       1.74403400      -1.34260603      -0.73418765
Si      38.19255237      18.13451466     -19.84157489      -1.61007434       1.99973559       5.15135313       3.02085427      -0.77579357       0.19263608
Si      50.77454890      21.59794664     -18.78750459      -1.56989270      -4.63204405      -0.62304894      -0.38062677      -0.24035693       1.63341439
Si      30.12055014      12.56532300     -13.78046011      -2.50964696      -0.67900068     -10.56389255      -0.43151861      -1.11911388       1.55394487
Si      28.58952230      24.60057165      -0.58496426       2.67344485       5.24777862       4.55127579       1.21790865      -0.00797999       0.60799327
Si      26.88573646      31.75430821      -2.90458305      -4.69978714      -1.58949395       1.38391807       0.26247579       0.01472838       1.68396566
Si      -5.23174155      26.32273553     -22.11674991      -4.70378926      -3.84021416       3.07672280       1.19520686      -0.00899483       0.73859691
Si      14.20835947      29.75999477     -36.83275817      -1.10432028       3.95208078       2.04503350       0.14320128      -0.21334399      -0.17705891
Si       5.70803211      29.04608546     -18.52241370      -3.64459612       3.14594477      -3.74560121      -0.18885021       0.12856949      -0.14005792
Si      15.04975556      16.38251808     -27.78652279       0.99764674       4.94316732       2.82730439      -0.80457934       0.16598436       0.27213219
Si       6.52730385      16.20105564     -16.12488810       2.12375100       2.89793483      -2.74178627       0.31026241      -4.84011722      -0.68658815
Si      15.68130502      43.64596962     -11.51022410      -7.05031953      -4.44601647       3.38002848      -1.46059138      -0.67914744      -0.18580422
Si      23.97337776      21.82655639     -16.89867811      -2.76825635       0.54938265      -1.76344205      -0.09762817       1.22410289       1.18836381
Si       4.64508192      21.93895294     -18.14109779       4.39620086      -1.50467943      -5.20665131      -0.25317584       1.67348685      -0.63133728
Si       7.16292439      38.61042543     -21.48073675       3.23364787       3.52762365       4.05735699      -0.75958476      -1.59609836       2.01244045
Si      19.55123767      17.20393282     -24.37882444       3.30706489       3.79836631       1.93488401      -0.26754412       1.26166822      -1.21145203
Si       5.21651607      40.24094187     -13.92978729       0.39507776      -0.43398361      -2.95406614       0.38290919      -0.50002026       0.34344685
Si      11.06739089      38.05463086      -7.09850105      -1.98525139      -3.25647455       3.54776045       0.00050237      -0.69609593      -0.60990032
Si      22.27453128      39.23198853       2.51848941      -1.26522891       1.69762632      -3.76398085       0.00896225       1.45644276      -0.20424901
Si      12.77351690      45.36988043       2.14769335       5.70858695      -1.99925832       3.42306657       0.48596708       0.05573916       0.09637731
Si      11.08108516      31.67709325     -14.42831016      -1.71257753      -2.49458568       0.46189097       0.03825735      -1.49271544       0.67702422
Si      25.63955540      31.88459895     -26.34593874      -0.19527842      -2.77993295       1.23496545      -1.36847732       0.15022410      -2.33081422
Si      31.95038714       5.86282926     -21.64761811       0.51708828      -4.72125715      -1.39036030      -1.49864173      -0.13909219      -0.04196753
Si      32.87058579      21.47654842     -28.04822280       3.35825862       2.94207441      -0.88868427      -0.35845332       0.46749491      -0.32904737
Si      24.60760051      35.39132903     -30.45339056       5.89774583       3.93186134      -2.83219612      -0.17151859       0.58100167       0.04165612
Si      23.47505966      28.16306576     -22.98888629       2.06967420       5.41119156      -2.29874402       0.57799826      -0.35741585      -2.16817497
Si      38.63295623      32.68567823     -15.55103677      -0.80253129      -4.22783274      -3.92405591      -1.48800258      -0.53938443      -0.73308636
Si      36.12139117      21.17272281     -13.58425907      -2.95708226      -0.18031134       2.20113633       0.18826110       0.01852948       0.50739689
Si      17.15898575      16.68732051     -16.66568856       0.85197683       0.34359279       0.95253619       0.52196420       0.65726182       0.22264859
Si      18.02151436      22.88511953     -10.41494419       4.81060892       7.68401237      -0.01544836       2.01335298      -1.98120247      -0.17521617
Si      36.10959833      27.64666667     -27.24771353      -0.52520976       4.99915005      -3.81765465      -0.41618120       0.17697352      -0.63751498
Si      35.52916565      42.66009801      -0.18415564       3.55231900       4.42596335      -1.05026263       3.28823506       3.46543018      -0.61206049
Si      45.08094737       9.03259068     -14.17444987      -2.95073688      -1.76254253       0.57753467      -0.40736518       1.21187938       0.19185962
Si      19.92725299      30.29906701     -21.44297243       1.37491674       2.31739461      -1.55804713       1.68461311       1.90945323       0.72316309
Si      33.44296983      15.78366653     -14.40116319      -1.15698024       3.32678312       0.42407454      -1.99664770       2.55794725       0.02003824
Si      21.01280094      44.47385926     -20.32441051       4.36262665       8.18917410       3.03832526      -3.05263546       3.20936983      -0.08202849
Si       6.77830909      24.21926095     -27.94190511       1.49805068      -7.54262872       3.19026059       0.49763745      -0.18391354       0.66370467
Si       8.95077905      27.97557294     -26.90887676       4.22242460       7.54356680       0.16069984       2.44316061      -0.31006166      -0.15685060
Si      10.50772504      13.46804116       0.97060238       2.67154299       3.12625780       0.95790307      -1.86300927      -0.90268764       0.85800825
Si      20.94732852      39.86648444     -11.09217931       6.47976314       2.11585298       4.87979298      -0.64476565       0.85417678       0.75579799
Si      19.27658143      46.05118419     -13.66999393      -7.51048725      -0.14040352      -0.80250310      -2.37352589       0.43682480      -0.09178360
Si       5.12258275      38.03123506      -9.60355594      -3.96663659       2.46202965       0.41966063      -1.22599125       2.18974705      -0.94255880
Si      17.49433585      50.40843655      -8.60779198       3.64209902      -5.53520456       2.85328168       1.03745507      -0.18966186      -2.68504409
Si      16.76600693      30.92105576     -31.94997847       2.90244217       2.21377957      -3.53478966       2.30081688      -1.03183438       1.00466532
Si       9.76196414      18.83718895       5.34510756       5.98470715       1.52080698      -1.14271729       0.24783391      -0.36909796       1.71791205
Si       4.76223199      42.67732838     -10.75670392       0.01573695      -5.48880579      -3.11759873      -0.95340433       0.47071384      -0.41143933
Si      14.62159127      25.51039073       1.94836424      -2.99177130       6.81764749       0.06812901      -1.11363358       1.49613025       0.36121936
Si      19.11232978      30.93659860     -13.28195077       2.77427962       1.83147466       0.41445488       0.04904258       0.72300037       0.51559722
Si      20.48740007      33.66038115     -11.45496055       2.13599940      -3.60403986       1.26040406      -1.56019143      -1.89908139       0.05741155
Si       9.64616739      16.08694920       5.41360156      -4.04889984       1.65082960      -1.15811073       0.68630760       1.09561833      -0.04573569
Si      29.60379319      36.98712302     -10.98611343       1.32574610       2.64709877       1.19828705       0.32604783      -0.48828631       0.21659480
Si      -8.65927178      34.06246597     -30.10458663       3.04106919       3.33265985      -4.68074500       2.81765807       0.26949893       2.71774608
Si      16.11239488      43.92259119     -15.14267797       2.03022719      -5.99918717      -3.80762240      -1.17418585       0.86250955       2.75869998
Si      20.01889088      31.10911540     -16.11248812       0.74498223       1.03416126      -7.14074482       0.03684374       0.46733769       0.98877650
Si      13.46259517      31.38217788     -12.15936695      -2.29248060       3.37297455      -2.45245862       0.23940315      -0.87736982      -0.65520541
Si       2.57328323      46.05450898      -3.28131381      -0.47723624       3.24189343      -0.13810529       1.04055557      -1.81049455       0.03835791
Si      24.40751326      34.43904326      -0.71142934      -1.57352751       0.48736241      -4.40265927      -3.16527527       1.39867852      -0.13397421
Si      36.84237508      19.78515593     -10.55127897      -0.13530449       3.58391838       1.53908984       0.76905418       0.43762418      -0.25594655
Si      28.73484832      50.29102676     -12.54039437      -4.52940283       5.75274330      -4.62205229       0.84045325       0.50659019      -0.90754819
Si      17.40806951      44.63622761     -34.53449545      -3.94804322      -2.09465943       3.11992677       0.66435398      -0.32719975       0.76532016
Si      13.53671064      50.15726979      -2.81020145       0.50194313      -4.53434027      -4.03374198      -2.28110927       0.06381086       0.65019362
Si      20.43182602      38.08864459     -44.35682896       0.42373721       3.66621163       2.96738107       2.63167557       0.59158947       0.91273804
Si      33.75136609      20.99984625     -19.63519329      -2.11118846       4.37150451      -3.79259721       3.61148612       3.04419172       2.13011944
Si      19.29309261      31.89562430     -23.16856287      -7.11628697       1.01277540      -3.65470258       0.16889968       0.24157545       1.80458856
Si      39.72444312      35.05806501     -32.38730996       2.16903204       0.34949235       0.56238227       4.69536386      -2.88253985       0.00728395
Si      13.06802510      34.09952037     -10.50233473       2.23447944      11.64757273       0.00414705       0.17994782      -0.94956948      -2.56465900
Si      26.08806892      34.41840022     -20.55473211      -4.01908496       1.81342893      -1.70136473       2.31499390       0.08288833       0.37304346
Si      38.30963119      34.95157814     -17.20354037       2.57339857      -4.87479790       0.76939405      -0.42769494      -0.15801824       0.95142991
Si      16.51656859      24.38818907      -9.71688249      -4.90550945       8.57399547       4.19481200      -0.26577895       2.35570427       0.35450655
Si     -10.23199035      16.36354322     -20.21436310      -4.89280280       2.62239207      -6.63780687       0.43783264       1.59488436      -0.72072047
Si       9.42633878      18.55237044       3.15676826       0.00330355       2.23907484       3.03120509       1.13067834      -1.03762882      -1.28831798
Si      -2.43925761       5.66794070     -16.91684292      -0.23157049       1.98040430      -3.38259782       0.65173811       0.16141054      -0.18583868
Si      13.40062431      31.77403164      -7.86648703      -4.25206353      11.84976895       3.66348959      -1.02301729       3.87522953      -3.27114464
Si       8.13518591      20.12253779      -4.68668624      -6.06654506      -0.21411092      -1.80180653       0.22494111      -0.10957325      -0.23740329
Si       4.68628382      28.97944153     -12.91749182      -0.64618578      -3.17157829      -1.15536051      -0.44284758      -0.53046013      -0.78938075
Si     -10.19271125      26.71342365      -9.09428611       2.14552787       3.29110965      -3.73034638      -1.31357427       2.11488410       0.53890582
Si       3.59901349      21.33918038      -3.18396468       2.37346485       5.44696330       0.31201309       0.11243880      -0.83264707       2.18733986
Si      -2.50227877      10.29215174     -19.85499462      -2.85863368      -5.23276597      -1.43981883      -1.21683764       0.33501891       0.81913422
Si      22.52391853      17.19470523     -12.43622440       3.37680225       4.59147469      -0.02756119       1.08412152      -1.32441965      -2.18455542
Si       5.56630255      14.73029817     -21.45014957       6.52007565      -3.79882638      -4.88857529      -0.86583994       0.26871897      -0.22433340
Si      -9.55707003      13.08816101       3.39868811       4.81034433      -1.75255632      -1.65140086      -1.54699216      -0.39289859      -0.60689258
Si       9.53914987      10.63884780      -2.98858326       2.68322496      -4.16525779      -3.17815097      -0.76592013      -0.46036746       0.00562932
Si       6.66990687      21.50551299     -23.95081938      -1.51834291       1.39208417      -0.36695290      -0.47384772       0.34430197      -0.19801582
Si      18.80372854      13.30175628     -13.44437031       2.87847750       5.73558995      -2.72482298      -0.78042890       0.05411467      -0.45218952
Si      17.89221966      15.76941610     -12.24753315       0.15439240       5.30866420       0.18200301      -0.47359890      -0.68817242      -0.54423102
Si      23.09530043      17.77882929       6.40732796       2.65250803       1.20590454       0.60568699      -4.22227783       0.09009296       1.53192983
Si      24.71746980      15.56964100     -21.47497394       0.76730732       1.27029647      -1.65924993       0.30714140       0.05725406      -0.34089523
Si      20.89060588      33.32354220     -14.23157961       5.23790703       2.83002603       8.84390715      -0.64220408      -0.52716876       0.02683844
Si      -1.90312600      16.76019445     -18.31708512      -0.96248087       5.92828670      -2.02116396      -0.37819554       0.35785735      -1.75078900
Si      16.78801849      25.58410981       2.81401048       1.80347547       5.99356294      -5.77609293       1.40766030       0.21220414      -0.15462801
Si      26.93270474      19.96470901      -5.18998533       5.06554467       0.13957723      -3.41800179       1.12003239      -1.77424243      -0.69819070
Si      27.47638273      14.28631142      -9.13506865       2.01809494      -2.11780741      -0.74827770       0.02213527      -1.58190120      -0.18161833
Si      25.87392121       7.51911065      -9.95368430       0.06212682      -2.27303959       4.51712535       0.37382324       0.58653600       5.43282917
Si      23.37434460      20.12109349      -3.58431681      -0.59743143       0.37094584       1.72101751       1.12500289      -2.26659571      -1.31763874
Si      27.32002323      15.43916193      -6.86497343      -2.87984060      -8.75116185      -1.54990130       0.39639961       0.07561954      -0.20274598
Si      -2.98693372      21.30254631     -20.26361383       1.38965730       4.76407999       2.32859657       1.67586813       1.40664157      -0.01404870
Si      20.17659289      36.00547328     -17.27951331       2.39521514       2.70555151       2.16075784      -0.10915823      -0.24434760       0.05924410
Si      14.44992739      13.31849847     -18.45274024      -3.79450428       2.62704927       2.49521969       0.97299127       0.86524842      -0.15340554
Si      39.87467275       8.07194346       6.80999405       0.49165119      -1.70126094       0.59232750      -0.87571839      -0.52800210      -0.79700629
Si      21.12966093      11.77898297     -27.71247998      -6.62960441       3.20750976       0.29912117       0.92510479       0.34598532      -2.60669190
Si      17.43949029      24.80774166     -26.29452684      -0.83589062       5.54135788      -8.60056433       1.85346999      -0.50644582      -0.52405497
Si      33.04426545      13.26634275      -9.40000004       4.20942424       5.80815262       4.74713649      -2.02349999       1.46764374      -1.54907880
Si      10.43877175      38.63711323      -3.89754896       6.72985315       3.46161868      -0.22050841       0.65426113       1.17032449       0.20781147
Si       7.40135041      10.26789318      -9.43120082       0.78276767       4.08662567       1.61057426      -0.26291970       0.60619391       1.35916466
Si      15.16661525      10.58941447     -10.80146395       1.35400644      -7.04660942      -7.04218519      -0.52636088       1.22139482       0.64263450
Si       7.68110916      16.20730005     -14.07851212      -2.87499422      -4.20153342      -0.38035118       1.31170807      -0.24970146       0.29622964
Si      -6.64135727      11.50172304       1.04656893      -3.48483194      -0.01871495       1.11381450      -0.53494829       1.54277674       0.26166160
Si       7.19512236      27.51684683     -20.52426521      -4.08669983      -5.09999597      -0.30088651      -1.50159762      -0.21580344      -0.47132805
Si      18.43556649      21.55124169     -14.39647242      -0.38239458      -2.61870646      -3.91116344      -0.66841648       3.33616630       0.50930104
Si      11.25112414      19.76369869     -23.83046518      -1.34345254       7.32056935      -0.14801916       0.57616662      -0.09312054      -0.29582167
Si      28.25000964      22.71778224     -16.49616098      -1.03651483      -2.99605619      -4.49224269       0.05881597      -0.28917517      -0.07777445
Si      16.03068631      23.44095130     -17.99192954       2.38457080       3.50204646      -3.45216913      -4.42945516       1.29208515       2.27750808
Si      21.95666706      21.79294120      -1.51418520      -2.18684787       0.08817035      -3.24056478      -0.53353279       1.82650611       4.75368477
Si       8.64021665      16.57746093      -8.57408502      -1.95650298       2.88307900      -6.65825308       0.31364113      -0.88569336      -0.81181746
Si      19.21624481      31.61812924     -10.54245083       3.24785978      -1.29646519       5.55202643      -0.73450519      -0.13056079      -1.29512492
Si      11.50388843      21.93347114     -25.63348016       0.47528516      -1.96282077      -2.49524761      -0.06288853      -1.04787183       0.05637525
Si      21.72936690      33.48832561      -0.76071916       4.96439905       5.60782233      -0.37335077       0.78284253      -0.42179867      -0.64653325
Si      27.96951189      26.81414465     -11.25326210      -1.71021632      -0.16307747      -1.25208523      -0.43276658      -0.82221710      -0.08658824
Si      29.45947721      27.04683223      -9.45355461       2.49911804       2.34775808      -0.60075833       5.18738019      -3.82325554      -1.74209296
Si      44.02413882      41.30112060     -22.49579485       1.16146898       7.29957078       1.45250690       0.35457009      -1.65032699      -1.60727799
Si      18.32000314      17.69609585      -4.55156217       0.27343175       2.04029225      -2.08623115      -2.51277374      -2.53405397       0.35644303
Si      31.86207479      23.45241364       8.64662027      -3.32615270      -1.72111775      -1.84356278      -0.67805248      -1.21927207      -0.05129563
Si      28.13408677      25.17941940      -4.01961113      -1.93116438      -1.47597761       1.64835402      -0.63429570       1.02784171       0.48999127
Si      24.62996566      36.93852129     -23.82047328      -2.58030623      -6.15327235      -2.73739132       0.44834491      -0.19918686      -1.24089729
Si      18.66374100      12.30448544     -15.63076840       0.73975050       2.18067185      -6.08932869       2.15298735       0.47691620      -0.40261639
Si      53.62428956      36.12598560     -11.69355509      -5.07880146      -0.47403246       0.69873621      -0.36019979      -1.58292506       0.44725850
Si      22.02964840      16.17833874      -3.94265707       3.34719789       0.67060755      -0.90605835       0.91394677      -0.47390837       0.22689194
Si      31.59912675      34.79721212      -7.53796624       6.11751356      -7.74648922      -3.82345649      -0.67022410       0.64364101       0.42711703
Si      18.73985521      34.24319824       3.67007045       4.27575445       0.88510525       4.75200255      -0.01240668       0.05644612      -1.16072812
Si      20.45198028      16.64809845     -15.92861548       3.37822177      -1.46866425      -3.05399816      -4.65101764       3.67482737       3.70630977
Si      26.11433875      28.94658401     -15.73586437       5.15261312       1.82412863      -3.74595584       7.24791438      -3.46055495      -4.42918359
Si       6.99930308      34.35163748       1.29516860      -1.20186881      -3.50930404       2.38428660      -1.24077187      -0.27891766       0.91413883
Si      14.29521748      35.82020456       9.07563290      -1.37237133       0.70097527      -2.17581267      -0.31314395       0.90890021       1.07164165
Si       9.49808723      12.46854235     -26.27067479       1.95328292      -1.16992041       0.65120240       0.12914522       0.15817235      -0.75616906
Si      16.20455870      23.40680736      -0.91002216       0.77248427      -1.36817603       5.69929593      -0.59823816      -0.62171403      -0.46643134
Si       6.92798215      31.22781676     -11.58980830       2.25745046       1.34378632      -2.99908682      -0.16865614      -0.18963583      -1.04224959
Si      17.59220465      35.80112487      -8.67337383       2.13589415      -2.62683812      -0.11104795      -1.99487833       2.97182144       1.37247424
Si       2.50369731      26.03505278      -0.80305893       2.99866010       0.31798505      -1.48190384       1.78777093      -2.16142290      -0.42520910
Si       2.47657918      19.30710314       1.88260599      -1.12124018      -5.47788208      -2.26811707      -1.50085243       0.23890911       0.42153360
Si      12.77226962      23.49505629      10.07349013      -5.25548406       0.29760301       2.53441374       0.74723792      -0.47991661       0.04957367
Si       3.20980310      47.77156341     -19.48279340       5.01319231       4.24749317      -1.79964523       0.54131686      -0.83825734       0.47960809
Si      14.00152465      32.10358466      -4.79819517      -1.23211007       0.26959499      -0.03201215       2.66635313       0.85781810       1.85115009
Si      25.27055354      25.04779817     -11.84404713      -0.84689393       4.52795644      -3.41100377       2.59189326      -0.25340336      -0.45999356
Si       4.33063667      42.92183477     -15.75711990       2.80495076      -4.25642501      -3.10468715       0.45974097      -0.10144100       0.89766661
Si      16.30337524      36.04263327     -11.04007918      -1.12193738      -4.15205412      -4.74953327      -4.11246256       3.61157633      -1.21476906
Si      23.10973795      25.23405601     -11.71609262       1.58575418      -0.28277064      -1.27606200      -2.54567738       0.62692759      -0.04938779
Si       0.45881082      20.14795427     -17.40557772      -1.15918529      -1.90506554      -2.69020223       0.53232631       0.42173260      -0.73270081
Si      10.66501568      15.00271206       2.98089716      -1.09945355       0.33059690      -2.61430298       3.04628209      -0.73518978       0.47658164
Si      10.74428337      26.07700846      -4.74045010       4.04551696       3.41751555      -5.80693418      -0.85293891      -0.49536102       0.40228626
Si      20.51880689      26.29022744       6.88853097       1.63209257      -1.62309036       2.89211321       0.26200604      -0.49766665      -0.28005635
Si      13.04522190      32.15420862       0.70557240       2.48920524       4.30799795      -0.75319806       0.68761345      -1.73063337       1.33172603
Si      25.09314074      57.66435499       3.95405851       0.61703562       1.46401271      -1.73913282       0.69165266      -1.30201636      -1.10419924
Si      34.11662677      28.88982864      -5.01784027      -3.11484963       0.21128969      -0.44459942      -0.40274455       2.45773368       1.69484793
Si      26.56168131      31.72116135      -8.83829836      -2.70431272       2.83438750       1.11932041       1.40947967      -0.45850016       0.93438942
Si      13.96198393      40.65619731       9.36274804      -0.88066102      -1.65188419       0.84945418       0.40889700      -0.14289632      -1.51116152
Si      18.80133504      20.25640431     -11.06110982      -4.91650923       0.73589319       4.04398661       0.90134883       0.51704570       0.97266859
Si      16.40842255      19.25234949      -6.57413466       3.54531183       6.40834066      -0.48242863      -7.61405209      -3.87247771      -2.69278976
Si      26.95682419      30.85359579      -0.27242930      -2.52440882      -1.14211192      -2.87773406       0.01778273       0.02297340      -0.33743682
Si      32.26711860      19.71899449     -20.23026188       1.18888492       2.99855332      -2.69516981      -3.11647507      -2.25010660      -1.07158090
Si      42.83116077      37.74163117      -9.99612309      -2.54518555      -4.98899224      -8.62768453      -2.22403470       0.40573356      -0.01569768
Si      10.62902467      27.37931374     -14.93726704       0.89652388       0.99260243      -0.11461229       0.21180151       0.26610898       0.58270046
Si      25.54756330      26.75549415      -5.33584262       2.76854132       1.50329020       0.81909996      -0.34779181       0.98462601       0.57843778
Si      18.04596564      44.86431946       0.28978761       4.55220687       2.05377148      -2.41836498       0.74233854       0.67223816      -0.27962650
Si      30.83902097      23.26009228       6.20585696      -1.90091151      -1.90025385      -1.59433785      -1.81702378       0.56906967      -0.00858395
Si      25.94729091      23.55805035      -7.75074785       3.61804480       0.91871394      -0.44408501       0.19199997       0.08318403      -0.32114923
Si       4.55890759      34.28396590      -7.41686320      -0.55396302       0.47833118       3.55476157       1.29960439       1.67913856       0.10071996
Si      19.02723861      14.71487125     -22.48843680       0.32536114       3.43744500      -2.83355450       0.42283754       1.35008491       1.72112726
Si      -7.69756312      39.47354535     -14.89430508       1.11537482       3.33922868       0.92888068       0.92860086       0.28431739       1.10540402
Si       5.92330283      39.71043502     -28.48708441       3.49025364       0.99298542       0.56730889       2.05011178      -1.18784346       0.72597205
Si      -5.16206534      37.11569874     -21.60647201       1.14774048       0.22309702       1.26695423       0.77553086       0.82174535      -2.99189232
Si      -1.27980634      39.65328556     -13.62180274       2.32795392       2.30477124      -5.51094924       2.58921495       0.24849741      -1.03009409
Si      18.12918703      41.62995218      -6.14815580      -4.89824440       1.64396261       0.80181536       3.66992420       6.70699862       0.83278853
Si      16.14397336      28.75429323      -6.93869095       2.60775915       1.11218906       2.28519022      -0.51559622      -0.85371476      -0.15472900
Si      -3.02445011      23.67073706      -7.90313169      -1.03461642      -2.10076678      -1.24124869      -0.57538434      -0.84155245       0.01741483
Si       8.88105426      35.88244164     -18.10186479       0.09793993       5.00746878      -5.72625812      -1.31989297       1.24239539       1.25249696
Si      22.03785680      34.65249299      -9.30527552       0.77948026       2.34678433      -3.19108373      -0.27378894      -0.73155742       0.50247538
Si      19.56704305      25.10883768       1.10128471      -3.20824696       2.01013023       0.21774690       0.78637461      -1.39054172       2.76547751
Si      19.89360527      53.29229357      -3.49856444       5.28807317       2.29010241       1.80150173       0.80728995      -0.03600148      -2.81341025
Si      19.69746200      26.07044796      -4.81776274       4.47779651       2.30245980      -3.38321774       0.30451227      -0.27364088      -0.14162525
Si       8.34792329      29.31810016      11.23966968       4.73558972       4.99818289       0.24307912      -0.14389441      -0.30995906      -0.26002641
Si      22.22373564      42.87469504     -20.86896896      -1.73854834      -2.65433951       0.58856778       2.88078016      -2.35956630       0.25030068
Si      14.39093037      36.14885488     -21.09472716       0.32831692       6.06257986      -0.65097753       0.65980417      -0.20091047       1.33180835
Si       2.70169269      58.57056473      -5.25037748      -2.47914030       7.48557238      -1.96217508      -0.23185820      -2.47169425      -1.67436672
Si      24.43813988      41.31362299     -17.36820303       2.27576228       0.87850042      -1.59291473       0.62642945      -1.54746584      -0.88021310
Si      15.62847750      46.31950851     -11.81187860       2.08137094       4.80136211      -6.94468725      -0.12617197      -1.10635233      -1.08461652
Si       8.07461227      34.24835324      10.24950250       0.64110004       6.95176394       5.52411341      -0.25321387      -0.03940830       0.34433908
Si      23.50607458      47.91291330      -4.01837417      -0.73306473       0.34906034      -5.19814691       2.18442399       0.53029508       0.71408335
Si       2.99546488      53.75321705      11.81308379      -0.28691861       3.58409816       1.10388934      -1.78085902       1.07871336      -0.16079714
Si      10.80527308      35.81134623      -3.73062866      -2.72554551      -5.65301324      -2.51010806       1.62747021       0.36136113       0.75510788
Si      22.87361433      36.83017244     -14.05582320      -4.73153080      -4.12018121       2.21886871       0.38624350       0.30860188      -0.22871452
Si      16.61780916      18.90744128      12.70120079      -1.29384509       0.05911025       1.23612039       0.43946915       1.42597413       0.73212900
Si      41.47184305      40.56864519      -5.61339372       6.39508266      -1.85337869      -6.06099652       5.98673695      -0.79159532      -0.10430111
Si      28.39506898      43.47431630      17.21828471      -3.23472376      -0.49359852      -3.73951662       1.18294535       0.46426512      -0.28680123
Si      19.97079566      42.30553978       3.64626832      -4.69676827      -4.38130696      -2.15622334      -0.88241690       0.41102711      -0.88153233
Si      26.33259271      55.30109196      -0.92801181      -2.84205213      -3.05712367       1.44478862      -1.24800718      -3.18694779       1.12163437
Si      14.88982358      47.09871851       4.76133151      -0.26308008      -0.21554318      -2.63044676       0.50645491      -0.36582490      -0.19526085
Si      16.27652118      42.26501789       0.89532806       1.93347936       2.46299848      -0.82775192      -0.59166301       0.67773806      -0.33046757
Si      -5.00755454      24.66521967       7.68467356      -0.19039118       7.23526208      -4.94551258      -0.00256130       1.16563387      -0.88768703
Si       7.56123738      39.55076811     -17.64799661       3.49541119       8.13147135      -1.98571898       0.37870013      -1.60317408      -3.90773312
Si       5.38443464      15.93230799     -35.72510798      -6.42270752      -0.17842384      -4.92877076      -1.10185656       0.02438536      -0.58774165
Si      37.10160428      22.60520457      -8.79115562      -2.75742048       3.41348703      -0.85322479      -1.06179785      -1.63103623       0.07122845
Si       0.92642134      17.74007150      -6.69915001       5.38261767       8.98273249      -5.10868885       0.04529770       0.17085643       0.67323995
Si      13.95748817      10.87720055       3.29324158      -0.14270318       2.11723809       0.21758885      -0.44738511      -0.19654213       0.15018534
Si       4.65201120      46.24205049      -0.86948434      -6.40325251       2.45506090       1.91190814      -1.66853827      -0.62971573      -0.55523272
Si       1.52554923      17.83772784      -1.88395729       3.19992611       5.08897855      -4.06546669       0.82907121      -0.63503003      -0.36849618
Si       0.10651204      27.71351256     -10.44937726       3.09942995       2.07294766      -1.02692623      -0.17028111      -3.23244677       3.31304760
Si       6.97665216      18.19843346       6.01951562       2.14289151      -4.38720254      -3.91406905      -0.68907180       4.82583050       5.24714032
Si      15.49973699       5.79120679     -14.69485450       2.32792791       0.91290275      -1.10927484       0.38829036       0.13787966      -0.49893125
Si      30.66476295      14.10057611       6.43863206      -1.39577839       4.39050667      -5.07519305       1.13322707       1.42208344      -0.92110157
Si      16.99573920      22.41686075      17.82601692       2.86787743       5.79255041      -0.66212243      -1.55923041      -0.32920979       4.15106661
Si      14.84276409      17.52692186      -1.24395839      -0.86659201      -0.27318780       2.21321956       0.41364101      -0.66505293       0.61877837
Si      21.55810407      20.39673101      -5.95378146       5.46103064      -0.99585961       1.85126844       0.08501786      -0.94961897      -0.59623143
Si      10.24161054       8.31350760      -4.11790779      -0.04093998       0.90594685       3.79591113       0.34892675       0.41857522      -0.35363825
Si       5.63964601      19.04661698      -9.45572641       1.07614464       3.10162227      -0.92022137       0.49462423      -0.64611154      -1.45187324
Si      -1.21841742      21.43901665       9.28664540      -2.38801167       5.67777713      -3.85375910      -0.53533390      -2.08096966      -0.82728142
Si      16.51545223      16.81654825      -9.29328285       1.04060600       7.86124952      -5.47280383      -0.56836922      -3.14902399       0.56755599
Si       4.74128673      17.10073283     -23.81298573       1.11053592      -3.14003733       1.33101721      -0.44341466      -1.19113013       2.56385920
Si       7.03797048      23.21579138      -8.36899163      -0.56722663       1.34427041       0.82802504       0.19828023      -0.89044238      -0.28466883
Si      44.86090664      21.78334602     -14.35973236      -2.57680296      -3.81411666      -3.27493175      -1.10029597       0.48991381      -0.89313095
Si      23.07661370      11.29004947       6.60553946       2.35008252      -5.82145966      -3.20666347       0.71318163       0.30247376       0.53828589
Si      11.40309199      20.41923807       4.64983068      -1.37726857       3.01589241       1.01118152       0.85436236       0.72301832      -0.05353466
Si       6.59585520      17.43351299     -11.49875858       0.63317702      -0.89363702       1.95274100       0.09174230      -0.17421774      -0.13517352
Si       7.91404605      -0.82625867      -9.75727665      -1.55965393       2.01895778      -3.85162073      -0.55134680       0.64921812      -0.95840402
Si      18.82214965       8.58833022      -6.16290379       4.31007240       2.35033760       2.86356371      -0.33265819      -0.24441305       0.21516164
Si      12.75974309      25.52638331      -3.14111040       0.99851939       5.34215443      -4.15286541      -0.39206237       0.78493122       0.36919853
Si      18.95626451       2.36645280      -2.57952879      -3.63971133      -1.40947899       2.10489581      -1.04871692       2.17300020      -1.31642426
Si      10.93550544      24.92446251      -0.98996497       3.41318234      -1.67181734       5.32140985       0.81852325      -0.04677230       0.33294202
Si      26.72802704      34.22545990       4.62760330      -2.10725948       3.15287119      -2.35554409      -0.04331163       2.34180380       0.15265243
Si      18.72271737      15.20973573     -15.32518452      -0.96403936       2.94063294      -1.96574369      -0.80173135      -0.58292495       0.03961025
Si      10.33037700      31.73241909      -6.25400058      -0.88963473      -0.33001613       5.13988334      -4.09552340      -1.52849533       2.60429321
Si       3.35435214      10.83381867      -6.86233626       3.09970386      -2.60148563       3.68300269       0.80187969      -2.36075439       0.88547665
Si       9.12827610      27.83779590      -7.66046671       3.50245738      -2.82605206      -1.91316822       1.07259513       0.67500618      -0.01328909
Si      23.90864213      30.98075273     -11.84552886       0.76704051      -1.10099490      -3.54279160       0.21076205       0.34306148       0.24015289
Si      -0.83478483      34.77689001       2.41975195      -0.46327090      -0.58769418       1.15684967       0.01804266      -0.95414701       0.08726374
Si       6.84539851      13.42748257     -15.69935397       5.10611427      -3.67386224      -1.39189449      -1.78864714      -0.47466668      -1.09288255
Si      14.94251789       8.75087992      13.70068663       1.13614997      -2.52158033      -1.18495430       3.53711489      -3.35902776      -0.65791641
Si       3.40816734      21.35879699       8.43995065       2.45640160      -8.73310256      -2.84215223       1.89235122      -0.50932689       0.45523805
Si     -14.29325841      34.32324475     -18.10592516       5.28680066       6.86759450      -2.06555299      -0.66953515      -2.19205916       1.21299657
Si      11.10721491      22.22091878       6.68899736       1.73280703      -1.76227545       3.67688690       2.13709150       0.44536319      -1.21564860
Si      13.22198884      48.42757062     -13.01067169      -1.19249774      -1.00612260      -4.33783076      -1.22108203      -1.57667292      -0.51374926
Si      21.21076430      31.53003839     -12.43007737       5.41760423       0.00958450       6.74803060       0.42757339      -0.29803099       0.15558579
Si      21.96237316      37.37849722       5.12674045      -1.56730470      -2.59281398      -1.33935224       5.61082289      -3.87115563      -1.87547559
Si      15.19385117      45.11138911       1.40025583      -0.34415795      -0.98990545       4.41467193      -0.00738541      -1.58403707      -0.78454201
Si     -14.49788763      27.15254493      -6.53039544       4.94522932      -1.83120560       2.21666087      -1.24579446      -0.47596677      -0.16037741
Si      10.69031279       9.48187014     -19.45787298      -4.94186487       1.51674626      -2.03342419      -0.41245114      -3.67206020      -3.87673308
Si       9.19273487      11.51401307       5.69685562      -0.73278853      -1.86903922       2.59065766      -1.22582001      -1.11107625      -2.31114753
Si      34.71525166      28.52417816       9.97673636       4.38016614      -0.50453161      -0.06584047      -0.54409359       1.05404389       0.79442702
Si      27.90693856      25.64962271      25.96401235      -5.72641113       4.28148707      -5.92849860       1.22522171      -0.24506870      -0.70134619
Si      22.95031715      28.98596134       4.62105491       0.45691450      -1.28650121       0.89615775       0.80462777       0.83924917       1.07284035
Si      19.36950628      28.43977031     -10.72099591      -2.41766677      -2.37023146      -0.46013127      -2.60032284      -0.42153838       2.60488711
Si      23.63720173      40.99025370      -8.57395826       6.84315692       1.67508499      -0.44092335      -0.30193474       1.13587064       0.92702622
Si      12.68455056      29.25043441       2.44128196      -0.40367991       2.77630832       2.23237501      -0.73191888      -0.28408145      -1.16563811
Si      30.38741470      24.51126826      -9.60535706       2.06942069      -7.18166407      -0.79061981      -1.34007858       1.14549156       0.55760894
Si      37.50953608      31.33799834     -14.14831957      -4.11815033      -6.24072398      -0.41058174      -0.20183609      -0.22300780       0.86351890
Si      18.39372752      39.69270257     -13.05412753      -3.84543783       1.65882600       0.87710963      -2.91997008       0.12131452       0.68411654
Si      38.00143796      30.59281081      16.07494400       3.49497795       3.18074415       2.14292290       0.43231598       2.72523996      -0.33677092
Si      45.22062884      27.87539974       1.09017302       0.54873127       0.96426607      -1.44014649      -0.69708238       1.11741638       0.59612548
Si      23.75782051      24.38338743      -9.01393851       0.74124048      -1.67172533      -2.90700802       0.28717654      -1.84795187       0.15808182
Si      26.42229199      28.99811443      -6.57283903       0.51780283      -1.51213891      -4.94822713      -0.27415671      -1.11651119      -0.37724655
Si      28.34494780      33.61530920      -1.37695261       4.25257894       1.57548690      -0.50240099       3.36623186       0.83001392      -0.75040607
Si      26.35340519      36.26789645       9.98675956       1.65367934       3.65232323      -2.52960762       0.01145117       1.03463198       0.90321163
Si      -0.89410132      21.78349879      -4.19431435       2.65747779      -2.05722660      -1.42063266      -1.58543903       4.96744326      -4.27471707
Si      17.68913767      29.14326395      -2.00179400       0.04073308      -3.43333678       1.37203204      -1.54797569       1.26905220      -1.99209623
Si      23.46121581       7.01456082     -11.51472564       2.77286262      -4.77042565       3.90693548       2.17463449       1.22997584       0.75151274
Si      18.68327550       6.82132208      -0.22431426      -0.76398120      -1.35544328       0.96052097       1.62098765      -2.71835475       1.33711004
Si      21.18318155      28.43881216       7.59637150       3.69147340      -0.43967730       0.21578731      -1.63401848       1.63017772      -0.76610178
Si      11.72459664      26.74070287     -18.91213725      -4.99087283      -2.04495214       2.50322138       0.36520389       1.71940205       1.84980785
Si      -0.67720743      29.05355531       9.88354847      -0.51062827       1.67304108      -5.33687836       0.48748365       3.61556111      -4.63906076
Si      -0.58356164      29.41495378      -3.57086082      -0.96093264       0.26800162      -0.62064271       0.15730031       0.97362842       0.36377150
Si      14.37709442      26.08595744      -0.52070841       5.55363935      -0.49313369      -1.61592101      -2.26156754      -0.05878834      -0.71954817
Si       3.77367726      38.48672465     -12.43968697       2.40211436      -1.75230144      -2.06021899       0.55367543      -0.78077409       0.56603011
Si       6.61992545      34.36806099     -27.35753362       4.64769646       5.25899974      -3.50066210      -0.64067148       0.20360266       0.49740963
Si      20.13508626      15.80763550      -5.14764692      -1.88461995      -1.57408198       1.22435288       0.24334955       4.63290793       2.05527657
Si      23.08605135      15.12893959     -10.24537131       3.02536602       6.20384921       1.13117393       3.40926000      -0.52656473      -1.71184116
Si       3.94127077      27.45558474     -10.96906081      -3.32707088       2.28232206       1.83989258      -1.11533595      -3.59968756      -2.05413919
Si       8.66241408      20.56805193      -7.76611828      -5.07297922       3.28813151       2.04122596       1.00149273       0.51422090       1.84929361
Si      29.43647321      40.40064052      -8.64467846       8.98653646      -1.01433230      -0.37961487       0.02285518      -0.61894832       0.93125788
Si      35.43192868      47.51875492      -6.74708627      -1.98218734       4.76975757       1.59124145      -0.44709992      -1.03362893      -1.21777525
Si      25.23728169      39.67068137       0.26064905       0.62560846       6.24728751      -4.13142009       0.00412679      -0.11922706      -0.47386323
Si      15.11457066      38.27617643       3.80273930       2.18915349      -1.56369462       5.65017253       1.53035661       4.53291907       1.79147917
Si       8.57576692      31.01611081     -13.54095263      -0.14389038       2.53210327      -3.02328689       0.78930470      -1.14427245       0.35915329
Si      33.67128621      24.32457496      -8.63064199       3.10832683      -1.04820131      -0.82068160      -0.60345926       3.58438116      -0.39366015
Si       7.72893065      17.96821215      -3.53845144      -1.05042555      -3.18432323      -5.95992972       0.22675720      -0.08573502      -1.25499461
Si      19.11182382      28.03532005     -19.42330983      -3.16577606      -3.38879927      -2.09819154       0.02305440      -0.42710138       0.72923253
Si      11.08143538      44.53606214     -21.04343634       0.54839797       0.72867368       3.16161951      -0.65820433       0.22529453      -0.52944681
Si      37.85403011      35.09341008     -14.18244783       1.01986548       1.57379919      -6.06884824       1.99914918       0.96380637      -1.90692947
Si      26.21536440       8.97799229      10.31019848      -1.28931880       4.69594954       2.07938320       1.61178844       2.60158919      -2.53706439
Si      16.29518710      33.45280629      -5.57738899      -2.95843332     -12.01281343      -0.61388940       0.06250621      -0.38941417      -0.30203769
Si      34.48916627      29.07062767      -0.29983093      -0.57493337       0.01512284      -3.47515130       0.04887870       0.06731048      -0.11044492
Si      26.71702922      17.37703255       4.43410584       1.66874740       6.32917875       1.94534534      -3.89991242      -1.80299697       3.27546221
Si      34.50891316      22.52692131      -8.21112316      -0.54362563      -0.31737430       2.96038260       2.55838082      -4.61156415       1.81535106
Si      32.35060013      24.72466418       2.41611824      -8.39830115       2.96684197      -2.64383104      -0.24211002      -1.11988655      -0.14347930
Si      36.15710442      18.52899007       1.52132848       2.57701447      -0.39619404       0.40091777      -2.77283383       0.35844885      -1.22284313
Si      13.12558502      25.65755793     -10.20790223      -2.55365695       2.74291678      -8.13960848      -0.68278677      -1.70492307      -1.59809656
Si      25.35600266      29.35474066     -19.84943854      -1.98004968       0.24186734       2.99009210      -0.31956782      -0.05719854      -0.56642459
Si      20.78391270      45.13781081     -11.60487243       5.87165701       0.36856064      -7.11111956      -0.66528076       1.82027206       2.29998983
Si      15.21926234      30.82075226     -22.68408863      -2.85605730      -3.92643975      -1.74531926       0.34426423      -0.73458847      -0.26364753
Si      20.74211831      22.95295093      -6.53398887      -1.85824171       9.06577029       0.07168252       0.41002568       0.38498242      -0.26834118
Si      26.99649545      32.04116153     -17.08932611      -1.12859639      -1.28781326      -5.56645265       0.16877723      -1.81518016      -1.26930972
Si       7.68424084      42.12022763     -14.67915298       6.08501963      -1.24428612       1.89359184      -0.47446298       0.38499965      -0.22052003
Si       0.46173375      32.44405546       2.88974767      -0.86848663       0.52944876      -6.12600106      -0.35878755       0.10866201      -0.07835901
Si      31.47715829      29.40350911       3.85818598      -1.36590678      -1.18869433       3.10170370       0.44483411       0.91549569       0.45868592
Si      23.15928184      44.01631975      18.58774212       2.72602694      -1.75444541      -1.76577341       0.24399998       1.98146516      -2.30185564
Si      12.46289712      53.04813926      -6.12301305       0.98826173      -4.00336598      -8.34670597      -1.75087503      -3.10484159       3.11768165
Si      26.60360897      45.15364091      -3.11143287       5.63128637      -4.14349564      -4.40574733       1.00871779       0.45662241       0.36602893
Si      12.66902190      35.59764059     -14.31184582      -0.86958487      -1.41217653      -0.19701848       0.58851084      -2.71716671      -0.55096406
Si      15.43046587      50.77187064      -4.33786751      -6.16706449      -0.24776190       3.23183356       0.75753195       2.97954934       0.46235199
Si      19.05653784      32.61040260      -6.00990680       2.56482151       2.34194880     -10.30519186      -1.06392779      -1.46630506       1.84247857
Si      -3.38258854      34.02708239      -7.68293334       0.44237841       4.18654540      -1.14060771      -1.54214898      -0.90827559       1.08811981
Si      32.51740753      37.69668499     -10.33929952       1.71787952      -3.39503975      -7.54128513      -1.39963637      -1.80820830       0.54975927
Si      20.46264843      22.86382050       6.33418391      -0.12970598      -1.08427554      -3.84892753      -0.07413222       2.36135980      -1.29141895
Si       3.97064789      23.38578018       1.28508610       4.65830583      -1.08461989       0.41561127       0.17321694       0.19686381       0.50547498
Si      13.63946946      28.22645384      -7.61440665       1.60860010      -0.10094874      -5.95162091      -0.28816217       1.16729385      -1.59104227
Si      23.51722391      48.26700301      -9.26182221       1.00228949      -5.03595765       0.64624154       0.31375879       1.89309627      -0.07020517
Si      16.46635897      31.53573774     -20.25888272       4.66447163       0.83065061      -5.38670330       2.23891921      -1.01116097       0.07686946
Si      -3.41979327      44.01852413      -5.48733723       3.03691964      -0.50183279      -5.95287812       2.80197353       0.35700250      -2.40201095
Si       2.32251633      33.84296604       1.87085453      -8.35901566       1.88563771       2.42737913      -1.13515629      -0.41440442       0.62618575
Si      27.23013832      47.14429473       2.11727863      -3.21281247      -2.60917737      -2.79629887      -0.12257971       0.50295166      -0.66858787
Si      21.75056374      44.52365229       3.55946518      -2.47745979      -0.37289337      -0.34800285       0.36434702      -0.21176323       1.77008010
Si      26.50771888      20.86388153      -8.22692485      -0.22698959       3.63837872       0.27868949      -0.25242936       2.65063547      -0.03439895
Si      20.95808226      62.35708209       0.85778726      -1.75949384      -0.64299374       1.15514898      -0.44960807      -0.74268788       1.58014219
Si      17.21233151      26.31532699       5.18640942      -4.72165956      -2.67678303       4.15911009      -1.17553940      -0.83581815       0.54476298
Si      20.95644941      52.21232215       3.27731876      -0.11813134      -3.01548365      -2.67918522      -0.46006082      -1.00698424      -0.82068133
Si      19.05129093      41.35310388     -14.91403114      -1.89322948       5.86711385      -0.83700117      -1.17963969      -4.95309938      -0.70524577
Si       5.12246980      39.61101432      -4.05693098       2.45095889      -5.26697738       0.11771484       0.90416837       0.02990312      -1.81875337
