# May want to change NCORE, KPAR, AEXX, ENCUT, IBRION, LREAL, NUPDOWN, ISPIN, MAGMOM = Typical variable parameters
# ShakeNBreak INCAR with coarse settings to maximise speed with sufficient accuracy for qualitative structure searching = 
ADDGRID = True
# AEXX = 0.25
ALGO = NORMAL (GGA+U)
EDIFF = 1e-07
EDIFFG = -0.005
ENCUT = 450
GGA = Pe
# HFSCREEN = 0.208
IBRION = 2
ICHARG = 1
ICORELEVEL = 0  # needed if using the kumagai-oba (efnv) anisotropic charge correction scheme
ISIF = 2
ISMEAR = 0
ISPIN = 2
ISYM = 0
KPAR = 1  # only one k-point (γ-only)
# LASPH = True
LCHARG = False
LDAU = True
LDAUJ = 0.0 0.0 0.0
LDAUL = -1 2 -1
LDAUPRINT = 1
LDAUTYPE = 2
LDAUU = 0.0 6.2 0.0
# LHFCALC = True
LMAXMIX = 6
LORBIT = 11
LREAL = False
LVHAR = True
LWAVE = True
MAGMOM = 32*0.6 16*5.0 65*0.6
NCORE = 16
NEDOS = 2000
NELECT = 902.0
NELM = 40
NSW = 100
NUPDOWN = 0
POTIM = 0.1
PREC = Accurate
# PRECFOCK = Fast
ROPT = 1e-3 1e-3 1e-3
SIGMA = 0.05
