ITEM: TIMESTEP
0
ITEM: NUMBER OF ATOMS
200
ITEM: BOX BOUNDS pp pp pp
-9.045920656144343 9.045920656144343
-9.045920656144343 9.045920656144343
-9.045920656144343 9.045920656144343
ITEM: ATOMS id type x y z
1 1 3.441 3.710 2.326 
2 1 3.811 5.529 -0.340 
3 1 2.742 2.607 -5.667 
4 1 -2.442 5.185 7.042 
5 1 -6.755 -1.382 1.263 
6 1 2.730 -8.426 6.994 
7 1 3.524 -2.603 1.457 
8 1 2.222 6.552 8.175 
9 1 3.085 8.419 1.866 
10 1 -7.604 5.484 -0.935 
11 1 0.965 -4.362 4.023 
12 1 7.900 8.530 2.288 
13 1 -7.345 -4.696 -1.840 
14 1 8.075 -6.421 3.400 
15 1 6.030 0.433 8.763 
16 1 1.629 8.881 -5.697 
17 1 -3.022 -7.697 -0.009 
18 1 0.851 -7.673 -2.977 
19 1 -4.838 1.078 2.854 
20 1 -1.327 0.155 -3.083 
21 1 0.999 -1.527 -8.889 
22 1 0.004 -6.003 -5.706 
23 1 5.780 5.043 -5.639 
24 1 8.804 5.879 -3.970 
25 1 -7.135 7.512 7.706 
26 1 3.853 8.923 -8.025 
27 1 7.607 2.120 0.821 
28 1 -7.244 8.058 -5.234 
29 1 -1.146 2.922 -4.893 
30 1 -6.787 -1.732 4.871 
31 1 -5.103 1.056 -0.351 
32 1 1.016 5.969 1.867 
33 1 0.532 -0.001 -5.769 
34 1 8.879 5.165 7.508 
35 1 0.097 -6.504 6.501 
36 1 -7.866 2.205 8.449 
37 1 2.742 -4.247 6.697 
38 1 -0.974 -6.545 2.882 
39 1 -6.397 1.490 5.725 
40 1 0.513 3.976 -7.491 
41 1 -0.932 -5.619 -1.467 
42 1 8.990 -7.561 -6.205 
43 1 7.811 -3.448 -1.323 
44 1 3.535 -0.374 -7.199 
45 1 2.736 8.503 -1.348 
46 1 -5.354 -8.237 6.065 
47 1 -6.999 -6.156 4.235 
48 1 4.313 -6.165 -1.016 
49 1 3.804 -1.169 7.097 
50 1 2.854 5.981 -6.821 
51 1 -2.880 5.936 2.919 
52 1 3.522 3.943 6.718 
53 1 5.916 -6.318 -6.040 
54 1 5.722 8.150 -0.235 
55 1 4.089 -3.354 -8.511 
56 1 -6.118 -0.834 7.990 
57 1 5.312 6.393 2.759 
58 1 7.541 -1.219 -3.849 
59 1 2.890 -6.264 -7.078 
60 1 -1.342 0.768 0.143 
61 1 7.479 5.385 0.434 
62 1 -8.168 -2.199 -6.000 
63 1 5.153 -8.747 4.721 
64 1 -5.917 -6.036 0.592 
65 1 -5.607 4.413 7.827 
66 1 -7.696 -7.658 -2.790 
67 1 6.806 0.431 4.587 
68 1 6.850 1.666 -2.329 
69 1 0.705 -4.720 -8.801 
70 1 -4.862 6.698 5.601 
71 1 7.608 -1.315 1.613 
72 1 5.537 -7.400 1.684 
73 1 -7.154 9.039 0.346 
74 1 -5.998 0.397 -7.176 
75 1 1.456 -4.855 0.598 
76 1 6.978 -8.496 -8.616 
77 1 -2.742 -4.551 1.022 
78 1 2.881 -5.525 -3.969 
79 1 4.719 -6.281 8.378 
80 1 8.332 -2.968 4.358 
81 1 -1.184 -2.831 -6.696 
82 1 -5.166 8.154 2.795 
83 1 -3.970 -8.047 -3.039 
84 1 -3.681 -0.481 5.568 
85 1 8.853 6.906 -7.661 
86 1 -2.995 -5.462 -5.106 
87 1 -3.487 6.714 -5.921 
88 1 1.390 1.961 -2.858 
89 1 -3.035 -2.371 -4.064 
90 1 4.379 3.746 -3.097 
91 1 8.404 -6.859 -0.095 
92 1 0.802 -8.914 4.267 
93 1 -4.326 2.880 -5.633 
94 1 8.095 3.026 -4.871 
95 1 0.780 -7.857 0.406 
96 1 -7.417 2.568 -2.085 
97 1 -4.372 3.646 4.590 
98 1 -7.886 0.766 -4.620 
99 1 -5.925 7.692 -2.410 
100 1 3.423 -0.550 -3.770 
101 1 -0.387 6.114 4.834 
102 1 -8.399 -4.145 1.557 
103 1 8.461 -4.804 -4.375 
104 1 -6.124 6.065 -7.529 
105 1 -5.432 -5.932 8.261 
106 1 5.217 -3.405 -4.427 
107 1 0.183 -2.135 1.678 
108 1 5.772 6.389 -8.593 
109 1 -4.471 4.085 0.732 
110 1 0.386 3.824 7.480 
111 1 -0.584 -3.182 6.732 
112 1 7.830 8.385 6.630 
113 1 8.618 0.503 -7.412 
114 1 6.693 2.939 6.740 
115 1 -7.357 -5.010 -7.492 
116 1 2.923 -3.203 -1.794 
117 1 5.187 -2.217 4.209 
118 1 -4.716 -2.041 -1.254 
119 1 7.683 -5.175 -8.525 
120 1 -2.101 -3.132 3.947 
121 1 4.491 3.339 -8.260 
122 1 -6.075 4.943 -4.019 
123 1 -3.947 7.260 -0.004 
124 1 3.700 1.338 4.972 
125 1 2.119 -3.050 -6.005 
126 1 -8.068 -4.416 6.732 
127 1 -1.884 2.250 5.818 
128 1 8.163 8.337 -2.133 
129 1 -0.737 7.055 -7.920 
130 1 6.709 -2.182 -7.073 
131 1 -1.231 0.013 3.564 
132 1 -7.854 8.530 4.554 
133 1 5.775 1.056 -5.565 
134 1 -8.248 -7.487 7.906 
135 1 6.286 -4.287 1.464 
136 1 0.278 0.061 6.463 
137 1 1.035 3.086 0.137 
138 1 -0.798 8.035 -1.478 
139 1 -3.210 -8.091 -7.018 
140 1 -0.368 8.209 7.220 
141 1 -4.801 0.410 -3.581 
142 1 -8.390 0.639 3.281 
143 1 -4.047 -5.020 -2.019 
144 1 -2.465 8.914 4.861 
145 1 -7.385 4.453 4.851 
146 1 -5.789 -3.871 -4.684 
147 1 -7.378 -1.785 -2.911 
148 1 1.068 3.300 4.414 
149 1 -4.864 -2.741 -7.617 
150 1 -2.935 -5.745 5.596 
151 1 4.200 2.072 -0.460 
152 1 -7.389 3.094 1.553 
153 1 2.075 -1.487 4.361 
154 1 0.111 -7.886 -8.364 
155 1 -2.731 4.225 -8.019 
156 1 1.119 5.272 -2.201 
157 1 7.652 3.599 -8.073 
158 1 -2.503 -1.376 8.608 
159 1 -7.414 3.369 -6.674 
160 1 -4.530 -3.315 6.761 
161 1 -6.236 -8.635 -8.022 
162 1 5.026 -5.319 4.567 
163 1 0.109 -3.394 -3.606 
164 1 5.473 6.357 6.362 
165 1 -2.943 5.972 -2.902 
166 1 -2.583 -4.956 -8.670 
167 1 -1.563 3.022 2.467 
168 1 -1.446 5.146 -0.067 
169 1 -3.365 -1.395 1.541 
170 1 -7.713 6.279 2.132 
171 1 1.863 -0.388 -0.652 
172 1 2.752 6.656 4.791 
173 1 -2.917 2.859 -2.041 
174 1 -8.756 -2.360 9.024 
175 1 6.544 -3.089 7.213 
176 1 2.376 1.426 8.482 
177 1 6.684 8.181 -5.481 
178 1 1.595 0.894 2.322 
179 1 -4.138 -7.006 2.986 
180 1 -1.427 -2.360 -1.042 
181 1 7.249 -6.454 6.482 
182 1 -5.187 -3.775 3.042 
183 1 4.811 0.324 2.054 
184 1 -0.115 6.029 -4.962 
185 1 -8.887 -0.064 -0.855 
186 1 -1.466 8.943 -4.608 
187 1 -2.716 -7.826 7.945 
188 1 6.372 3.365 3.470 
189 1 7.991 5.949 4.400 
190 1 2.709 -6.723 2.978 
191 1 -1.327 8.366 1.856 
192 1 -2.838 0.037 -6.366 
193 1 -5.914 -6.965 -5.340 
194 1 3.619 6.811 -3.850 
195 1 8.879 -0.205 6.774 
196 1 -3.811 7.432 8.822 
197 1 -3.991 1.642 8.375 
198 1 -0.848 1.317 -8.648 
199 1 5.449 -1.145 -1.046 
200 1 4.714 -8.188 -3.623 
ITEM: TIMESTEP
1000
ITEM: NUMBER OF ATOMS
200
ITEM: BOX BOUNDS pp pp pp
-9.045920656144343 9.045920656144343
-9.045920656144343 9.045920656144343
-9.045920656144343 9.045920656144343
ITEM: ATOMS id type x y z
1 1 3.807 3.750 2.322 
2 1 4.334 5.235 -0.750 
3 1 2.567 2.480 -5.968 
4 1 -2.442 5.185 7.042 
5 1 -6.755 -1.382 1.263 
6 1 2.953 -8.323 7.112 
7 1 3.115 -2.327 1.503 
8 1 2.207 6.841 8.182 
9 1 2.975 8.403 1.729 
10 1 -7.691 5.623 -1.166 
11 1 0.965 -4.362 4.023 
12 1 7.976 8.470 2.157 
13 1 -7.392 -4.657 -1.717 
14 1 8.132 -6.243 3.297 
15 1 5.777 0.727 8.729 
16 1 1.629 8.881 -5.697 
17 1 -3.116 -7.859 -0.001 
18 1 0.873 -7.784 -2.932 
19 1 -5.352 1.098 2.849 
20 1 -1.326 0.166 -3.150 
21 1 0.961 -1.499 8.919 
22 1 0.040 -5.830 -5.669 
23 1 5.926 5.029 -5.752 
24 1 8.880 5.584 -3.770 
25 1 -7.240 7.553 7.563 
26 1 4.151 8.875 -7.954 
27 1 7.089 2.162 0.733 
28 1 -7.253 7.853 -5.134 
29 1 -0.991 3.082 -4.753 
30 1 -6.907 -1.942 4.680 
31 1 -5.135 1.279 -0.354 
32 1 1.060 5.824 1.865 
33 1 0.801 -0.128 -5.610 
34 1 8.879 5.165 7.508 
35 1 0.215 -6.404 6.454 
36 1 -7.866 2.205 8.449 
37 1 2.877 -4.064 6.599 
38 1 -0.932 -6.627 2.755 
39 1 -6.410 1.488 5.873 
40 1 0.804 4.008 -7.729 
41 1 -1.039 -5.466 -1.478 
42 1 9.011 -7.819 -6.041 
43 1 7.619 -3.446 -1.317 
44 1 3.535 -0.374 -7.199 
45 1 2.815 8.322 -1.309 
46 1 -5.354 -8.237 6.065 
47 1 -7.176 -6.422 4.352 
48 1 4.176 -6.031 -0.990 
49 1 3.723 -1.050 7.022 
50 1 2.832 5.987 -6.731 
51 1 -2.871 6.005 2.909 
52 1 3.576 3.902 6.850 
53 1 6.088 -6.530 -5.572 
54 1 5.597 7.949 -0.029 
55 1 3.967 -3.346 -8.566 
56 1 -5.906 -0.934 7.971 
57 1 5.453 6.440 2.849 
58 1 7.611 -1.219 -4.104 
59 1 3.125 -6.271 -7.011 
60 1 -1.615 0.827 0.090 
61 1 7.551 5.391 0.264 
62 1 -8.171 -2.378 -6.159 
63 1 5.280 -8.583 4.532 
64 1 -5.753 -6.107 0.592 
65 1 -5.607 4.413 7.827 
66 1 -8.073 -7.778 -2.678 
67 1 6.812 0.351 4.617 
68 1 6.586 1.574 -2.450 
69 1 0.870 -4.774 -8.623 
70 1 -4.862 6.698 5.601 
71 1 7.469 -1.317 1.605 
72 1 5.537 -7.400 1.684 
73 1 -7.272 -8.710 0.578 
74 1 -5.998 0.397 -7.176 
75 1 1.456 -4.855 0.598 
76 1 7.131 -8.577 -8.626 
77 1 -2.859 -4.649 0.955 
78 1 2.853 -5.613 -4.044 
79 1 4.719 -6.281 8.378 
80 1 8.266 -3.241 4.247 
81 1 -1.086 -2.491 -6.604 
82 1 -5.166 8.154 2.795 
83 1 -3.874 -8.163 -2.951 
84 1 -3.711 -0.589 5.626 
85 1 8.761 6.783 -7.502 
86 1 -3.242 -5.171 -5.522 
87 1 -3.803 7.214 -5.665 
88 1 1.390 1.961 -2.858 
89 1 -3.164 -2.364 -4.143 
90 1 4.463 3.570 -3.440 
91 1 7.728 -6.947 -0.452 
92 1 1.101 -8.952 4.550 
93 1 -4.413 2.749 -5.954 
94 1 8.048 2.915 -4.653 
95 1 0.780 -7.857 0.406 
96 1 -7.277 2.665 -2.194 
97 1 -4.420 3.713 4.634 
98 1 -7.879 0.931 -4.783 
99 1 -5.660 7.583 -2.454 
100 1 3.898 -0.365 -3.820 
101 1 -0.387 6.114 4.834 
102 1 -8.483 -4.046 1.463 
103 1 8.467 -4.970 -4.315 
104 1 -6.127 6.061 -7.548 
105 1 -5.546 -6.103 8.241 
106 1 5.335 -3.475 -4.156 
107 1 0.037 -2.167 1.609 
108 1 5.698 6.278 -8.670 
109 1 -4.963 4.215 1.443 
110 1 0.495 4.098 7.373 
111 1 -0.708 -3.601 6.930 
112 1 7.853 8.393 6.460 
113 1 8.486 0.592 -7.570 
114 1 6.453 2.974 6.625 
115 1 -7.684 -5.325 -7.556 
116 1 2.816 -3.218 -2.042 
117 1 5.253 -2.255 4.105 
118 1 -4.889 -2.147 -1.299 
119 1 7.554 -5.444 -8.605 
120 1 -2.257 -3.367 4.018 
121 1 4.503 3.553 -8.463 
122 1 -6.176 4.852 -4.271 
123 1 -3.777 7.327 0.052 
124 1 3.638 1.327 4.923 
125 1 2.119 -3.334 -6.014 
126 1 -8.101 -4.268 6.747 
127 1 -2.020 2.250 5.767 
128 1 7.766 8.068 -2.185 
129 1 -1.052 7.062 -7.479 
130 1 6.711 -2.554 -7.122 
131 1 -1.188 -0.214 3.748 
132 1 -7.740 8.613 4.338 
133 1 5.758 1.403 -6.047 
134 1 -8.373 -7.632 8.111 
135 1 6.223 -4.379 1.500 
136 1 0.277 0.235 6.501 
137 1 1.209 3.052 0.167 
138 1 -0.763 7.670 -1.687 
139 1 -3.015 -7.899 -7.021 
140 1 -0.672 7.880 7.431 
141 1 -4.765 0.388 -3.567 
142 1 -8.544 0.642 3.276 
143 1 -4.087 -5.145 -2.336 
144 1 -2.313 8.983 4.693 
145 1 -7.485 4.663 4.962 
146 1 -5.965 -3.854 -4.657 
147 1 -7.263 -1.605 -2.902 
148 1 0.698 3.247 4.296 
149 1 -4.466 -2.607 -7.465 
150 1 -2.988 -5.820 5.615 
151 1 4.200 2.072 -0.460 
152 1 -7.882 2.906 1.433 
153 1 2.075 -1.487 4.361 
154 1 0.124 -7.866 -8.466 
155 1 -2.623 3.952 -8.045 
156 1 1.439 5.233 -2.288 
157 1 7.640 3.421 -8.166 
158 1 -2.352 -1.645 8.653 
159 1 -7.609 3.522 -6.874 
160 1 -4.803 -3.554 6.613 
161 1 -6.067 -8.519 -7.765 
162 1 4.983 -5.403 4.650 
163 1 0.204 -3.389 -3.535 
164 1 5.351 6.509 6.534 
165 1 -2.965 5.706 -3.008 
166 1 -2.583 -4.956 -8.670 
167 1 -2.326 2.680 2.473 
168 1 -1.495 4.896 -0.062 
169 1 -3.572 -1.460 1.642 
170 1 -7.760 6.083 1.804 
171 1 1.512 -0.441 -0.824 
172 1 2.782 6.145 4.734 
173 1 -2.924 2.782 -2.145 
174 1 -8.756 -2.360 9.024 
175 1 6.613 -3.002 7.298 
176 1 2.258 1.439 8.553 
177 1 6.684 8.181 -5.481 
178 1 1.595 0.894 2.322 
179 1 -4.205 -6.938 3.222 
180 1 -1.600 -2.226 -1.175 
181 1 7.534 -6.339 6.466 
182 1 -5.346 -4.051 2.795 
183 1 4.651 0.510 2.166 
184 1 -0.127 6.035 -4.725 
185 1 -8.707 0.192 -0.824 
186 1 -1.466 8.943 -4.608 
187 1 -2.716 -7.826 7.945 
188 1 6.635 3.327 3.599 
189 1 7.856 5.911 4.691 
190 1 2.709 -6.723 2.978 
191 1 -1.148 8.169 1.644 
192 1 -2.803 0.154 -6.518 
193 1 -5.913 -7.077 -5.139 
194 1 3.961 7.182 -4.061 
195 1 -8.948 -0.187 6.693 
196 1 -4.079 7.415 8.704 
197 1 -3.935 1.562 8.233 
198 1 -0.678 1.274 -8.622 
199 1 5.106 -1.125 -0.638 
200 1 4.567 -8.005 -3.373 
ITEM: TIMESTEP
2000
ITEM: NUMBER OF ATOMS
200
ITEM: BOX BOUNDS pp pp pp
-9.045920656144343 9.045920656144343
-9.045920656144343 9.045920656144343
-9.045920656144343 9.045920656144343
ITEM: ATOMS id type x y z
1 1 3.417 3.538 2.202 
2 1 4.194 5.224 -0.494 
3 1 2.739 2.791 -5.920 
4 1 -2.446 5.406 7.132 
5 1 -7.036 -1.622 1.311 
6 1 2.948 -8.430 7.182 
7 1 3.374 -2.896 1.471 
8 1 2.475 6.759 8.317 
9 1 2.952 8.477 1.861 
10 1 -7.713 5.969 -0.950 
11 1 0.767 -4.522 3.946 
12 1 7.920 8.610 1.938 
13 1 -7.611 -4.747 -1.886 
14 1 8.024 -6.402 3.500 
15 1 5.992 0.796 8.808 
16 1 1.849 8.749 -5.777 
17 1 -3.046 -7.908 0.132 
18 1 0.819 -7.613 -2.847 
19 1 -5.289 1.122 2.831 
20 1 -1.326 0.166 -3.150 
21 1 1.217 -1.552 -8.992 
22 1 -0.106 -6.093 -5.358 
23 1 5.782 5.037 -5.782 
24 1 8.716 5.775 -3.728 
25 1 -7.083 7.664 7.664 
26 1 4.239 8.783 -7.599 
27 1 7.317 1.925 0.783 
28 1 -7.653 8.028 -4.905 
29 1 -1.406 2.769 -5.149 
30 1 -6.483 -1.847 4.811 
31 1 -4.990 1.312 -0.333 
32 1 1.060 5.824 1.865 
33 1 0.618 0.032 -5.847 
34 1 8.665 5.493 7.763 
35 1 0.245 -6.773 6.381 
36 1 -8.069 2.526 8.336 
37 1 2.877 -4.064 6.599 
38 1 -0.988 -6.811 3.010 
39 1 -6.406 1.509 5.862 
40 1 0.348 4.407 -7.615 
41 1 -1.039 -5.466 -1.478 
42 1 9.002 -7.789 -6.204 
43 1 7.534 -3.365 -1.582 
44 1 3.826 -0.528 -7.210 
45 1 2.229 8.183 -1.459 
46 1 -5.354 -8.237 6.065 
47 1 -7.247 -6.458 4.398 
48 1 3.488 -6.758 -0.891 
49 1 3.723 -1.050 7.022 
50 1 2.832 5.987 -6.731 
51 1 -2.871 6.005 2.909 
52 1 3.358 3.890 6.864 
53 1 6.035 -6.207 -5.704 
54 1 5.216 8.224 -0.412 
55 1 4.039 -3.227 -8.569 
56 1 -6.048 -1.474 7.881 
57 1 5.313 6.135 2.411 
58 1 7.741 -0.937 -4.273 
59 1 3.225 -6.227 -7.027 
60 1 -1.633 0.917 0.039 
61 1 7.280 5.652 0.072 
62 1 -7.923 -2.334 -6.110 
63 1 5.593 -8.634 4.817 
64 1 -5.868 -6.343 0.325 
65 1 -5.538 4.238 7.709 
66 1 -7.938 -7.700 -2.873 
67 1 6.437 0.526 4.580 
68 1 6.839 1.782 -2.206 
69 1 0.793 -4.885 -8.511 
70 1 -4.829 6.751 5.366 
71 1 7.495 -1.243 1.777 
72 1 5.307 -7.553 1.660 
73 1 -7.615 9.026 0.058 
74 1 -6.181 0.414 -7.587 
75 1 1.363 -4.674 0.261 
76 1 6.983 -8.348 -8.634 
77 1 -2.548 -4.639 1.011 
78 1 2.853 -5.613 -4.044 
79 1 4.862 -6.149 8.192 
80 1 8.465 -3.097 4.668 
81 1 -1.095 -2.659 -6.665 
82 1 -5.463 8.006 2.471 
83 1 -3.604 -7.967 -3.352 
84 1 -3.579 -0.777 5.712 
85 1 8.789 6.994 -7.374 
86 1 -3.236 -5.248 -5.301 
87 1 -4.310 7.613 -5.401 
88 1 1.689 2.095 -3.035 
89 1 -3.164 -2.364 -4.143 
90 1 4.401 3.571 -3.324 
91 1 7.776 -7.058 -0.461 
92 1 1.066 -8.996 4.481 
93 1 -4.749 3.033 -5.559 
94 1 8.214 3.051 -4.916 
95 1 0.373 -7.744 0.253 
96 1 -8.147 3.011 -2.034 
97 1 -4.723 3.719 4.418 
98 1 -7.315 1.305 -4.777 
99 1 -5.971 7.953 -2.288 
100 1 3.837 -0.470 -3.541 
101 1 -0.260 6.104 4.941 
102 1 -8.474 -4.621 1.281 
103 1 8.776 -4.493 -4.562 
104 1 -6.133 6.371 -7.376 
105 1 -5.546 -6.103 8.241 
106 1 5.532 -3.447 -4.140 
107 1 0.108 -2.173 1.487 
108 1 6.004 6.240 -8.637 
109 1 -5.164 4.243 0.918 
110 1 0.296 4.123 7.315 
111 1 -0.424 -3.336 6.858 
112 1 8.237 8.556 6.835 
113 1 8.700 0.293 -7.387 
114 1 6.453 2.974 6.625 
115 1 -7.381 -5.232 -7.446 
116 1 3.473 -3.391 -1.800 
117 1 5.142 -2.426 4.157 
118 1 -4.889 -2.147 -1.299 
119 1 7.705 -5.168 -8.554 
120 1 -2.257 -3.367 4.018 
121 1 4.291 3.561 -8.408 
122 1 -6.316 4.798 -3.906 
123 1 -3.602 7.255 -0.274 
124 1 3.209 1.582 5.225 
125 1 2.453 -2.836 -5.697 
126 1 -8.040 -4.581 6.913 
127 1 -2.020 2.250 5.767 
128 1 7.898 8.208 -1.966 
129 1 -1.421 7.640 -7.463 
130 1 6.730 -2.602 -7.103 
131 1 -1.359 0.041 3.336 
132 1 -7.957 8.619 4.150 
133 1 5.646 1.327 -5.562 
134 1 -8.334 -7.349 8.602 
135 1 6.374 -4.096 1.652 
136 1 0.080 -0.180 6.587 
137 1 0.811 2.807 -0.061 
138 1 -0.763 7.670 -1.687 
139 1 -3.062 -7.749 -7.098 
140 1 -0.414 7.981 7.302 
141 1 -4.713 0.386 -3.656 
142 1 -8.618 0.129 3.720 
143 1 -4.030 -5.111 -2.117 
144 1 -2.313 8.983 4.693 
145 1 -7.619 4.717 5.207 
146 1 -5.979 -4.097 -4.586 
147 1 -7.455 -1.555 -3.082 
148 1 0.659 3.124 4.351 
149 1 -4.708 -2.439 -7.191 
150 1 -2.901 -5.965 5.627 
151 1 4.021 2.101 -0.784 
152 1 -7.826 2.433 1.416 
153 1 1.745 -1.488 4.201 
154 1 0.473 -7.926 -8.237 
155 1 -2.948 4.659 -7.746 
156 1 1.604 5.157 -2.104 
157 1 7.372 3.438 -8.058 
158 1 -2.444 -1.452 8.604 
159 1 -7.550 3.654 -7.043 
160 1 -4.391 -3.641 6.731 
161 1 -6.050 -8.665 -7.927 
162 1 5.003 -5.397 4.982 
163 1 0.359 -2.941 -3.446 
164 1 5.472 6.850 6.529 
165 1 -2.952 5.784 -3.103 
166 1 -2.639 -4.583 -8.940 
167 1 -2.313 2.777 2.600 
168 1 -1.703 4.831 -0.258 
169 1 -3.453 -1.375 1.615 
170 1 -7.885 5.958 2.230 
171 1 1.670 -0.549 -0.898 
172 1 2.805 6.193 4.761 
173 1 -3.200 2.863 -2.487 
174 1 -8.710 -2.265 8.939 
175 1 6.570 -2.389 7.387 
176 1 2.123 1.516 8.618 
177 1 6.487 8.286 -5.320 
178 1 1.499 0.857 2.132 
179 1 -4.477 -7.242 3.126 
180 1 -1.581 -2.232 -1.188 
181 1 7.534 -6.339 6.466 
182 1 -5.301 -3.943 2.943 
183 1 4.651 0.510 2.166 
184 1 -0.119 5.867 -4.595 
185 1 8.829 -0.343 -0.883 
186 1 -1.152 8.925 -4.678 
187 1 -2.448 -7.812 7.975 
188 1 6.653 3.374 3.329 
189 1 7.885 6.181 4.316 
190 1 2.562 -6.733 2.912 
191 1 -1.125 8.166 1.735 
192 1 -2.694 0.271 -6.709 
193 1 -6.029 -7.033 -5.085 
194 1 3.933 6.563 -3.746 
195 1 8.669 0.254 6.870 
196 1 -4.088 7.475 8.651 
197 1 -3.867 1.416 8.384 
198 1 -0.941 1.623 -8.964 
199 1 5.135 -1.011 -0.714 
200 1 4.727 -8.098 -3.330 
ITEM: TIMESTEP
3000
ITEM: NUMBER OF ATOMS
200
ITEM: BOX BOUNDS pp pp pp
-9.045920656144343 9.045920656144343
-9.045920656144343 9.045920656144343
-9.045920656144343 9.045920656144343
ITEM: ATOMS id type x y z
1 1 3.111 3.472 2.433 
2 1 4.007 5.162 -0.470 
3 1 2.422 2.729 -5.871 
4 1 -2.528 5.594 6.710 
5 1 -6.828 -1.291 1.346 
6 1 3.045 -8.546 7.099 
7 1 3.568 -2.594 1.598 
8 1 2.369 6.554 8.211 
9 1 2.871 8.477 1.940 
10 1 -7.927 5.891 -1.021 
11 1 0.419 -4.532 3.980 
12 1 7.919 8.442 1.866 
13 1 -7.701 -4.586 -1.783 
14 1 7.966 -6.640 3.276 
15 1 6.105 0.406 8.657 
16 1 1.933 8.883 -5.649 
17 1 -3.136 -7.977 0.098 
18 1 0.808 -7.616 -2.718 
19 1 -4.661 1.106 2.857 
20 1 -1.317 0.223 -3.158 
21 1 1.257 -1.494 -8.803 
22 1 -0.142 -5.962 -5.775 
23 1 6.037 5.356 -5.856 
24 1 8.245 5.960 -4.138 
25 1 -7.310 7.582 7.721 
26 1 4.135 8.478 -7.949 
27 1 7.192 2.196 0.735 
28 1 -7.668 7.892 -4.817 
29 1 -1.145 2.785 -5.284 
30 1 -6.754 -1.888 5.175 
31 1 -5.199 0.921 -0.336 
32 1 1.175 5.844 1.306 
33 1 0.922 0.040 -5.598 
34 1 8.881 5.157 7.880 
35 1 0.211 -6.488 6.514 
36 1 -7.900 2.167 8.425 
37 1 2.447 -4.166 6.760 
38 1 -1.369 -6.741 2.853 
39 1 -6.004 1.436 5.788 
40 1 0.307 4.659 -7.983 
41 1 -1.013 -5.296 -1.359 
42 1 -8.876 -7.675 -5.956 
43 1 7.801 -3.301 -1.796 
44 1 3.914 -0.422 -7.168 
45 1 2.297 8.182 -1.287 
46 1 -5.378 -8.326 5.973 
47 1 -7.278 -6.260 4.135 
48 1 3.577 -6.836 -0.871 
49 1 3.867 -0.966 6.871 
50 1 2.832 5.987 -6.731 
51 1 -2.871 6.005 2.909 
52 1 3.762 3.651 6.722 
53 1 6.134 -5.693 -5.912 
54 1 5.389 8.220 -0.430 
55 1 4.039 -3.227 -8.569 
56 1 -5.865 -1.322 8.132 
57 1 5.530 6.272 2.292 
58 1 7.609 -0.706 -4.615 
59 1 3.161 -6.351 -7.111 
60 1 -1.761 0.784 -0.037 
61 1 7.391 5.270 0.010 
62 1 -7.780 -2.029 -6.364 
63 1 5.411 -8.748 4.370 
64 1 -6.037 -6.459 0.435 
65 1 -5.494 4.552 7.843 
66 1 -7.852 -7.531 -2.549 
67 1 6.352 0.457 4.673 
68 1 6.715 1.575 -2.558 
69 1 0.793 -4.885 -8.511 
70 1 -4.880 6.814 5.194 
71 1 7.641 -1.643 1.691 
72 1 5.379 -7.518 1.460 
73 1 -7.724 8.816 0.365 
74 1 -5.935 0.640 -7.581 
75 1 1.430 -4.796 0.464 
76 1 6.988 -8.034 -8.541 
77 1 -2.840 -4.576 1.127 
78 1 2.853 -5.613 -4.044 
79 1 4.884 -6.055 8.280 
80 1 8.576 -3.359 4.270 
81 1 -0.827 -2.792 -6.577 
82 1 -5.461 7.791 2.192 
83 1 -3.583 -7.904 -3.039 
84 1 -3.544 -0.496 5.741 
85 1 8.817 7.670 -7.691 
86 1 -3.175 -5.160 -5.210 
87 1 -4.257 7.721 -5.417 
88 1 1.540 1.743 -2.960 
89 1 -3.067 -2.242 -4.076 
90 1 4.324 3.849 -3.363 
91 1 7.961 -6.552 -0.805 
92 1 1.066 -8.996 4.481 
93 1 -4.594 2.945 -5.675 
94 1 8.214 3.051 -4.916 
95 1 0.452 -7.750 0.227 
96 1 -8.503 3.052 -1.820 
97 1 -4.543 3.866 4.341 
98 1 -7.342 1.278 -4.699 
99 1 -5.728 7.920 -2.361 
100 1 3.874 -0.336 -3.704 
101 1 -0.222 5.994 4.425 
102 1 -8.478 -4.655 1.397 
103 1 -8.969 -4.381 -4.926 
104 1 -5.982 6.242 -7.528 
105 1 -5.010 -6.394 8.560 
106 1 5.424 -3.148 -4.114 
107 1 -0.078 -2.087 1.541 
108 1 6.272 6.155 -8.794 
109 1 -4.959 4.323 0.711 
110 1 0.223 4.007 7.075 
111 1 -0.956 -3.470 6.813 
112 1 7.768 8.796 6.860 
113 1 8.656 0.535 -7.352 
114 1 6.949 2.843 6.860 
115 1 -6.997 -5.160 -7.307 
116 1 3.473 -3.391 -1.800 
117 1 5.505 -2.301 4.008 
118 1 -4.972 -2.372 -1.159 
119 1 8.033 -5.261 -8.313 
120 1 -2.372 -3.242 3.959 
121 1 4.291 3.561 -8.408 
122 1 -6.365 4.947 -4.091 
123 1 -3.582 7.003 -0.371 
124 1 3.363 1.138 4.800 
125 1 2.523 -2.858 -5.678 
126 1 -7.550 -4.369 7.006 
127 1 -2.090 2.346 5.983 
128 1 7.898 8.208 -1.966 
129 1 -1.602 7.651 -7.561 
130 1 6.926 -2.614 -7.147 
131 1 -1.424 -0.060 3.419 
132 1 -7.902 8.802 4.166 
133 1 5.395 1.739 -5.640 
134 1 -8.122 -7.385 8.380 
135 1 5.988 -4.584 0.963 
136 1 0.282 -0.142 6.594 
137 1 0.970 2.901 0.091 
138 1 -0.763 7.670 -1.687 
139 1 -2.997 -7.735 -6.908 
140 1 -0.380 7.719 7.245 
141 1 -4.713 0.386 -3.656 
142 1 -8.538 0.376 3.918 
143 1 -4.030 -5.111 -2.117 
144 1 -2.327 8.652 4.876 
145 1 -8.017 4.106 5.051 
146 1 -5.937 -4.030 -4.497 
147 1 -7.429 -1.565 -3.240 
148 1 0.697 2.853 4.121 
149 1 -4.484 -2.341 -6.866 
150 1 -3.012 -6.118 5.911 
151 1 4.021 2.101 -0.784 
152 1 -7.695 2.216 1.456 
153 1 1.520 -1.749 4.140 
154 1 0.887 -8.568 -8.541 
155 1 -2.956 4.640 -7.980 
156 1 1.320 5.038 -2.252 
157 1 7.370 3.429 -7.957 
158 1 -2.369 -1.429 8.941 
159 1 -7.564 3.811 -6.911 
160 1 -4.601 -3.696 6.534 
161 1 -6.203 -8.820 -7.725 
162 1 4.672 -5.365 4.862 
163 1 0.749 -3.013 -3.282 
164 1 5.331 6.841 6.562 
165 1 -3.040 5.811 -3.499 
166 1 -2.651 -4.748 -8.905 
167 1 -1.996 2.980 2.526 
168 1 -1.699 4.506 0.007 
169 1 -3.453 -1.375 1.615 
170 1 -7.559 5.410 2.048 
171 1 1.266 -0.720 -1.252 
172 1 2.879 6.072 4.283 
173 1 -3.077 2.744 -2.304 
174 1 -8.950 -2.358 8.669 
175 1 6.495 -2.810 7.206 
176 1 2.532 1.353 8.619 
177 1 6.550 8.454 -5.426 
178 1 1.830 0.379 1.711 
179 1 -4.455 -7.215 3.224 
180 1 -1.803 -2.420 -1.342 
181 1 7.569 -5.925 6.622 
182 1 -5.707 -3.867 2.769 
183 1 4.870 0.481 2.193 
184 1 -0.152 5.792 -4.919 
185 1 8.573 -0.501 -1.158 
186 1 -1.152 8.871 -4.515 
187 1 -2.032 -8.115 8.233 
188 1 6.354 3.594 3.535 
189 1 7.863 6.493 4.456 
190 1 2.704 -6.526 2.779 
191 1 -0.935 8.284 2.124 
192 1 -2.427 0.297 -6.451 
193 1 -5.935 -7.015 -5.143 
194 1 4.116 7.033 -3.594 
195 1 8.501 -0.074 6.686 
196 1 -4.160 7.792 8.527 
197 1 -3.863 1.414 8.572 
198 1 -0.705 1.394 -8.560 
199 1 5.232 -0.976 -0.793 
200 1 5.474 -7.870 -3.443 
ITEM: TIMESTEP
4000
ITEM: NUMBER OF ATOMS
200
ITEM: BOX BOUNDS pp pp pp
-9.045920656144343 9.045920656144343
-9.045920656144343 9.045920656144343
-9.045920656144343 9.045920656144343
ITEM: ATOMS id type x y z
1 1 3.482 3.767 2.426 
2 1 3.948 4.938 -0.457 
3 1 2.340 2.735 -5.992 
4 1 -2.618 5.447 6.757 
5 1 -7.354 -1.086 1.436 
6 1 3.513 -8.580 6.820 
7 1 3.356 -3.364 1.583 
8 1 2.442 6.209 8.222 
9 1 2.884 8.526 1.960 
10 1 -7.803 5.841 -0.920 
11 1 0.419 -4.532 3.980 
12 1 7.840 8.600 1.835 
13 1 -7.449 -4.551 -1.927 
14 1 8.268 -6.697 2.804 
15 1 5.734 0.836 8.883 
16 1 1.711 8.586 -5.350 
17 1 -3.060 -7.590 0.131 
18 1 0.808 -7.616 -2.718 
19 1 -5.008 0.811 2.754 
20 1 -1.356 0.320 -3.237 
21 1 1.350 -1.646 -8.787 
22 1 0.104 -6.343 -5.893 
23 1 5.736 5.011 -5.940 
24 1 7.536 5.890 -3.582 
25 1 -7.402 7.704 7.443 
26 1 3.891 8.584 -7.952 
27 1 7.275 2.183 0.517 
28 1 -7.834 7.940 -5.016 
29 1 -1.244 2.981 -5.207 
30 1 -6.675 -1.548 5.330 
31 1 -5.628 0.950 -0.639 
32 1 1.203 6.021 1.005 
33 1 0.586 0.131 -5.553 
34 1 8.743 5.159 7.617 
35 1 0.513 -7.042 6.838 
36 1 -7.618 2.342 8.313 
37 1 2.631 -4.029 6.587 
38 1 -0.937 -7.078 2.724 
39 1 -5.783 1.346 5.785 
40 1 0.537 4.399 -7.983 
41 1 -0.992 -5.472 -1.771 
42 1 8.915 -7.634 -6.209 
43 1 7.801 -3.301 -1.796 
44 1 3.659 -0.285 -6.926 
45 1 2.347 7.715 -1.567 
46 1 -5.555 -8.363 6.137 
47 1 -7.188 -5.990 4.531 
48 1 3.512 -6.596 -0.983 
49 1 3.737 -1.165 7.220 
50 1 2.963 6.063 -6.754 
51 1 -2.871 6.005 2.909 
52 1 3.543 3.714 6.512 
53 1 6.054 -6.125 -5.756 
54 1 5.396 7.909 -0.580 
55 1 4.039 -3.227 -8.569 
56 1 -5.888 -1.211 8.158 
57 1 5.700 6.065 2.101 
58 1 7.654 -0.748 -4.196 
59 1 3.160 -6.222 -7.464 
60 1 -1.727 0.913 0.039 
61 1 7.263 4.985 -0.465 
62 1 -7.526 -2.002 -6.399 
63 1 5.451 8.929 4.104 
64 1 -6.125 -5.932 0.929 
65 1 -5.280 4.743 7.645 
66 1 -7.909 -7.295 -2.799 
67 1 6.275 0.318 4.824 
68 1 6.388 1.452 -2.521 
69 1 0.650 -4.975 -8.865 
70 1 -5.186 6.828 5.269 
71 1 7.463 -1.307 2.247 
72 1 5.560 -7.411 1.261 
73 1 -7.801 -8.971 0.072 
74 1 -5.969 0.447 -7.406 
75 1 1.140 -4.845 0.278 
76 1 6.634 -8.189 -8.366 
77 1 -2.579 -4.502 1.419 
78 1 2.751 -5.790 -3.936 
79 1 4.937 -6.190 8.098 
80 1 8.757 -2.993 4.719 
81 1 -0.800 -2.800 -6.670 
82 1 -5.402 7.748 2.170 
83 1 -3.090 -8.102 -2.941 
84 1 -3.331 -0.835 5.779 
85 1 -9.007 7.776 -7.860 
86 1 -2.674 -5.081 -5.192 
87 1 -4.146 7.572 -5.848 
88 1 1.464 1.716 -3.184 
89 1 -2.994 -2.140 -4.293 
90 1 4.256 4.043 -3.553 
91 1 7.983 -6.484 -0.796 
92 1 1.193 -8.968 4.356 
93 1 -4.291 3.153 -5.389 
94 1 8.214 3.051 -4.916 
95 1 0.715 -7.791 0.205 
96 1 -8.221 2.854 -1.924 
97 1 -4.550 3.780 4.153 
98 1 -7.342 1.278 -4.699 
99 1 -5.754 8.262 -2.456 
100 1 3.752 -0.455 -3.476 
101 1 -0.395 5.612 4.584 
102 1 -8.540 -3.983 1.240 
103 1 -8.918 -4.792 -4.966 
104 1 -6.043 6.180 -7.686 
105 1 -4.861 -6.461 8.511 
106 1 5.409 -3.134 -4.170 
107 1 -0.005 -2.203 1.615 
108 1 6.178 6.576 -8.872 
109 1 -4.784 4.149 0.604 
110 1 0.461 4.001 7.180 
111 1 -0.620 -3.170 6.921 
112 1 7.449 8.643 6.913 
113 1 8.292 0.569 -7.207 
114 1 6.678 3.052 6.590 
115 1 -7.032 -5.251 -7.528 
116 1 3.572 -3.602 -1.690 
117 1 5.112 -2.872 3.978 
118 1 -4.972 -2.372 -1.159 
119 1 7.873 -4.989 -8.290 
120 1 -2.342 -3.231 4.210 
121 1 4.445 3.712 -8.477 
122 1 -6.634 4.723 -4.032 
123 1 -3.869 7.150 -0.380 
124 1 3.363 1.138 4.800 
125 1 2.599 -3.075 -5.574 
126 1 -7.639 -4.657 7.443 
127 1 -2.059 2.474 5.944 
128 1 7.929 8.716 -2.282 
129 1 -1.414 7.237 -8.119 
130 1 6.513 -2.195 -6.902 
131 1 -0.882 -0.297 3.667 
132 1 -7.902 8.802 4.166 
133 1 5.665 1.610 -5.548 
134 1 -8.507 -7.653 8.692 
135 1 6.496 -4.184 1.039 
136 1 0.136 0.261 6.802 
137 1 0.874 2.913 -0.063 
138 1 -0.898 7.860 -1.709 
139 1 -3.292 -7.629 -6.833 
140 1 0.229 7.927 6.986 
141 1 -4.685 0.332 -3.749 
142 1 -8.344 0.635 3.902 
143 1 -4.135 -5.287 -2.070 
144 1 -2.604 8.885 5.144 
145 1 -8.234 3.962 4.966 
146 1 -5.733 -3.992 -4.675 
147 1 -7.555 -1.586 -3.188 
148 1 0.493 2.473 4.344 
149 1 -4.351 -2.404 -7.181 
150 1 -2.632 -5.959 5.598 
151 1 3.772 1.399 -0.813 
152 1 -7.841 2.548 1.546 
153 1 1.953 -1.748 4.258 
154 1 1.043 -8.251 -8.565 
155 1 -3.107 4.780 -8.231 
156 1 1.208 5.052 -2.627 
157 1 7.370 3.429 -7.957 
158 1 -2.279 -1.483 8.815 
159 1 -7.562 3.791 -6.952 
160 1 -4.362 -3.657 6.697 
161 1 -6.203 -8.820 -7.725 
162 1 5.007 -5.861 4.902 
163 1 0.184 -2.910 -3.582 
164 1 5.241 6.393 6.199 
165 1 -2.965 5.683 -3.459 
166 1 -2.639 -4.688 -8.453 
167 1 -1.996 2.980 2.526 
168 1 -1.774 4.899 -0.228 
169 1 -3.326 -1.488 1.565 
170 1 -7.945 5.687 2.368 
171 1 1.218 -0.751 -1.109 
172 1 2.605 6.403 4.352 
173 1 -3.395 2.926 -2.197 
174 1 -8.956 -2.367 8.980 
175 1 6.260 -3.386 6.914 
176 1 2.115 1.607 8.770 
177 1 6.364 8.251 -5.749 
178 1 1.980 0.316 1.901 
179 1 -4.473 -7.358 3.271 
180 1 -1.931 -2.428 -1.227 
181 1 7.971 -6.640 6.217 
182 1 -5.465 -3.207 2.918 
183 1 5.076 0.830 1.952 
184 1 -0.041 5.849 -5.499 
185 1 8.632 -0.273 -0.983 
186 1 -1.232 8.633 -4.883 
187 1 -2.028 -8.045 8.154 
188 1 6.733 3.374 3.720 
189 1 7.939 6.365 4.386 
190 1 2.602 -6.418 2.959 
191 1 -1.017 8.124 1.528 
192 1 -2.423 0.184 -6.319 
193 1 -5.718 -7.354 -5.009 
194 1 4.492 7.199 -3.602 
195 1 8.712 -0.028 6.914 
196 1 -4.324 7.808 8.324 
197 1 -3.887 1.486 8.383 
198 1 -0.881 1.389 -8.680 
199 1 5.519 -1.258 -0.374 
200 1 5.249 -7.823 -3.274 
ITEM: TIMESTEP
5000
ITEM: NUMBER OF ATOMS
200
ITEM: BOX BOUNDS pp pp pp
-9.045920656144343 9.045920656144343
-9.045920656144343 9.045920656144343
-9.045920656144343 9.045920656144343
ITEM: ATOMS id type x y z
1 1 3.479 3.522 2.403 
2 1 4.008 5.094 -0.675 
3 1 2.592 2.687 -5.923 
4 1 -2.461 5.511 6.699 
5 1 -7.014 -1.085 1.223 
6 1 3.520 -8.691 6.314 
7 1 3.297 -2.317 1.494 
8 1 2.878 6.492 7.995 
9 1 2.985 8.310 1.676 
10 1 -7.462 6.050 -0.985 
11 1 0.684 -4.513 4.202 
12 1 7.766 8.319 1.772 
13 1 -7.449 -4.551 -1.927 
14 1 8.310 -6.668 2.740 
15 1 5.885 0.691 8.951 
16 1 1.956 8.726 -5.093 
17 1 -3.143 -7.786 0.236 
18 1 0.548 -7.836 -2.802 
19 1 -4.838 1.039 2.808 
20 1 -1.337 0.274 -3.221 
21 1 1.014 -1.597 -8.821 
22 1 0.090 -6.269 -5.924 
23 1 5.736 5.011 -5.940 
24 1 7.761 6.088 -3.747 
25 1 -7.394 7.487 7.724 
26 1 3.742 8.569 -7.529 
27 1 7.187 2.003 0.737 
28 1 -7.572 7.658 -4.924 
29 1 -0.749 2.839 -5.139 
30 1 -6.492 -1.320 5.204 
31 1 -5.595 1.038 -0.825 
32 1 1.347 5.723 1.037 
33 1 0.820 -0.005 -5.589 
34 1 8.992 4.835 8.078 
35 1 0.822 -6.729 6.777 
36 1 -7.906 2.061 8.489 
37 1 3.156 -3.818 6.388 
38 1 -0.936 -6.931 3.190 
39 1 -5.763 1.568 6.229 
40 1 0.537 4.399 -7.983 
41 1 -1.056 -5.365 -2.277 
42 1 8.898 -7.641 -6.024 
43 1 7.518 -3.589 -1.617 
44 1 3.626 -0.162 -7.005 
45 1 2.227 7.967 -1.822 
46 1 -5.651 -8.102 6.315 
47 1 -7.137 -5.657 4.619 
48 1 3.524 -6.343 -0.807 
49 1 4.180 -1.074 7.291 
50 1 2.931 5.700 -6.467 
51 1 -3.082 6.114 2.941 
52 1 3.345 4.044 6.186 
53 1 5.896 -5.950 -5.498 
54 1 5.113 7.860 -0.511 
55 1 4.039 -3.227 -8.569 
56 1 -6.189 -0.893 8.301 
57 1 5.449 6.040 2.269 
58 1 7.654 -0.748 -4.196 
59 1 3.444 -6.415 -7.649 
60 1 -1.829 0.829 -0.171 
61 1 7.328 5.306 -0.324 
62 1 -7.472 -1.812 -6.113 
63 1 5.734 -9.023 4.061 
64 1 -6.034 -6.072 0.807 
65 1 -5.280 4.743 7.645 
66 1 -8.207 -7.334 -2.927 
67 1 6.395 0.183 4.886 
68 1 6.689 1.817 -2.409 
69 1 0.921 -4.869 -8.824 
70 1 -5.481 6.994 5.030 
71 1 7.456 -1.414 1.858 
72 1 5.618 -7.647 1.151 
73 1 -7.799 -8.890 0.053 
74 1 -5.804 0.754 -7.188 
75 1 1.169 -4.473 0.241 
76 1 6.554 -8.235 -8.685 
77 1 -2.504 -4.720 1.021 
78 1 2.995 -5.647 -4.110 
79 1 5.172 -6.109 7.849 
80 1 8.898 -3.181 4.489 
81 1 -0.671 -2.935 -6.315 
82 1 -5.768 8.023 1.868 
83 1 -3.243 -7.858 -3.026 
84 1 -3.335 -0.627 5.994 
85 1 9.040 7.403 -7.802 
86 1 -2.677 -5.005 -5.248 
87 1 -4.037 7.470 -5.893 
88 1 1.451 1.927 -2.953 
89 1 -3.064 -2.196 -4.466 
90 1 4.042 3.668 -3.219 
91 1 8.223 -6.655 -0.468 
92 1 1.190 8.983 4.144 
93 1 -4.342 3.134 -5.469 
94 1 8.501 3.352 -4.524 
95 1 0.789 -7.955 0.338 
96 1 -7.976 2.673 -1.748 
97 1 -5.100 3.850 3.776 
98 1 -7.376 1.278 -4.670 
99 1 -5.754 8.262 -2.456 
100 1 3.737 -0.389 -3.866 
101 1 -0.217 5.441 4.208 
102 1 -8.579 -3.785 1.357 
103 1 9.035 -4.493 -4.865 
104 1 -6.075 6.069 -7.585 
105 1 -5.175 -6.583 8.684 
106 1 5.734 -3.045 -4.019 
107 1 -0.151 -2.108 1.497 
108 1 6.178 6.576 -8.872 
109 1 -4.668 4.004 0.521 
110 1 0.364 4.092 7.140 
111 1 -0.605 -3.545 6.904 
112 1 7.635 8.516 6.821 
113 1 8.523 0.664 -6.872 
114 1 6.680 2.875 6.738 
115 1 -7.204 -5.066 -7.372 
116 1 3.314 -3.294 -1.884 
117 1 5.248 -2.790 3.980 
118 1 -5.199 -2.247 -1.343 
119 1 7.665 -5.220 -7.992 
120 1 -2.342 -3.231 4.210 
121 1 4.432 4.028 -8.908 
122 1 -6.561 4.831 -3.900 
123 1 -3.863 7.246 -0.215 
124 1 3.542 1.206 4.943 
125 1 2.537 -3.059 -5.830 
126 1 -7.940 -4.555 7.599 
127 1 -2.411 2.443 5.759 
128 1 7.786 8.674 -2.151 
129 1 -1.794 7.090 -7.953 
130 1 6.539 -1.972 -6.957 
131 1 -1.108 -0.044 3.831 
132 1 -7.879 8.950 4.085 
133 1 5.808 1.532 -5.434 
134 1 -8.210 -7.487 8.816 
135 1 6.362 -4.343 1.373 
136 1 0.366 0.194 6.511 
137 1 0.797 2.839 -0.042 
138 1 -1.062 7.619 -1.525 
139 1 -2.824 -7.535 -6.909 
140 1 0.192 7.833 7.057 
141 1 -4.685 0.332 -3.749 
142 1 -8.674 0.831 3.866 
143 1 -4.512 -5.361 -2.123 
144 1 -2.532 8.519 4.992 
145 1 -7.868 4.010 5.516 
146 1 -5.733 -3.992 -4.675 
147 1 -7.690 -1.670 -3.136 
148 1 0.784 2.396 4.384 
149 1 -4.762 -2.433 -7.271 
150 1 -2.983 -5.998 5.979 
151 1 3.827 1.756 -0.598 
152 1 -7.841 2.548 1.546 
153 1 2.090 -1.895 4.318 
154 1 0.965 -8.328 -8.107 
155 1 -2.855 4.361 -8.053 
156 1 1.203 4.999 -2.733 
157 1 7.255 3.369 -7.855 
158 1 -2.335 -1.264 8.645 
159 1 -7.748 3.442 -6.909 
160 1 -4.717 -3.657 7.272 
161 1 -6.273 -8.901 -7.284 
162 1 5.327 -5.775 4.635 
163 1 0.274 -2.771 -3.384 
164 1 5.422 6.105 5.973 
165 1 -3.432 6.030 -3.208 
166 1 -2.402 -4.639 -8.419 
167 1 -1.927 2.811 2.159 
168 1 -1.662 4.931 -0.215 
169 1 -3.326 -1.488 1.565 
170 1 -8.092 5.647 2.100 
171 1 1.151 -0.648 -1.012 
172 1 2.893 6.375 4.064 
173 1 -3.296 3.099 -2.318 
174 1 9.025 -1.817 -8.953 
175 1 6.612 -3.127 7.323 
176 1 2.378 1.401 8.479 
177 1 6.428 8.464 -5.862 
178 1 1.834 0.449 1.818 
179 1 -4.449 -7.345 3.336 
180 1 -1.970 -2.421 -1.386 
181 1 8.070 -6.238 6.205 
182 1 -5.247 -3.734 2.947 
183 1 4.926 0.505 2.173 
184 1 -0.287 5.858 -5.287 
185 1 8.526 -0.484 -1.090 
186 1 -1.287 8.620 -5.181 
187 1 -2.236 -8.135 8.187 
188 1 6.826 3.602 3.446 
189 1 8.287 6.401 4.723 
190 1 2.833 -6.547 2.886 
191 1 -1.089 8.127 2.070 
192 1 -2.502 0.087 -6.410 
193 1 -5.707 -7.309 -4.811 
194 1 4.393 7.006 -3.732 
195 1 8.741 0.150 6.774 
196 1 -4.226 7.793 8.472 
197 1 -3.910 1.665 8.728 
198 1 -0.769 1.599 -8.588 
199 1 5.067 -1.105 -0.686 
200 1 5.016 -7.881 -3.017 
ITEM: TIMESTEP
6000
ITEM: NUMBER OF ATOMS
200
ITEM: BOX BOUNDS pp pp pp
-9.045920656144343 9.045920656144343
-9.045920656144343 9.045920656144343
-9.045920656144343 9.045920656144343
ITEM: ATOMS id type x y z
1 1 3.314 3.453 2.573 
2 1 3.636 4.950 -0.480 
3 1 2.333 2.741 -5.998 
4 1 -2.399 5.469 6.663 
5 1 -7.065 -0.940 1.452 
6 1 3.922 -8.822 6.866 
7 1 3.460 -2.506 1.364 
8 1 3.013 6.168 8.258 
9 1 2.914 8.572 1.470 
10 1 -7.041 5.768 -0.738 
11 1 0.648 -4.724 4.259 
12 1 7.471 8.096 1.505 
13 1 -7.380 -4.688 -1.617 
14 1 8.405 -6.440 2.518 
15 1 6.596 0.649 8.477 
16 1 2.158 8.530 -4.912 
17 1 -3.115 -7.672 0.473 
18 1 0.867 -7.762 -3.006 
19 1 -4.724 0.848 2.926 
20 1 -1.467 0.245 -3.062 
21 1 1.039 -1.599 8.964 
22 1 0.316 -6.190 -6.018 
23 1 6.057 5.032 -5.881 
24 1 7.838 5.967 -3.581 
25 1 -7.568 7.985 7.460 
26 1 4.014 8.568 -7.713 
27 1 7.513 2.247 0.645 
28 1 -7.572 7.658 -4.924 
29 1 -0.761 2.808 -5.048 
30 1 -6.547 -1.334 4.747 
31 1 -5.483 0.733 -0.568 
32 1 1.243 6.054 0.784 
33 1 0.872 -0.118 -5.443 
34 1 -8.983 4.876 7.903 
35 1 1.012 -7.013 6.660 
36 1 -7.997 2.111 8.427 
37 1 2.797 -3.936 6.740 
38 1 -1.211 -6.769 2.765 
39 1 -5.738 1.667 5.970 
40 1 0.540 4.475 -8.026 
41 1 -0.919 -5.468 -2.104 
42 1 -8.979 -7.666 -6.374 
43 1 7.657 -3.565 -1.482 
44 1 3.616 -0.357 -7.245 
45 1 2.385 7.951 -1.763 
46 1 -5.420 -8.252 6.122 
47 1 -7.183 -5.599 4.859 
48 1 3.809 -6.274 -0.945 
49 1 4.077 -1.059 7.098 
50 1 2.840 5.867 -6.496 
51 1 -3.082 6.114 2.941 
52 1 3.563 3.942 5.967 
53 1 6.246 -6.086 -5.724 
54 1 5.113 7.860 -0.511 
55 1 3.886 -3.346 -8.508 
56 1 -6.074 -1.270 8.296 
57 1 5.685 5.609 1.919 
58 1 7.475 -1.321 -4.166 
59 1 3.261 -6.424 -7.476 
60 1 -1.862 0.949 0.055 
61 1 7.694 5.076 -0.606 
62 1 -7.537 -1.769 -6.308 
63 1 5.681 8.784 3.960 
64 1 -6.292 -5.862 0.936 
65 1 -5.653 4.664 7.291 
66 1 -8.156 -7.455 -3.421 
67 1 6.358 0.062 5.114 
68 1 6.708 1.512 -2.448 
69 1 0.877 -4.843 -8.946 
70 1 -5.528 6.696 4.994 
71 1 7.136 -1.401 1.937 
72 1 5.669 -7.462 1.177 
73 1 -7.730 8.987 0.093 
74 1 -5.634 0.832 -6.945 
75 1 1.530 -4.609 0.763 
76 1 6.761 -8.099 -8.606 
77 1 -2.259 -4.594 0.604 
78 1 2.941 -5.548 -4.229 
79 1 5.301 -5.825 7.815 
80 1 8.723 -3.114 4.261 
81 1 -0.568 -2.769 -6.598 
82 1 -5.446 7.830 2.125 
83 1 -2.957 -8.010 -2.759 
84 1 -3.327 -0.951 5.714 
85 1 -9.029 7.024 -7.736 
86 1 -2.921 -5.141 -5.051 
87 1 -4.002 7.546 -5.579 
88 1 1.213 1.647 -2.677 
89 1 -2.966 -2.074 -4.372 
90 1 4.146 3.807 -3.337 
91 1 8.003 -6.505 -0.780 
92 1 1.035 8.973 4.266 
93 1 -4.297 3.066 -5.312 
94 1 8.264 3.245 -4.468 
95 1 0.536 -7.694 0.490 
96 1 -7.832 2.555 -1.766 
97 1 -5.066 3.930 3.682 
98 1 -7.338 1.387 -4.604 
99 1 -5.766 8.351 -2.472 
100 1 3.926 -0.541 -3.688 
101 1 -0.185 5.670 3.856 
102 1 -8.768 -3.792 1.303 
103 1 -8.962 -4.503 -4.680 
104 1 -5.763 5.874 -7.757 
105 1 -4.890 -6.518 8.826 
106 1 5.480 -3.494 -3.969 
107 1 -0.339 -2.477 1.665 
108 1 6.079 6.550 -8.919 
109 1 -4.659 4.061 0.553 
110 1 0.468 3.680 7.125 
111 1 -0.913 -3.343 7.045 
112 1 7.530 8.577 6.735 
113 1 8.523 0.664 -6.872 
114 1 6.843 3.141 6.613 
115 1 -7.032 -4.894 -7.345 
116 1 3.194 -3.367 -1.963 
117 1 5.043 -2.787 4.368 
118 1 -5.065 -2.174 -1.284 
119 1 7.521 -4.719 -8.257 
120 1 -2.278 -3.594 3.986 
121 1 4.575 3.567 -8.664 
122 1 -6.692 4.962 -4.038 
123 1 -3.700 7.106 -0.270 
124 1 3.253 1.103 4.755 
125 1 2.463 -2.910 -5.620 
126 1 -8.052 -3.963 7.358 
127 1 -2.360 2.457 5.872 
128 1 8.001 8.467 -2.038 
129 1 -1.500 7.091 -8.365 
130 1 6.400 -1.929 -7.300 
131 1 -0.960 0.055 3.517 
132 1 -8.173 -9.013 3.824 
133 1 5.673 1.747 -5.484 
134 1 -8.102 -7.065 8.563 
135 1 6.145 -4.267 1.342 
136 1 -0.146 0.434 6.748 
137 1 0.696 2.754 0.229 
138 1 -0.766 7.423 -1.536 
139 1 -3.016 -7.615 -6.913 
140 1 0.248 7.333 6.828 
141 1 -4.796 0.238 -3.628 
142 1 -8.961 0.789 3.551 
143 1 -4.445 -5.268 -2.155 
144 1 -2.569 8.504 4.972 
145 1 -8.316 3.656 5.172 
146 1 -5.868 -3.743 -4.372 
147 1 -7.644 -1.449 -3.036 
148 1 0.722 2.532 4.048 
149 1 -4.435 -2.617 -7.112 
150 1 -2.984 -6.043 5.717 
151 1 3.700 1.685 -0.540 
152 1 -7.255 2.597 1.546 
153 1 1.641 -1.567 4.688 
154 1 0.489 -8.352 -8.341 
155 1 -2.596 4.275 -8.016 
156 1 1.031 4.979 -2.452 
157 1 7.444 3.335 -8.070 
158 1 -2.184 -1.241 8.901 
159 1 -7.858 3.999 -7.060 
160 1 -4.769 -3.817 7.122 
161 1 -6.273 -8.901 -7.284 
162 1 5.408 -5.813 4.584 
163 1 0.033 -2.993 -3.455 
164 1 5.477 6.262 5.926 
165 1 -3.200 5.947 -3.276 
166 1 -2.480 -4.762 -8.526 
167 1 -2.185 2.964 2.418 
168 1 -1.789 4.758 -0.024 
169 1 -3.396 -1.390 1.637 
170 1 -8.375 5.410 2.060 
171 1 1.145 -1.194 -0.787 
172 1 2.893 6.375 4.064 
173 1 -3.040 3.238 -2.401 
174 1 -8.970 -1.667 -8.826 
175 1 6.736 -3.028 7.220 
176 1 2.445 1.352 8.463 
177 1 6.641 8.462 -5.651 
178 1 1.851 0.419 1.806 
179 1 -4.663 -7.439 3.285 
180 1 -2.032 -2.267 -1.241 
181 1 8.036 -6.323 6.075 
182 1 -5.211 -3.965 3.004 
183 1 4.926 0.505 2.173 
184 1 -0.132 6.041 -5.173 
185 1 8.467 -0.439 -0.857 
186 1 -1.253 8.951 -4.849 
187 1 -2.024 -8.188 7.675 
188 1 6.607 3.148 3.342 
189 1 8.305 6.483 4.694 
190 1 2.753 -6.493 3.053 
191 1 -1.119 8.206 1.957 
192 1 -2.376 0.218 -6.279 
193 1 -5.373 -6.979 -4.733 
194 1 4.779 6.973 -3.534 
195 1 -8.787 -0.219 6.486 
196 1 -4.486 7.926 8.391 
197 1 -3.875 1.470 8.625 
198 1 -0.312 1.511 -8.260 
199 1 5.340 -0.848 -0.852 
200 1 5.050 -7.934 -3.237 
ITEM: TIMESTEP
7000
ITEM: NUMBER OF ATOMS
200
ITEM: BOX BOUNDS pp pp pp
-9.045920656144343 9.045920656144343
-9.045920656144343 9.045920656144343
-9.045920656144343 9.045920656144343
ITEM: ATOMS id type x y z
1 1 3.214 3.463 2.290 
2 1 3.877 4.836 -0.730 
3 1 2.107 2.746 -6.085 
4 1 -2.311 6.029 6.468 
5 1 -7.079 -1.381 1.586 
6 1 3.840 -8.541 6.607 
7 1 3.462 -2.192 1.590 
8 1 2.820 6.261 8.411 
9 1 3.257 8.494 1.078 
10 1 -7.206 5.873 -0.990 
11 1 0.916 -4.738 3.681 
12 1 7.765 7.897 1.442 
13 1 -7.380 -4.688 -1.617 
14 1 8.457 -6.463 2.705 
15 1 6.297 0.489 8.676 
16 1 2.360 8.789 -5.261 
17 1 -3.484 -7.641 0.114 
18 1 0.879 -7.738 -3.107 
19 1 -5.196 0.887 2.944 
20 1 -1.467 0.245 -3.062 
21 1 1.243 -1.723 8.860 
22 1 0.156 -6.110 -5.758 
23 1 6.057 5.032 -5.881 
24 1 8.199 5.867 -3.715 
25 1 -7.411 7.871 7.942 
26 1 4.043 8.659 -8.128 
27 1 7.434 2.561 1.111 
28 1 -7.793 7.953 -4.836 
29 1 -1.229 2.979 -5.123 
30 1 -6.296 -1.451 5.086 
31 1 -5.285 1.101 -0.633 
32 1 1.286 5.861 0.949 
33 1 0.971 -0.144 -5.578 
34 1 -8.935 5.070 8.067 
35 1 0.745 -7.101 6.603 
36 1 -7.788 1.783 8.734 
37 1 2.721 -4.018 6.556 
38 1 -1.407 -6.753 2.831 
39 1 -6.086 1.493 5.878 
40 1 0.160 4.551 -8.234 
41 1 -1.089 -5.226 -2.202 
42 1 -8.979 -7.703 -6.186 
43 1 7.756 -3.387 -1.618 
44 1 3.456 -0.344 -7.248 
45 1 2.294 7.766 -1.865 
46 1 -5.457 -8.393 5.967 
47 1 -7.014 -5.866 4.829 
48 1 3.266 -6.317 -1.189 
49 1 3.843 -0.975 7.080 
50 1 2.682 5.864 -6.558 
51 1 -3.145 6.169 3.094 
52 1 3.623 3.782 6.137 
53 1 6.142 -6.391 -5.740 
54 1 5.330 7.661 -1.063 
55 1 4.025 -3.208 -8.711 
56 1 -5.750 -0.637 8.186 
57 1 5.339 5.879 1.981 
58 1 7.366 -0.573 -3.895 
59 1 3.146 -6.396 -7.389 
60 1 -2.031 0.754 0.018 
61 1 7.354 4.959 -0.796 
62 1 -7.575 -1.621 -6.153 
63 1 5.608 8.661 3.964 
64 1 -6.434 -6.102 0.973 
65 1 -5.339 4.589 7.555 
66 1 -8.030 -7.420 -3.076 
67 1 6.335 0.267 5.111 
68 1 6.787 2.045 -2.261 
69 1 0.714 -5.028 -8.946 
70 1 -5.612 6.617 4.981 
71 1 7.276 -1.470 1.890 
72 1 5.669 -7.462 1.177 
73 1 -7.930 -8.704 0.069 
74 1 -5.586 0.674 -7.270 
75 1 1.473 -4.496 0.489 
76 1 6.953 -8.023 -8.449 
77 1 -3.032 -4.667 0.996 
78 1 3.156 -5.736 -4.337 
79 1 5.348 -5.773 8.004 
80 1 8.659 -2.725 4.596 
81 1 -0.951 -2.643 -6.537 
82 1 -5.844 7.766 1.831 
83 1 -2.975 -8.087 -3.460 
84 1 -3.136 -0.730 6.000 
85 1 -8.950 6.739 -7.440 
86 1 -2.630 -5.065 -4.874 
87 1 -3.568 7.466 -6.190 
88 1 1.546 1.651 -2.897 
89 1 -3.056 -2.217 -4.271 
90 1 4.370 3.726 -3.475 
91 1 7.960 -6.691 -0.922 
92 1 0.938 8.925 3.655 
93 1 -4.599 2.898 -5.227 
94 1 8.102 3.086 -4.609 
95 1 0.271 -7.505 -0.117 
96 1 -7.886 2.629 -2.020 
97 1 -4.975 3.722 4.164 
98 1 -7.380 1.506 -4.773 
99 1 -5.881 8.508 -2.573 
100 1 3.877 -0.472 -3.789 
101 1 -0.217 5.633 4.077 
102 1 -8.768 -3.792 1.303 
103 1 8.754 -4.209 -4.742 
104 1 -5.931 6.104 -7.768 
105 1 -5.036 -6.460 8.740 
106 1 5.449 -3.635 -4.086 
107 1 -0.282 -2.344 1.315 
108 1 6.207 6.493 -8.910 
109 1 -4.723 4.202 0.390 
110 1 0.528 4.178 6.850 
111 1 -0.603 -3.698 6.762 
112 1 7.397 8.800 6.914 
113 1 8.523 0.664 -6.872 
114 1 6.747 2.833 7.013 
115 1 -7.068 -4.923 -7.205 
116 1 3.600 -3.013 -1.681 
117 1 5.134 -2.856 4.127 
118 1 -5.129 -2.134 -1.247 
119 1 7.990 -4.949 -8.134 
120 1 -2.226 -3.395 3.979 
121 1 4.476 3.838 -8.540 
122 1 -6.488 5.050 -4.198 
123 1 -3.836 7.334 -0.412 
124 1 3.253 1.103 4.755 
125 1 2.647 -2.747 -5.351 
126 1 -7.911 -3.955 7.348 
127 1 -2.456 2.538 5.630 
128 1 8.039 8.435 -2.378 
129 1 -1.500 7.091 -8.365 
130 1 6.100 -2.221 -6.906 
131 1 -1.275 0.066 3.194 
132 1 -8.227 8.914 3.738 
133 1 5.370 1.630 -5.656 
134 1 -8.159 -7.208 8.672 
135 1 6.195 -4.390 1.154 
136 1 -0.146 0.434 6.748 
137 1 0.853 2.652 0.018 
138 1 -0.848 7.825 -2.123 
139 1 -2.887 -7.554 -7.051 
140 1 0.514 7.498 6.606 
141 1 -4.781 0.359 -3.593 
142 1 -8.963 0.805 3.361 
143 1 -4.158 -5.262 -2.073 
144 1 -2.155 8.646 4.809 
145 1 -8.658 3.620 5.114 
146 1 -5.740 -3.766 -4.363 
147 1 -7.620 -1.300 -2.955 
148 1 0.447 2.550 3.905 
149 1 -4.423 -2.486 -7.353 
150 1 -2.860 -5.962 5.834 
151 1 3.948 1.561 -0.673 
152 1 -7.441 2.632 1.145 
153 1 1.361 -1.646 4.668 
154 1 0.809 -8.836 -8.095 
155 1 -3.061 4.386 -8.021 
156 1 0.932 4.738 -2.417 
157 1 7.406 3.254 -7.908 
158 1 -2.226 -1.298 8.821 
159 1 -7.693 3.817 -6.928 
160 1 -4.594 -3.441 7.151 
161 1 -6.168 -8.910 -7.197 
162 1 5.096 -5.947 4.755 
163 1 0.238 -2.716 -3.319 
164 1 5.539 6.208 6.006 
165 1 -3.566 6.137 -3.267 
166 1 -2.471 -4.821 -8.542 
167 1 -2.213 3.097 2.576 
168 1 -1.694 5.108 -0.174 
169 1 -3.817 -1.464 1.458 
170 1 -8.697 5.299 1.821 
171 1 1.213 -0.845 -1.134 
172 1 2.923 6.467 3.963 
173 1 -2.732 3.106 -2.266 
174 1 -8.970 -1.667 -8.826 
175 1 6.710 -3.159 7.446 
176 1 2.505 1.619 8.465 
177 1 6.619 8.115 -5.711 
178 1 1.772 0.292 1.923 
179 1 -4.732 -7.582 3.253 
180 1 -2.032 -2.267 -1.241 
181 1 7.963 -6.195 6.210 
182 1 -5.162 -3.898 3.214 
183 1 4.926 0.505 2.173 
184 1 -0.132 6.041 -5.173 
185 1 8.870 -0.069 -0.470 
186 1 -0.522 -9.006 -5.347 
187 1 -1.831 -8.080 7.896 
188 1 6.234 3.235 3.818 
189 1 8.470 6.448 4.893 
190 1 2.761 -6.595 2.307 
191 1 -1.246 8.224 1.127 
192 1 -2.525 0.230 -6.207 
193 1 -5.554 -7.010 -4.920 
194 1 4.465 6.841 -3.867 
195 1 -8.854 -0.183 6.489 
196 1 -4.128 8.109 8.524 
197 1 -3.666 1.755 8.473 
198 1 -0.383 1.347 -8.236 
199 1 5.924 -1.146 -0.859 
200 1 5.027 -7.860 -3.374 
ITEM: TIMESTEP
8000
ITEM: NUMBER OF ATOMS
200
ITEM: BOX BOUNDS pp pp pp
-9.045920656144343 9.045920656144343
-9.045920656144343 9.045920656144343
-9.045920656144343 9.045920656144343
ITEM: ATOMS id type x y z
1 1 3.175 3.184 2.419 
2 1 3.680 4.526 -1.011 
3 1 2.203 2.846 -6.106 
4 1 -2.205 5.614 6.923 
5 1 -7.149 -1.122 1.866 
6 1 3.644 -8.944 6.574 
7 1 3.240 -2.674 1.806 
8 1 2.820 6.261 8.411 
9 1 3.254 8.673 1.228 
10 1 -7.506 6.282 -0.735 
11 1 0.557 -4.484 3.457 
12 1 7.765 7.897 1.442 
13 1 -7.321 -4.642 -1.642 
14 1 8.467 -6.420 2.676 
15 1 6.544 0.029 8.808 
16 1 2.575 8.874 -5.143 
17 1 -3.346 -7.777 -0.081 
18 1 0.846 -7.609 -3.138 
19 1 -4.887 0.689 3.382 
20 1 -1.471 0.202 -3.103 
21 1 1.064 -1.537 -8.930 
22 1 0.306 -5.882 -5.868 
23 1 6.173 5.282 -5.939 
24 1 8.124 5.877 -3.676 
25 1 -7.833 8.254 7.694 
26 1 4.127 8.593 -7.863 
27 1 7.414 2.184 1.003 
28 1 -7.627 8.131 -4.747 
29 1 -1.078 2.728 -5.046 
30 1 -6.410 -1.678 5.099 
31 1 -5.320 1.226 -0.602 
32 1 1.198 5.921 0.944 
33 1 0.775 -0.093 -5.520 
34 1 -8.522 5.293 7.629 
35 1 0.973 -6.515 6.584 
36 1 -8.012 1.947 8.595 
37 1 2.728 -4.006 6.212 
38 1 -1.328 -6.955 2.780 
39 1 -6.048 1.563 6.039 
40 1 0.170 4.385 -8.001 
41 1 -1.235 -5.475 -1.841 
42 1 -8.864 -7.142 -6.254 
43 1 7.684 -3.677 -1.781 
44 1 3.705 -0.196 -7.164 
45 1 2.414 7.774 -2.000 
46 1 -5.507 -8.169 6.324 
47 1 -6.922 -5.909 4.700 
48 1 4.087 -6.055 -0.814 
49 1 3.843 -0.975 7.080 
50 1 2.682 5.864 -6.558 
51 1 -3.106 6.647 2.658 
52 1 3.477 3.844 6.098 
53 1 6.090 -6.305 -5.692 
54 1 5.440 7.926 -0.862 
55 1 3.708 -3.272 9.022 
56 1 -5.821 -0.858 7.917 
57 1 5.141 5.954 1.988 
58 1 7.318 -1.081 -3.775 
59 1 3.012 -6.423 -7.371 
60 1 -2.159 0.868 0.048 
61 1 7.272 4.939 -0.570 
62 1 -7.516 -1.547 -5.903 
63 1 5.795 8.690 4.105 
64 1 -6.213 -6.195 1.372 
65 1 -5.361 4.491 7.652 
66 1 -8.162 -7.292 -3.060 
67 1 6.229 -0.022 4.950 
68 1 6.424 2.252 -2.027 
69 1 0.695 -4.818 -8.776 
70 1 -5.768 6.852 5.282 
71 1 7.341 -1.471 2.041 
72 1 5.839 -7.714 1.331 
73 1 -7.795 -8.738 0.063 
74 1 -5.760 0.549 -7.249 
75 1 0.945 -4.679 0.214 
76 1 6.819 -7.888 -8.560 
77 1 -2.641 -4.553 0.968 
78 1 3.062 -5.479 -4.069 
79 1 4.513 -6.210 7.903 
80 1 9.038 -3.161 4.381 
81 1 -0.743 -2.599 -6.500 
82 1 -5.825 7.560 1.924 
83 1 -2.594 -8.184 -3.230 
84 1 -2.971 -0.654 5.781 
85 1 -8.902 7.141 -7.547 
86 1 -2.648 -4.995 -5.218 
87 1 -3.851 7.655 -5.987 
88 1 1.312 1.796 -2.960 
89 1 -3.056 -2.217 -4.271 
90 1 4.006 3.690 -3.886 
91 1 7.849 -6.714 -0.701 
92 1 0.961 -8.850 3.750 
93 1 -4.599 2.898 -5.227 
94 1 8.321 3.046 -4.644 
95 1 0.552 -7.795 -0.230 
96 1 -8.080 2.376 -1.873 
97 1 -5.313 3.813 3.672 
98 1 -7.245 1.162 -4.750 
99 1 -5.448 8.949 -2.833 
100 1 3.951 -0.410 -3.601 
101 1 -0.476 5.831 4.071 
102 1 -8.768 -3.792 1.303 
103 1 -8.956 -4.194 -4.461 
104 1 -5.941 6.425 -7.790 
105 1 -5.053 -6.281 8.833 
106 1 5.601 -3.687 -3.885 
107 1 -0.467 -2.229 1.397 
108 1 6.268 6.644 8.907 
109 1 -4.715 4.194 0.309 
110 1 0.480 3.968 6.863 
111 1 -0.767 -3.504 6.795 
112 1 7.397 8.800 6.914 
113 1 8.269 0.474 -6.684 
114 1 7.185 2.906 7.108 
115 1 -7.162 -4.720 -7.476 
116 1 3.273 -2.960 -1.863 
117 1 5.061 -2.775 4.431 
118 1 -5.145 -2.471 -1.197 
119 1 7.990 -4.329 -8.077 
120 1 -2.246 -3.073 3.906 
121 1 4.476 3.838 -8.540 
122 1 -6.635 5.026 -3.844 
123 1 -3.938 7.352 -0.530 
124 1 3.088 0.781 4.794 
125 1 2.409 -2.860 -5.685 
126 1 -7.804 -4.104 7.425 
127 1 -2.878 2.817 5.495 
128 1 8.169 8.539 -2.257 
129 1 -1.139 7.100 -8.412 
130 1 6.108 -2.091 -7.070 
131 1 -1.451 0.054 3.031 
132 1 -7.671 -8.869 3.725 
133 1 5.370 1.630 -5.656 
134 1 -8.169 -7.021 8.575 
135 1 6.048 -4.279 1.170 
136 1 -0.279 0.684 6.402 
137 1 0.407 2.839 0.340 
138 1 -0.899 7.693 -2.282 
139 1 -3.099 -7.543 -6.990 
140 1 0.262 7.697 6.669 
141 1 -4.570 0.290 -3.588 
142 1 8.834 0.810 3.259 
143 1 -4.378 -5.538 -2.394 
144 1 -2.582 8.813 5.355 
145 1 -8.227 3.549 4.882 
146 1 -5.637 -3.891 -4.689 
147 1 -7.560 -1.405 -2.902 
148 1 0.418 2.595 3.969 
149 1 -4.350 -2.572 -7.339 
150 1 -3.102 -5.986 5.865 
151 1 3.762 1.202 -0.770 
152 1 -7.497 2.376 1.331 
153 1 0.958 -1.717 5.089 
154 1 0.831 -8.452 -8.914 
155 1 -3.167 4.570 -7.938 
156 1 1.059 4.980 -2.694 
157 1 7.575 3.336 -7.848 
158 1 -2.273 -1.553 8.962 
159 1 -7.726 4.036 -6.746 
160 1 -4.519 -3.501 7.366 
161 1 -6.268 -8.623 -7.595 
162 1 5.275 -5.906 4.520 
163 1 0.086 -2.953 -3.330 
164 1 5.550 6.010 5.906 
165 1 -3.412 5.721 -3.488 
166 1 -2.255 -4.700 -8.533 
167 1 -1.945 3.305 2.295 
168 1 -1.386 5.050 -0.441 
169 1 -3.849 -1.432 1.578 
170 1 -8.572 5.277 2.019 
171 1 1.009 -0.766 -1.174 
172 1 2.571 6.478 4.018 
173 1 -3.035 2.852 -2.267 
174 1 -8.592 -1.694 -8.748 
175 1 6.830 -3.026 7.040 
176 1 2.472 1.470 8.473 
177 1 6.704 8.396 -5.996 
178 1 1.562 0.026 2.124 
179 1 -4.361 -8.144 3.070 
180 1 -2.032 -2.267 -1.241 
181 1 7.931 -6.243 6.108 
182 1 -4.971 -4.068 3.282 
183 1 5.071 0.468 2.083 
184 1 -0.781 5.686 -5.302 
185 1 -8.867 -0.302 -0.541 
186 1 -0.662 8.848 -5.685 
187 1 -1.720 -7.527 7.905 
188 1 6.330 3.224 3.989 
189 1 8.625 6.582 4.859 
190 1 3.067 -6.512 2.525 
191 1 -1.145 8.210 1.118 
192 1 -2.431 0.131 -6.433 
193 1 -5.781 -6.948 -5.094 
194 1 4.811 7.055 -3.780 
195 1 8.952 -0.466 6.488 
196 1 -4.128 8.109 8.524 
197 1 -3.561 1.528 8.567 
198 1 -0.472 1.339 -8.348 
199 1 5.860 -1.285 -0.770 
200 1 5.529 -7.769 -3.052 
ITEM: TIMESTEP
9000
ITEM: NUMBER OF ATOMS
200
ITEM: BOX BOUNDS pp pp pp
-9.045920656144343 9.045920656144343
-9.045920656144343 9.045920656144343
-9.045920656144343 9.045920656144343
ITEM: ATOMS id type x y z
1 1 3.383 3.260 2.531 
2 1 4.127 5.115 -1.153 
3 1 2.018 2.625 -6.199 
4 1 -2.455 5.630 6.823 
5 1 -6.909 -1.172 1.593 
6 1 3.436 -8.917 6.586 
7 1 3.426 -2.384 1.634 
8 1 2.886 6.501 8.254 
9 1 3.030 8.371 1.554 
10 1 -7.506 6.282 -0.735 
11 1 0.834 -4.716 3.908 
12 1 7.860 8.119 1.573 
13 1 -7.115 -4.445 -1.550 
14 1 8.514 -6.501 2.378 
15 1 6.468 0.397 8.772 
16 1 2.594 -8.870 -5.121 
17 1 -3.012 -7.747 -0.040 
18 1 0.639 -7.649 -3.038 
19 1 -4.831 0.766 2.743 
20 1 -1.396 0.235 -3.256 
21 1 1.251 -1.438 8.872 
22 1 0.307 -6.039 -5.752 
23 1 6.155 5.125 -6.064 
24 1 8.401 5.637 -3.196 
25 1 -7.852 7.996 7.869 
26 1 4.127 8.593 -7.863 
27 1 7.341 2.387 0.859 
28 1 -7.836 7.852 -4.914 
29 1 -1.078 2.728 -5.046 
30 1 -6.268 -1.873 4.760 
31 1 -5.335 1.001 -0.710 
32 1 1.524 5.781 0.950 
33 1 0.998 -0.159 -5.493 
34 1 -8.913 4.956 7.869 
35 1 1.134 -6.560 6.796 
36 1 -8.125 1.814 8.126 
37 1 3.287 -4.062 6.073 
38 1 -1.324 -6.711 3.134 
39 1 -6.010 1.485 5.827 
40 1 0.419 4.499 -8.095 
41 1 -1.302 -5.580 -1.864 
42 1 -8.781 -7.465 -6.219 
43 1 7.963 -3.567 -1.619 
44 1 3.919 -0.481 -7.341 
45 1 2.291 7.782 -1.881 
46 1 -5.507 -8.169 6.324 
47 1 -6.922 -5.909 4.700 
48 1 3.702 -6.745 -0.769 
49 1 3.901 -1.032 7.145 
50 1 2.605 5.967 -6.033 
51 1 -3.386 6.251 2.676 
52 1 3.736 3.716 5.826 
53 1 6.167 -6.084 -6.095 
54 1 5.419 8.203 -0.715 
55 1 3.875 -3.424 -8.700 
56 1 -5.905 -0.779 8.099 
57 1 5.094 5.970 1.850 
58 1 7.196 -0.837 -4.228 
59 1 3.056 -6.637 -7.457 
60 1 -1.951 0.464 -0.271 
61 1 7.156 5.200 -0.349 
62 1 -7.498 -1.915 -5.917 
63 1 5.590 8.409 3.784 
64 1 -6.217 -6.455 1.175 
65 1 -5.419 4.337 7.328 
66 1 -8.117 -7.032 -3.240 
67 1 6.028 0.270 5.413 
68 1 6.302 2.518 -2.213 
69 1 0.702 -4.692 -8.958 
70 1 -5.683 7.032 5.286 
71 1 7.341 -1.471 2.041 
72 1 5.663 -7.572 1.449 
73 1 -7.711 -8.813 -0.364 
74 1 -5.612 0.182 -6.992 
75 1 1.422 -4.700 0.189 
76 1 6.916 -7.693 -8.532 
77 1 -2.669 -4.886 1.076 
78 1 2.931 -5.639 -3.952 
79 1 5.074 -6.009 7.823 
80 1 8.778 -3.217 4.297 
81 1 -0.501 -2.503 -6.656 
82 1 -6.134 7.511 2.007 
83 1 -2.690 -8.007 -3.561 
84 1 -3.103 -0.765 6.269 
85 1 8.743 6.740 -7.467 
86 1 -2.757 -5.313 -4.975 
87 1 -3.818 7.860 -5.698 
88 1 1.385 1.769 -2.999 
89 1 -2.878 -2.281 -4.339 
90 1 4.006 3.690 -3.886 
91 1 7.792 -6.615 -0.797 
92 1 1.103 -8.655 4.313 
93 1 -4.483 3.144 -5.615 
94 1 8.213 3.103 -4.796 
95 1 0.772 -7.778 0.034 
96 1 -8.315 2.750 -1.794 
97 1 -5.134 3.982 3.616 
98 1 -7.125 1.726 -4.732 
99 1 -5.548 8.788 -2.844 
100 1 3.893 0.195 -3.434 
101 1 -0.366 5.876 3.817 
102 1 -8.209 -3.816 1.557 
103 1 8.796 -4.469 -4.598 
104 1 -5.751 6.342 -7.699 
105 1 -4.762 -6.170 -9.008 
106 1 5.748 -3.772 -3.857 
107 1 -0.095 -2.525 1.408 
108 1 6.297 6.633 8.627 
109 1 -5.109 4.459 0.155 
110 1 0.635 3.918 6.933 
111 1 -1.306 -3.557 6.900 
112 1 6.989 8.994 6.416 
113 1 8.574 0.638 -6.816 
114 1 6.568 3.033 7.096 
115 1 -7.257 -4.637 -7.522 
116 1 3.363 -2.896 -1.713 
117 1 5.375 -2.743 4.128 
118 1 -4.911 -2.154 -1.294 
119 1 7.987 -4.821 -8.374 
120 1 -1.868 -3.144 3.880 
121 1 4.462 4.241 -8.447 
122 1 -6.375 5.004 -3.837 
123 1 -4.060 7.284 -0.511 
124 1 2.610 0.854 4.994 
125 1 2.760 -2.969 -5.657 
126 1 -7.641 -3.941 7.164 
127 1 -2.860 2.668 5.550 
128 1 8.220 8.638 -2.379 
129 1 -1.434 7.135 -8.411 
130 1 6.445 -2.605 -6.837 
131 1 -1.683 -0.101 3.190 
132 1 -8.045 -8.750 4.315 
133 1 5.636 1.756 -6.008 
134 1 -8.074 -6.884 8.457 
135 1 6.051 -4.174 1.253 
136 1 0.101 0.296 6.573 
137 1 0.507 2.746 0.275 
138 1 -0.869 7.702 -2.063 
139 1 -2.656 -7.712 -7.423 
140 1 0.214 7.471 6.669 
141 1 -4.570 0.290 -3.588 
142 1 -8.933 0.618 3.241 
143 1 -4.451 -5.793 -2.112 
144 1 -2.223 8.731 5.214 
145 1 -8.442 3.242 4.664 
146 1 -6.001 -4.089 -4.550 
147 1 -7.560 -1.405 -2.902 
148 1 0.268 2.480 3.784 
149 1 -4.350 -2.572 -7.339 
150 1 -3.387 -5.817 5.660 
151 1 3.672 1.680 -0.634 
152 1 -7.495 2.814 1.340 
153 1 1.317 -1.880 4.809 
154 1 0.928 -8.593 -8.664 
155 1 -3.171 4.624 -8.190 
156 1 1.137 5.040 -2.736 
157 1 7.370 3.448 -8.052 
158 1 -2.115 -1.229 -9.030 
159 1 -7.584 3.892 -7.082 
160 1 -4.527 -3.528 7.394 
161 1 -6.268 -8.623 -7.595 
162 1 5.320 -5.866 4.552 
163 1 0.348 -3.239 -3.406 
164 1 5.625 6.010 5.742 
165 1 -3.334 5.792 -3.303 
166 1 -2.208 -4.578 -8.153 
167 1 -2.230 3.045 1.896 
168 1 -1.644 5.162 -0.239 
169 1 -3.666 -1.943 1.601 
170 1 -8.692 5.464 2.081 
171 1 1.228 -0.613 -1.025 
172 1 2.674 6.295 4.305 
173 1 -3.111 2.851 -2.511 
174 1 -8.592 -1.694 -8.748 
175 1 6.830 -3.026 7.040 
176 1 2.496 1.654 8.252 
177 1 6.636 8.347 -5.992 
178 1 1.423 0.128 2.036 
179 1 -4.226 -8.153 3.058 
180 1 -1.951 -2.440 -1.079 
181 1 8.069 -6.341 5.956 
182 1 -4.924 -4.098 3.283 
183 1 4.950 0.658 2.081 
184 1 -0.863 5.919 -5.396 
185 1 8.983 -0.322 -0.340 
186 1 -0.384 8.918 -5.741 
187 1 -1.705 -7.673 7.772 
188 1 6.417 3.338 3.864 
189 1 8.625 6.582 4.859 
190 1 2.939 -6.609 2.804 
191 1 -1.030 8.132 1.313 
192 1 -2.601 0.313 -6.369 
193 1 -5.330 -7.027 -5.037 
194 1 4.791 7.005 -3.668 
195 1 8.965 -0.616 6.156 
196 1 -4.152 8.023 8.518 
197 1 -3.923 1.709 8.588 
198 1 -0.327 1.359 -8.150 
199 1 5.587 -1.017 -0.836 
200 1 5.524 -7.534 -3.440 
ITEM: TIMESTEP
10000
ITEM: NUMBER OF ATOMS
200
ITEM: BOX BOUNDS pp pp pp
-9.045920656144343 9.045920656144343
-9.045920656144343 9.045920656144343
-9.045920656144343 9.045920656144343
ITEM: ATOMS id type x y z
1 1 3.000 3.249 2.678 
2 1 3.959 4.983 -0.937 
3 1 1.867 2.813 -6.134 
4 1 -2.558 5.586 6.877 
5 1 -6.823 -1.283 1.555 
6 1 3.673 -8.712 6.161 
7 1 3.208 -2.577 1.599 
8 1 2.797 6.483 7.966 
9 1 3.020 8.689 1.460 
10 1 -7.507 5.983 -1.082 
11 1 0.762 -4.948 3.942 
12 1 7.860 8.119 1.573 
13 1 -7.435 -4.356 -1.677 
14 1 8.742 -6.648 2.868 
15 1 6.458 -0.151 8.985 
16 1 2.610 -8.718 -4.987 
17 1 -2.943 -7.972 -0.110 
18 1 0.506 -7.458 -2.950 
19 1 -4.461 1.149 2.512 
20 1 -1.368 0.217 -3.165 
21 1 1.256 -1.372 8.971 
22 1 0.444 -6.053 -5.956 
23 1 6.339 5.463 -6.030 
24 1 8.128 5.747 -3.441 
25 1 -7.908 7.856 8.053 
26 1 4.084 8.443 -8.043 
27 1 7.204 2.232 0.763 
28 1 -8.036 8.030 -4.811 
29 1 -1.290 2.950 -4.941 
30 1 -6.356 -1.598 4.806 
31 1 -5.679 0.967 -0.560 
32 1 1.524 5.781 0.950 
33 1 1.316 0.007 -5.610 
34 1 -8.895 4.913 7.734 
35 1 1.324 -6.618 6.539 
36 1 -7.974 1.544 8.282 
37 1 3.276 -4.248 5.943 
38 1 -1.319 -7.079 2.742 
39 1 -6.310 1.462 5.578 
40 1 0.575 4.758 -8.150 
41 1 -1.483 -5.622 -1.476 
42 1 9.025 -7.317 -6.620 
43 1 7.920 -3.096 -1.076 
44 1 3.906 -0.785 -7.440 
45 1 2.501 8.056 -1.788 
46 1 -5.420 -8.277 6.541 
47 1 -6.824 -6.074 4.995 
48 1 3.735 -6.499 -0.966 
49 1 3.901 -1.032 7.145 
50 1 2.283 6.217 -5.619 
51 1 -3.378 6.230 2.914 
52 1 3.600 3.637 6.324 
53 1 6.097 -6.009 -5.821 
54 1 5.457 8.307 -0.594 
55 1 3.798 -3.723 -8.953 
56 1 -5.864 -0.887 7.910 
57 1 5.056 5.673 1.888 
58 1 7.471 -1.046 -4.187 
59 1 3.330 -6.637 -7.382 
60 1 -1.838 0.570 0.177 
61 1 7.378 5.461 -0.384 
62 1 -7.515 -1.921 -5.911 
63 1 5.613 8.413 3.728 
64 1 -6.129 -6.529 1.198 
65 1 -5.700 4.238 7.165 
66 1 -8.117 -7.032 -3.240 
67 1 6.028 0.270 5.413 
68 1 6.303 2.198 -2.329 
69 1 0.917 -4.612 -8.925 
70 1 -5.621 6.976 5.351 
71 1 7.467 -1.350 1.829 
72 1 5.810 -7.428 1.376 
73 1 -7.782 -8.230 -0.432 
74 1 -5.666 0.771 -7.168 
75 1 1.204 -4.748 0.076 
76 1 6.773 -8.016 -8.700 
77 1 -3.380 -4.902 0.756 
78 1 3.324 -5.903 -3.958 
79 1 5.282 -6.114 7.772 
80 1 8.735 -3.264 4.045 
81 1 -0.535 -2.412 -6.549 
82 1 -6.493 7.216 1.933 
83 1 -2.528 -8.240 -3.443 
84 1 -3.405 -0.899 5.684 
85 1 9.017 6.650 -7.314 
86 1 -2.883 -5.414 -5.167 
87 1 -3.788 7.908 -5.501 
88 1 1.220 2.008 -3.028 
89 1 -2.863 -2.627 -4.252 
90 1 3.707 3.629 -3.857 
91 1 7.754 -6.262 -0.889 
92 1 1.383 -8.541 4.108 
93 1 -4.198 3.186 -5.777 
94 1 8.259 3.183 -5.043 
95 1 0.750 -7.742 0.412 
96 1 -8.314 3.204 -1.942 
97 1 -5.282 4.089 3.873 
98 1 -7.018 1.728 -4.472 
99 1 -5.858 8.705 -2.840 
100 1 4.000 -0.545 -3.842 
101 1 -0.444 5.604 3.880 
102 1 -7.930 -4.151 1.324 
103 1 8.644 -4.475 -4.430 
104 1 -5.646 5.962 -7.642 
105 1 -4.734 -6.288 8.937 
106 1 5.851 -3.689 -3.401 
107 1 0.117 -2.397 1.492 
108 1 6.240 6.333 8.963 
109 1 -4.776 4.370 0.760 
110 1 0.474 3.685 6.929 
111 1 -0.829 -3.872 6.625 
112 1 7.204 9.004 6.522 
113 1 8.656 0.795 -6.915 
114 1 6.568 3.033 7.096 
115 1 -7.070 -4.491 -7.505 
116 1 3.273 -3.136 -1.622 
117 1 5.253 -3.015 3.942 
118 1 -4.841 -2.391 -1.571 
119 1 7.999 -4.755 -8.729 
120 1 -1.870 -3.079 3.839 
121 1 4.239 4.058 -8.130 
122 1 -6.468 5.185 -4.036 
123 1 -4.060 7.284 -0.511 
124 1 2.760 0.857 4.814 
125 1 2.790 -3.362 -5.817 
126 1 -7.647 -3.825 7.187 
127 1 -2.708 2.680 5.435 
128 1 8.108 8.672 -2.256 
129 1 -1.114 7.164 -8.477 
130 1 6.745 -2.577 -6.789 
131 1 -1.391 0.044 3.361 
132 1 -7.763 -8.952 4.176 
133 1 5.643 1.285 -5.801 
134 1 -7.656 -6.987 8.627 
135 1 6.147 -4.359 1.253 
136 1 0.071 0.406 6.663 
137 1 0.435 2.988 -0.141 
138 1 -0.918 7.644 -1.835 
139 1 -2.656 -7.712 -7.423 
140 1 0.035 7.676 6.560 
141 1 -4.570 0.290 -3.588 
142 1 -8.899 0.679 3.343 
143 1 -5.030 -6.436 -2.040 
144 1 -2.492 8.540 4.973 
145 1 -8.654 3.659 4.883 
146 1 -5.875 -4.133 -4.449 
147 1 -7.560 -1.405 -2.902 
148 1 0.514 2.443 4.053 
149 1 -4.484 -2.349 -7.281 
150 1 -3.343 -6.227 5.216 
151 1 3.591 1.680 -0.562 
152 1 -7.528 2.777 1.361 
153 1 1.185 -1.904 4.656 
154 1 1.128 -8.671 -8.841 
155 1 -2.797 4.260 -8.384 
156 1 1.170 5.298 -2.696 
157 1 7.612 3.683 -8.087 
158 1 -2.115 -1.229 -9.030 
159 1 -7.351 3.401 -7.481 
160 1 -4.583 -3.803 6.710 
161 1 -6.148 -9.021 -7.488 
162 1 5.579 -6.395 4.638 
163 1 0.572 -3.596 -3.371 
164 1 5.508 6.277 5.868 
165 1 -3.462 5.830 -2.974 
166 1 -2.208 -4.578 -8.153 
167 1 -2.073 3.092 2.136 
168 1 -1.644 5.162 -0.239 
169 1 -3.594 -1.848 1.458 
170 1 8.745 5.292 2.244 
171 1 1.347 -0.798 -1.154 
172 1 2.629 6.515 4.398 
173 1 -3.125 2.756 -1.729 
174 1 -8.592 -1.694 -8.748 
175 1 6.372 -2.939 7.161 
176 1 2.601 1.545 8.639 
177 1 6.656 8.644 -5.941 
178 1 1.845 0.359 1.906 
179 1 -4.668 -8.482 2.979 
180 1 -1.750 -2.684 -1.386 
181 1 8.369 -6.056 6.262 
182 1 -5.006 -4.218 3.242 
183 1 4.823 0.608 2.205 
184 1 -1.228 5.867 -5.012 
185 1 8.920 -0.008 -0.779 
186 1 -0.437 8.709 -5.787 
187 1 -1.719 -7.840 7.581 
188 1 6.240 3.400 3.852 
189 1 8.896 6.615 4.968 
190 1 3.080 -6.186 2.403 
191 1 -1.075 7.808 1.299 
192 1 -2.522 0.250 -6.292 
193 1 -5.546 -7.022 -5.330 
194 1 5.033 7.119 -3.320 
195 1 8.780 -0.670 6.145 
196 1 -3.855 8.014 8.643 
197 1 -4.016 1.526 8.072 
198 1 -0.440 1.561 -8.028 
199 1 5.617 -0.760 -0.998 
200 1 5.926 -7.461 -3.320 
ITEM: TIMESTEP
11000
ITEM: NUMBER OF ATOMS
200
ITEM: BOX BOUNDS pp pp pp
-9.045920656144343 9.045920656144343
-9.045920656144343 9.045920656144343
-9.045920656144343 9.045920656144343
ITEM: ATOMS id type x y z
1 1 3.232 3.268 2.405 
2 1 4.106 4.794 -0.971 
3 1 2.084 2.885 -6.250 
4 1 -2.819 5.424 6.751 
5 1 -6.771 -1.041 1.484 
6 1 4.193 -8.648 6.789 
7 1 3.263 -2.862 1.872 
8 1 2.741 6.697 8.162 
9 1 3.134 8.671 1.713 
10 1 -7.507 5.983 -1.082 
11 1 0.658 -4.974 4.045 
12 1 8.111 8.310 1.458 
13 1 -7.369 -4.580 -1.466 
14 1 8.498 -6.352 3.156 
15 1 6.570 0.297 8.877 
16 1 2.982 -8.893 -5.186 
17 1 -2.995 -7.998 -0.124 
18 1 1.086 -7.354 -3.090 
19 1 -4.767 1.032 2.587 
20 1 -1.180 0.071 -3.223 
21 1 1.179 -1.562 -8.962 
22 1 0.107 -5.712 -5.958 
23 1 6.108 5.497 -6.037 
24 1 8.219 5.838 -3.526 
25 1 -7.892 8.016 8.086 
26 1 4.130 8.050 -7.691 
27 1 7.100 2.151 0.955 
28 1 -8.289 8.124 -4.951 
29 1 -0.965 2.761 -4.998 
30 1 -6.649 -1.822 4.470 
31 1 -5.665 1.145 -0.488 
32 1 1.686 6.020 0.601 
33 1 1.189 -0.017 -5.360 
34 1 -8.722 4.922 7.824 
35 1 1.410 -6.731 6.753 
36 1 -8.350 1.670 8.209 
37 1 3.126 -4.117 5.946 
38 1 -1.388 -7.209 2.814 
39 1 -6.346 1.234 5.598 
40 1 0.473 4.639 -8.086 
41 1 -1.528 -5.679 -1.833 
42 1 9.036 -7.187 -6.421 
43 1 7.882 -2.909 -1.004 
44 1 3.672 -0.825 -7.128 
45 1 2.496 8.357 -1.851 
46 1 -5.390 -8.259 6.348 
47 1 -6.870 -5.969 4.710 
48 1 3.658 -6.659 -0.935 
49 1 3.572 -1.125 6.955 
50 1 2.155 6.297 -5.921 
51 1 -3.335 6.238 3.049 
52 1 3.027 3.734 6.302 
53 1 5.968 -5.961 -6.057 
54 1 5.349 8.199 -0.688 
55 1 4.122 -3.551 -8.806 
56 1 -5.864 -0.887 7.910 
57 1 4.718 6.085 2.312 
58 1 7.441 -0.523 -4.229 
59 1 3.423 -6.651 -7.550 
60 1 -1.580 0.854 0.109 
61 1 7.179 5.093 -0.472 
62 1 -7.418 -1.925 -6.260 
63 1 5.430 8.815 3.884 
64 1 -6.217 -6.321 1.334 
65 1 -5.784 4.297 7.420 
66 1 -8.196 -7.065 -3.237 
67 1 5.926 0.492 4.986 
68 1 6.279 2.031 -2.330 
69 1 0.777 -4.946 -8.947 
70 1 -5.971 6.754 5.232 
71 1 7.728 -1.386 1.793 
72 1 5.810 -7.428 1.376 
73 1 -7.345 -8.730 -0.164 
74 1 -5.566 0.622 -7.420 
75 1 0.900 -4.851 0.107 
76 1 6.618 -8.247 -8.384 
77 1 -2.999 -4.743 1.105 
78 1 3.213 -5.667 -4.072 
79 1 5.069 -5.957 7.773 
80 1 8.700 -3.478 4.286 
81 1 -0.812 -2.405 -6.447 
82 1 -6.639 7.123 2.006 
83 1 -2.608 -8.383 -3.374 
84 1 -3.410 -0.657 5.434 
85 1 9.032 6.201 -7.219 
86 1 -2.882 -5.459 -4.846 
87 1 -3.947 8.092 -6.033 
88 1 1.254 2.279 -2.842 
89 1 -3.058 -2.499 -4.045 
90 1 3.892 3.585 -4.059 
91 1 8.542 -6.618 -0.494 
92 1 1.453 -8.426 4.080 
93 1 -4.198 3.381 -5.233 
94 1 8.521 3.020 -4.766 
95 1 0.616 -7.840 0.258 
96 1 -8.501 2.901 -1.870 
97 1 -5.598 4.011 3.848 
98 1 -7.052 1.322 -4.626 
99 1 -5.763 8.453 -2.543 
100 1 4.001 -0.366 -3.589 
101 1 -0.452 5.722 4.205 
102 1 -8.230 -3.676 1.457 
103 1 8.836 -4.394 -5.078 
104 1 -5.982 5.872 -7.876 
105 1 -4.409 -6.214 8.869 
106 1 5.594 -3.413 -3.698 
107 1 -0.140 -2.565 1.741 
108 1 6.353 6.449 8.979 
109 1 -4.730 4.236 0.431 
110 1 -0.332 3.497 7.075 
111 1 -0.941 -3.647 6.692 
112 1 7.442 8.979 6.834 
113 1 8.750 0.592 -6.931 
114 1 6.500 2.912 7.098 
115 1 -6.617 -4.466 -7.939 
116 1 3.011 -3.427 -1.442 
117 1 5.415 -2.449 4.238 
118 1 -4.873 -2.287 -1.646 
119 1 8.213 -4.904 -8.879 
120 1 -2.171 -3.154 3.924 
121 1 4.133 4.128 -8.237 
122 1 -6.703 5.514 -4.752 
123 1 -4.011 7.300 -0.250 
124 1 2.760 0.857 4.814 
125 1 2.322 -3.649 -6.080 
126 1 -7.505 -3.784 6.890 
127 1 -2.940 2.512 5.017 
128 1 8.408 8.508 -2.044 
129 1 -1.286 7.332 -8.436 
130 1 6.587 -2.645 -6.767 
131 1 -1.395 0.068 3.121 
132 1 -7.907 -8.873 3.901 
133 1 5.570 1.643 -6.140 
134 1 -7.708 -6.874 8.561 
135 1 6.340 -4.175 1.213 
136 1 0.027 0.153 6.555 
137 1 0.468 3.178 0.128 
138 1 -0.582 7.658 -1.897 
139 1 -2.307 -7.569 -7.225 
140 1 -0.171 7.385 6.646 
141 1 -4.385 0.378 -3.489 
142 1 8.947 0.855 3.352 
143 1 -4.775 -6.361 -2.197 
144 1 -2.507 8.339 4.929 
145 1 -8.676 3.487 5.010 
146 1 -5.942 -4.042 -4.385 
147 1 -8.058 -2.061 -3.140 
148 1 0.273 2.508 3.903 
149 1 -4.414 -2.253 -7.019 
150 1 -3.146 -6.237 5.330 
151 1 3.350 1.678 -0.516 
152 1 -7.747 2.732 1.193 
153 1 1.185 -1.904 4.656 
154 1 0.913 -8.362 -8.327 
155 1 -2.881 4.008 -8.294 
156 1 1.095 5.354 -2.900 
157 1 7.508 3.381 -8.181 
158 1 -2.096 -1.384 8.958 
159 1 -7.664 3.391 -7.329 
160 1 -4.087 -3.521 6.749 
161 1 -6.095 -8.876 -7.774 
162 1 5.590 -6.252 4.805 
163 1 0.114 -3.494 -3.233 
164 1 5.322 6.408 6.032 
165 1 -3.499 6.152 -3.456 
166 1 -2.214 -4.499 -8.104 
167 1 -2.172 3.258 2.141 
168 1 -1.566 5.061 -0.567 
169 1 -3.729 -1.556 1.215 
170 1 8.900 5.216 2.385 
171 1 1.477 -0.771 -1.491 
172 1 2.504 6.365 4.428 
173 1 -3.033 2.720 -2.236 
174 1 -8.769 -1.800 8.857 
175 1 6.769 -2.973 7.128 
176 1 2.675 1.325 8.931 
177 1 6.563 8.758 -5.615 
178 1 1.482 0.124 1.945 
179 1 -4.427 -8.223 2.852 
180 1 -1.591 -2.493 -0.963 
181 1 8.524 -6.061 6.259 
182 1 -4.973 -4.092 3.326 
183 1 4.710 0.318 1.924 
184 1 -1.078 5.844 -5.492 
185 1 -9.023 0.013 -0.850 
186 1 -0.084 8.923 -5.313 
187 1 -1.420 -7.764 7.905 
188 1 6.450 3.484 4.020 
189 1 8.464 6.670 5.406 
190 1 3.203 -6.146 2.386 
191 1 -1.041 8.009 1.460 
192 1 -2.651 0.206 -6.128 
193 1 -5.751 -7.147 -5.343 
194 1 5.086 6.743 -3.333 
195 1 8.678 -0.487 6.148 
196 1 -4.176 7.730 8.175 
197 1 -3.708 1.392 8.080 
198 1 -0.453 1.206 -8.319 
199 1 5.207 -1.008 -0.839 
200 1 6.063 -7.242 -3.042 
ITEM: TIMESTEP
12000
ITEM: NUMBER OF ATOMS
200
ITEM: BOX BOUNDS pp pp pp
-9.045920656144343 9.045920656144343
-9.045920656144343 9.045920656144343
-9.045920656144343 9.045920656144343
ITEM: ATOMS id type x y z
1 1 3.271 3.409 2.327 
2 1 4.365 4.671 -0.861 
3 1 2.146 2.695 -6.492 
4 1 -2.753 5.397 6.699 
5 1 -6.708 -0.818 1.282 
6 1 3.898 -8.859 6.574 
7 1 3.088 -2.732 1.817 
8 1 2.844 6.427 8.183 
9 1 3.202 8.669 1.375 
10 1 -7.191 6.228 -1.193 
11 1 0.641 -5.019 3.836 
12 1 7.858 8.027 1.568 
13 1 -7.256 -4.733 -1.331 
14 1 8.524 -6.278 2.606 
15 1 5.994 0.220 8.956 
16 1 3.267 -8.835 -4.951 
17 1 -3.007 -7.941 -0.117 
18 1 0.865 -7.048 -3.153 
19 1 -4.833 0.997 2.901 
20 1 -1.515 0.170 -3.188 
21 1 1.138 -1.777 8.918 
22 1 0.107 -5.712 -5.958 
23 1 5.884 5.039 -5.964 
24 1 8.123 5.703 -3.580 
25 1 -7.946 8.169 7.737 
26 1 4.089 8.630 -8.060 
27 1 7.024 2.523 0.813 
28 1 -7.958 8.444 -5.012 
29 1 -0.780 2.791 -5.169 
30 1 -6.679 -1.847 4.673 
31 1 -5.410 1.312 -0.769 
32 1 1.794 6.189 0.273 
33 1 1.206 0.148 -5.175 
34 1 -8.916 5.112 7.686 
35 1 1.346 -6.967 6.291 
36 1 -8.266 1.859 8.214 
37 1 3.357 -4.084 6.061 
38 1 -1.673 -6.824 2.686 
39 1 -6.477 1.126 5.750 
40 1 0.268 4.858 -7.934 
41 1 -1.724 -5.541 -2.301 
42 1 -8.752 -7.368 -6.722 
43 1 8.058 -3.338 -1.456 
44 1 3.672 -0.825 -7.128 
45 1 2.558 8.541 -1.965 
46 1 -5.489 -8.557 6.228 
47 1 -6.800 -5.951 4.845 
48 1 3.478 -6.848 -0.771 
49 1 3.656 -1.046 6.898 
50 1 2.373 6.108 -5.977 
51 1 -3.444 6.236 2.970 
52 1 3.139 3.654 6.424 
53 1 6.431 -5.917 -6.094 
54 1 5.577 8.316 -1.006 
55 1 4.099 -3.494 -8.945 
56 1 -6.003 -1.158 8.518 
57 1 4.948 5.997 2.006 
58 1 7.320 -0.393 -4.265 
59 1 3.295 -6.766 -7.420 
60 1 -1.338 0.632 0.100 
61 1 7.465 5.448 -0.562 
62 1 -7.198 -1.218 -6.343 
63 1 5.549 8.691 3.935 
64 1 -5.778 -6.182 1.142 
65 1 -6.067 4.033 7.079 
66 1 -8.196 -7.065 -3.237 
67 1 5.934 0.449 5.126 
68 1 6.279 2.031 -2.330 
69 1 1.294 -4.935 -9.033 
70 1 -5.736 6.653 5.362 
71 1 7.922 -1.410 1.282 
72 1 5.895 -7.607 1.475 
73 1 -6.957 -8.712 -0.184 
74 1 -5.449 1.143 -7.550 
75 1 0.484 -5.019 0.449 
76 1 7.027 -8.491 -8.456 
77 1 -2.999 -4.809 0.551 
78 1 3.664 -5.542 -4.175 
79 1 5.114 -6.300 8.116 
80 1 8.626 -3.364 4.275 
81 1 -0.590 -2.166 -6.301 
82 1 -6.371 6.960 1.872 
83 1 -2.823 -8.529 -3.489 
84 1 -3.645 -0.829 5.607 
85 1 -8.874 6.471 -7.183 
86 1 -2.882 -5.523 -5.211 
87 1 -3.826 7.752 -5.691 
88 1 1.280 2.317 -2.774 
89 1 -2.795 -2.754 -3.861 
90 1 4.154 3.515 -3.981 
91 1 8.250 -6.507 -0.552 
92 1 0.886 9.028 3.733 
93 1 -4.165 3.640 -5.594 
94 1 8.084 2.836 -4.741 
95 1 0.354 -7.997 -0.053 
96 1 -8.627 3.264 -1.935 
97 1 -5.753 4.223 3.677 
98 1 -7.424 1.430 -4.544 
99 1 -5.613 8.297 -2.809 
100 1 4.119 -0.082 -3.548 
101 1 -0.576 5.588 4.224 
102 1 -8.112 -3.778 1.356 
103 1 -9.009 -4.401 -4.946 
104 1 -5.517 6.001 -8.051 
105 1 -4.447 -6.295 8.420 
106 1 5.902 -3.602 -3.558 
107 1 0.116 -2.352 1.856 
108 1 6.526 6.580 8.845 
109 1 -4.626 4.139 0.282 
110 1 -0.415 3.401 7.195 
111 1 -0.956 -3.875 6.845 
112 1 7.210 -8.992 6.687 
113 1 8.705 0.636 -7.143 
114 1 6.349 2.846 7.120 
115 1 -7.025 -4.075 -7.977 
116 1 3.555 -3.319 -1.450 
117 1 5.328 -3.028 4.051 
118 1 -5.000 -2.768 -1.430 
119 1 8.055 -4.916 -8.745 
120 1 -2.276 -3.208 3.758 
121 1 4.336 3.866 -8.773 
122 1 -6.834 5.464 -4.596 
123 1 -4.064 7.343 -0.368 
124 1 2.691 0.643 4.568 
125 1 2.374 -3.572 -6.185 
126 1 -7.551 -3.462 7.109 
127 1 -3.113 2.495 5.001 
128 1 8.543 8.464 -2.094 
129 1 -1.480 7.538 -8.009 
130 1 6.525 -2.700 -6.798 
131 1 -1.057 0.178 3.188 
132 1 -7.830 -8.989 3.961 
133 1 5.440 1.477 -6.127 
134 1 -7.708 -6.874 8.561 
135 1 5.945 -4.393 1.391 
136 1 -0.264 0.238 6.438 
137 1 0.655 3.214 0.294 
138 1 -0.367 7.779 -1.942 
139 1 -2.629 -7.524 -7.441 
140 1 0.124 7.246 7.181 
141 1 -4.906 0.136 -3.437 
142 1 -8.865 0.673 3.415 
143 1 -4.775 -6.361 -2.197 
144 1 -2.517 8.473 5.289 
145 1 -8.913 3.305 5.222 
146 1 -5.736 -3.888 -4.738 
147 1 -7.830 -1.784 -3.178 
148 1 0.348 2.759 4.114 
149 1 -4.162 -2.299 -6.965 
150 1 -2.987 -5.954 5.392 
151 1 3.735 1.685 -0.505 
152 1 -7.325 2.739 1.192 
153 1 1.107 -2.089 4.883 
154 1 0.981 -8.436 -8.585 
155 1 -2.594 4.051 -8.254 
156 1 1.560 5.287 -2.725 
157 1 7.552 3.401 -8.079 
158 1 -2.405 -1.010 8.757 
159 1 -7.539 3.720 -7.312 
160 1 -4.234 -3.460 7.097 
161 1 -6.025 -9.035 -8.013 
162 1 5.590 -6.252 4.805 
163 1 0.423 -3.064 -3.420 
164 1 5.467 5.742 6.017 
165 1 -3.745 5.785 -2.814 
166 1 -2.289 -4.174 -8.409 
167 1 -2.129 3.263 2.045 
168 1 -1.553 5.183 -0.606 
169 1 -3.583 -1.672 1.222 
170 1 8.825 5.020 2.467 
171 1 1.421 -0.672 -1.174 
172 1 2.533 6.359 4.570 
173 1 -2.903 2.926 -2.401 
174 1 8.948 -1.867 -8.753 
175 1 6.465 -3.151 7.276 
176 1 2.729 1.279 8.789 
177 1 6.756 8.431 -5.432 
178 1 1.633 0.510 1.680 
179 1 -4.363 -8.774 2.951 
180 1 -1.634 -2.443 -1.107 
181 1 8.416 -6.035 6.174 
182 1 -5.337 -4.042 3.076 
183 1 4.716 0.034 2.121 
184 1 -1.118 5.849 -4.917 
185 1 -8.759 0.329 -1.007 
186 1 -0.271 -9.024 -5.622 
187 1 -1.744 -8.158 7.789 
188 1 6.374 3.427 3.533 
189 1 8.423 6.735 5.092 
190 1 3.213 -6.146 2.543 
191 1 -1.095 7.746 1.625 
192 1 -2.604 0.317 -6.038 
193 1 -5.582 -7.423 -5.179 
194 1 5.080 6.415 -3.368 
195 1 8.395 -0.559 6.587 
196 1 -4.176 7.730 8.175 
197 1 -3.735 1.925 7.831 
198 1 -0.373 1.418 -8.000 
199 1 5.846 -0.895 -0.907 
200 1 5.891 -7.690 -3.107 
ITEM: TIMESTEP
13000
ITEM: NUMBER OF ATOMS
200
ITEM: BOX BOUNDS pp pp pp
-9.045920656144343 9.045920656144343
-9.045920656144343 9.045920656144343
-9.045920656144343 9.045920656144343
ITEM: ATOMS id type x y z
1 1 3.153 3.339 2.488 
2 1 4.313 4.610 -0.883 
3 1 2.146 2.695 -6.492 
4 1 -3.127 5.340 6.503 
5 1 -7.055 -1.133 1.169 
6 1 3.862 -8.646 6.749 
7 1 2.797 -2.801 2.174 
8 1 2.963 6.417 7.873 
9 1 3.201 8.728 1.719 
10 1 -7.134 6.504 -1.142 
11 1 0.581 -4.841 3.996 
12 1 8.243 8.403 1.174 
13 1 -7.276 -4.762 -1.114 
14 1 8.724 -6.375 2.771 
15 1 6.196 0.015 8.614 
16 1 2.869 -8.932 -4.907 
17 1 -2.983 -7.724 0.002 
18 1 1.029 -6.979 -2.942 
19 1 -4.851 1.061 2.655 
20 1 -1.334 0.259 -3.001 
21 1 1.019 -1.482 8.608 
22 1 0.138 -5.716 -6.206 
23 1 5.691 5.060 -5.694 
24 1 8.498 5.739 -3.807 
25 1 -8.138 8.149 7.472 
26 1 4.148 8.256 -7.503 
27 1 7.037 1.858 0.881 
28 1 -7.877 8.332 -5.011 
29 1 -0.959 2.830 -5.270 
30 1 -7.014 -1.174 4.465 
31 1 -4.968 0.786 -0.721 
32 1 1.809 5.765 1.119 
33 1 0.939 0.043 -5.097 
34 1 8.891 5.162 7.629 
35 1 1.346 -6.967 6.291 
36 1 -8.077 1.578 8.390 
37 1 3.352 -4.489 6.033 
38 1 -1.622 -6.938 2.863 
39 1 -6.471 1.364 5.853 
40 1 0.575 4.772 -8.025 
41 1 -1.563 -5.564 -2.238 
42 1 -8.910 -7.093 -6.663 
43 1 8.098 -3.142 -1.358 
44 1 3.495 -0.826 -6.957 
45 1 2.480 8.432 -1.775 
46 1 -5.401 -8.562 6.006 
47 1 -6.409 -5.907 5.203 
48 1 3.750 -7.074 -0.969 
49 1 4.106 -1.144 6.550 
50 1 2.351 5.918 -5.641 
51 1 -3.512 6.038 3.085 
52 1 3.149 3.560 6.203 
53 1 6.153 -5.481 -6.785 
54 1 5.437 8.189 -0.517 
55 1 4.099 -3.494 -8.945 
56 1 -5.905 -1.004 8.451 
57 1 4.972 5.821 2.119 
58 1 7.451 -0.244 -4.071 
59 1 3.201 -6.726 -7.329 
60 1 -1.515 0.547 -0.026 
61 1 7.431 5.609 -0.510 
62 1 -7.254 -1.435 -6.291 
63 1 5.964 8.354 3.609 
64 1 -5.863 -6.471 1.666 
65 1 -5.830 3.897 7.857 
66 1 -8.196 -7.065 -3.237 
67 1 6.029 0.543 5.010 
68 1 6.639 2.583 -2.208 
69 1 1.274 -4.848 8.993 
70 1 -5.934 6.530 5.673 
71 1 7.871 -1.729 1.696 
72 1 5.991 -7.472 1.417 
73 1 -7.114 -8.449 -0.222 
74 1 -5.416 1.072 -7.539 
75 1 0.481 -4.721 0.380 
76 1 6.916 -8.046 -8.518 
77 1 -3.052 -4.644 0.873 
78 1 3.716 -5.703 -3.909 
79 1 5.511 -6.116 7.653 
80 1 8.721 -3.152 4.562 
81 1 -0.627 -2.204 -6.768 
82 1 -6.688 7.029 1.975 
83 1 -2.680 -8.436 -3.493 
84 1 -3.912 -0.708 5.298 
85 1 -8.665 6.718 -7.706 
86 1 -2.833 -5.562 -5.166 
87 1 -3.779 7.530 -5.719 
88 1 0.815 2.493 -2.742 
89 1 -2.554 -2.764 -3.939 
90 1 3.805 3.280 -3.635 
91 1 7.887 -6.267 -0.704 
92 1 0.811 -8.650 3.680 
93 1 -4.192 3.356 -5.352 
94 1 7.828 2.810 -5.132 
95 1 0.418 -8.006 0.158 
96 1 -8.203 3.524 -2.132 
97 1 -6.093 4.276 3.559 
98 1 -7.356 1.516 -4.353 
99 1 -5.631 8.553 -2.765 
100 1 4.223 -0.125 -3.741 
101 1 -0.731 5.584 4.258 
102 1 -7.966 -3.908 1.774 
103 1 8.976 -4.398 -4.804 
104 1 -5.640 5.995 -7.549 
105 1 -4.447 -6.295 8.420 
106 1 6.117 -3.270 -3.835 
107 1 -0.355 -1.959 1.598 
108 1 6.483 6.781 8.903 
109 1 -4.947 4.275 -0.085 
110 1 -0.147 3.617 7.238 
111 1 -0.909 -3.682 6.985 
112 1 6.979 -8.952 6.220 
113 1 8.649 0.670 -6.985 
114 1 6.634 3.124 7.059 
115 1 -6.651 -4.211 -8.175 
116 1 3.552 -3.397 -0.926 
117 1 5.511 -2.788 4.085 
118 1 -4.790 -2.830 -1.505 
119 1 8.078 -4.864 -8.956 
120 1 -2.103 -3.327 3.996 
121 1 4.447 4.056 -8.837 
122 1 -6.201 5.363 -4.414 
123 1 -4.019 7.563 0.134 
124 1 2.691 0.643 4.568 
125 1 2.588 -3.625 -6.217 
126 1 -7.826 -3.399 7.077 
127 1 -2.946 2.633 4.933 
128 1 8.567 8.502 -1.983 
129 1 -1.416 7.468 -8.183 
130 1 6.398 -1.890 -6.715 
131 1 -1.173 -0.042 3.750 
132 1 -7.728 -8.725 3.957 
133 1 5.238 1.815 -6.692 
134 1 -7.718 -7.001 8.114 
135 1 6.017 -4.226 1.224 
136 1 -0.789 0.571 6.809 
137 1 0.650 2.978 0.612 
138 1 -0.540 7.762 -2.255 
139 1 -3.077 -8.096 -7.404 
140 1 0.117 7.097 7.062 
141 1 -4.551 -0.060 -3.659 
142 1 8.796 0.747 3.466 
143 1 -4.779 -6.386 -2.222 
144 1 -2.219 8.356 4.961 
145 1 -8.871 3.478 5.007 
146 1 -5.562 -3.956 -4.580 
147 1 -7.474 -1.736 -2.957 
148 1 0.147 2.681 3.789 
149 1 -4.331 -2.194 -7.211 
150 1 -3.026 -6.280 5.705 
151 1 3.446 1.474 -0.976 
152 1 -7.690 2.641 0.984 
153 1 1.246 -2.020 5.259 
154 1 0.977 -8.347 -8.736 
155 1 -2.751 4.232 -8.341 
156 1 1.688 5.446 -2.717 
157 1 7.552 3.401 -8.153 
158 1 -2.251 -1.332 8.815 
159 1 -7.492 3.502 -6.727 
160 1 -4.180 -3.508 6.820 
161 1 -6.326 -9.017 -7.808 
162 1 5.598 -6.467 4.450 
163 1 0.811 -3.460 -3.394 
164 1 5.484 5.784 5.915 
165 1 -3.519 5.732 -2.800 
166 1 -2.206 -4.702 -8.339 
167 1 -2.446 3.023 1.796 
168 1 -1.467 5.079 -0.342 
169 1 -3.559 -1.517 1.096 
170 1 8.854 5.238 2.286 
171 1 1.405 -0.792 -1.514 
172 1 2.597 6.307 4.254 
173 1 -2.902 2.746 -2.321 
174 1 -9.039 -1.875 -8.716 
175 1 6.547 -3.026 7.114 
176 1 2.767 1.198 8.448 
177 1 6.922 8.292 -5.367 
178 1 1.896 0.254 1.508 
179 1 -4.316 -8.805 3.022 
180 1 -1.390 -2.327 -1.266 
181 1 8.568 -6.027 6.071 
182 1 -5.254 -3.732 3.164 
183 1 4.910 -0.151 2.426 
184 1 -0.810 5.956 -5.043 
185 1 -8.979 0.596 -1.261 
186 1 -0.398 -8.778 -5.655 
187 1 -1.619 -8.003 7.635 
188 1 6.457 3.230 3.715 
189 1 8.718 6.682 5.052 
190 1 3.311 -5.998 2.182 
191 1 -1.178 7.496 1.635 
192 1 -2.712 0.249 -5.987 
193 1 -5.507 -7.110 -5.212 
194 1 4.532 6.588 -3.386 
195 1 8.769 -0.446 6.464 
196 1 -3.986 7.662 8.329 
197 1 -3.872 1.636 7.778 
198 1 -0.321 1.066 -8.121 
199 1 5.571 -1.123 -0.658 
200 1 6.599 -6.978 -3.638 
ITEM: TIMESTEP
14000
ITEM: NUMBER OF ATOMS
200
ITEM: BOX BOUNDS pp pp pp
-9.045920656144343 9.045920656144343
-9.045920656144343 9.045920656144343
-9.045920656144343 9.045920656144343
ITEM: ATOMS id type x y z
1 1 3.265 3.106 2.606 
2 1 3.792 4.709 -0.841 
3 1 2.454 2.607 -6.688 
4 1 -2.886 5.382 6.610 
5 1 -7.447 -1.024 1.195 
6 1 3.965 -8.701 6.603 
7 1 2.836 -2.869 2.556 
8 1 3.409 6.643 7.985 
9 1 3.205 8.424 1.566 
10 1 -7.341 6.432 -1.116 
11 1 0.621 -5.091 3.877 
12 1 8.547 8.104 1.242 
13 1 -7.167 -4.550 -0.869 
14 1 8.655 -6.732 2.836 
15 1 5.536 0.001 9.032 
16 1 3.036 -8.761 -5.036 
17 1 -3.034 -7.849 -0.047 
18 1 0.387 -7.411 -3.205 
19 1 -5.124 1.030 2.672 
20 1 -1.586 0.315 -3.116 
21 1 0.827 -1.861 8.697 
22 1 0.240 -6.046 -6.047 
23 1 5.820 4.839 -5.867 
24 1 8.599 5.718 -3.685 
25 1 -8.262 8.349 7.599 
26 1 4.475 8.485 -7.552 
27 1 6.830 2.235 1.044 
28 1 -7.877 8.332 -5.011 
29 1 -0.655 2.800 -5.465 
30 1 -6.761 -1.541 4.515 
31 1 -4.962 0.916 -0.664 
32 1 1.382 5.637 0.903 
33 1 1.057 -0.255 -4.892 
34 1 -8.927 4.950 7.456 
35 1 1.422 -7.040 6.261 
36 1 -8.288 1.760 8.518 
37 1 3.497 -4.585 5.627 
38 1 -1.765 -6.958 2.912 
39 1 -6.231 1.385 5.679 
40 1 0.788 5.273 -8.604 
41 1 -2.048 -5.641 -2.213 
42 1 -8.694 -7.017 -6.391 
43 1 8.123 -3.006 -1.240 
44 1 3.396 -0.767 -6.984 
45 1 2.406 8.297 -1.716 
46 1 -5.401 -8.562 6.006 
47 1 -6.211 -5.789 5.430 
48 1 3.664 -6.831 -1.053 
49 1 3.626 -1.559 6.732 
50 1 2.578 5.942 -6.219 
51 1 -3.413 5.946 3.411 
52 1 3.348 3.610 6.292 
53 1 6.272 -5.508 -6.387 
54 1 5.428 8.403 -0.690 
55 1 3.956 -3.523 -8.858 
56 1 -5.940 -0.902 8.096 
57 1 4.987 5.740 2.014 
58 1 7.698 -0.800 -3.965 
59 1 3.256 -6.405 -7.408 
60 1 -1.528 0.567 0.106 
61 1 7.181 5.634 -0.664 
62 1 -7.468 -1.651 -5.779 
63 1 6.185 8.209 3.683 
64 1 -5.954 -6.270 1.448 
65 1 -5.889 3.999 7.890 
66 1 -8.016 -7.038 -3.323 
67 1 5.859 0.267 4.974 
68 1 6.318 2.248 -2.083 
69 1 1.259 -4.954 8.680 
70 1 -5.753 6.354 5.817 
71 1 7.503 -1.488 1.666 
72 1 5.991 -7.472 1.417 
73 1 -7.261 -8.291 -0.305 
74 1 -5.613 0.981 -7.599 
75 1 0.870 -4.927 0.402 
76 1 6.983 -8.196 -8.313 
77 1 -3.052 -4.644 0.873 
78 1 3.832 -5.756 -3.922 
79 1 5.347 -6.145 7.650 
80 1 8.668 -3.269 4.348 
81 1 -0.595 -2.383 -6.638 
82 1 -6.491 6.779 1.980 
83 1 -2.771 -8.394 -3.536 
84 1 -3.623 -0.818 5.350 
85 1 -9.011 6.677 -7.725 
86 1 -2.785 -5.609 -5.522 
87 1 -4.000 7.496 -5.819 
88 1 0.869 2.436 -2.857 
89 1 -2.301 -2.604 -4.132 
90 1 3.791 3.268 -3.611 
91 1 7.887 -6.267 -0.704 
92 1 0.799 -8.920 3.716 
93 1 -4.181 3.220 -5.190 
94 1 8.139 2.879 -4.754 
95 1 0.370 -8.056 0.392 
96 1 -8.060 3.289 -1.994 
97 1 -6.269 4.043 3.519 
98 1 -6.990 1.427 -4.555 
99 1 -5.607 8.524 -2.608 
100 1 3.885 -0.899 -3.739 
101 1 -0.262 5.729 4.036 
102 1 -7.963 -4.072 1.949 
103 1 8.891 -4.185 -4.943 
104 1 -5.655 6.035 -7.987 
105 1 -4.447 -6.295 8.420 
106 1 5.873 -3.494 -3.719 
107 1 -0.375 -2.309 1.635 
108 1 6.540 6.792 8.592 
109 1 -5.127 4.325 0.258 
110 1 -0.244 3.800 6.916 
111 1 -1.035 -4.042 6.776 
112 1 7.006 -8.632 6.285 
113 1 8.729 0.675 -6.896 
114 1 6.663 2.607 6.950 
115 1 -6.614 -3.933 -8.171 
116 1 3.630 -3.616 -0.826 
117 1 5.674 -2.971 4.118 
118 1 -4.889 -2.720 -1.375 
119 1 8.020 -4.860 9.004 
120 1 -2.044 -3.475 3.778 
121 1 4.476 4.013 -8.813 
122 1 -6.124 5.539 -4.284 
123 1 -4.064 7.222 0.067 
124 1 2.671 0.883 4.900 
125 1 2.515 -3.603 -5.881 
126 1 -7.939 -3.482 6.990 
127 1 -2.946 2.633 4.933 
128 1 8.258 8.705 -2.202 
129 1 -1.349 7.191 -8.114 
130 1 6.215 -2.074 -6.827 
131 1 -1.639 0.411 3.524 
132 1 -7.502 -8.811 3.806 
133 1 5.573 1.600 -6.422 
134 1 -7.548 -6.967 8.329 
135 1 6.011 -4.290 1.440 
136 1 -0.376 0.559 6.692 
137 1 0.721 2.664 0.371 
138 1 -0.843 7.997 -1.760 
139 1 -3.240 -8.250 -7.417 
140 1 0.035 7.386 6.863 
141 1 -4.696 -0.398 -3.620 
142 1 -8.778 0.955 3.349 
143 1 -4.950 -6.354 -2.270 
144 1 -2.420 8.406 5.127 
145 1 -9.040 3.515 4.891 
146 1 -5.739 -3.977 -4.398 
147 1 -7.437 -1.558 -2.586 
148 1 0.407 2.637 3.928 
149 1 -4.242 -2.498 -6.814 
150 1 -3.096 -6.057 5.564 
151 1 3.543 1.593 -0.696 
152 1 -7.866 2.676 0.939 
153 1 1.013 -2.143 5.323 
154 1 1.030 -8.577 -8.707 
155 1 -2.408 4.002 -8.066 
156 1 1.333 5.558 -2.952 
157 1 7.551 3.641 -7.968 
158 1 -2.522 -1.396 8.458 
159 1 -7.280 3.663 -7.083 
160 1 -4.592 -3.510 6.834 
161 1 -6.582 9.036 -7.661 
162 1 5.504 -6.659 4.355 
163 1 0.660 -4.035 -3.217 
164 1 5.850 5.576 5.842 
165 1 -3.394 6.259 -3.077 
166 1 -2.068 -4.438 -8.352 
167 1 -2.369 3.242 1.856 
168 1 -1.359 5.110 -0.525 
169 1 -3.775 -1.372 1.292 
170 1 8.842 5.280 2.125 
171 1 1.388 -1.120 -1.480 
172 1 2.990 6.559 4.596 
173 1 -2.979 2.912 -2.225 
174 1 -8.990 -1.873 -8.570 
175 1 6.546 -2.801 7.245 
176 1 2.814 1.429 8.404 
177 1 6.859 7.795 -5.224 
178 1 1.799 0.098 1.693 
179 1 -4.135 -8.838 2.912 
180 1 -1.763 -2.511 -0.990 
181 1 8.494 -5.858 6.038 
182 1 -5.013 -3.957 3.136 
183 1 4.773 -0.297 2.000 
184 1 -0.817 5.992 -5.015 
185 1 8.926 0.509 -0.943 
186 1 -0.573 -8.944 -5.737 
187 1 -1.712 -7.696 7.889 
188 1 6.128 3.040 3.949 
189 1 9.033 6.879 4.692 
190 1 3.198 -6.251 2.140 
191 1 -1.346 7.574 1.586 
192 1 -2.734 0.239 -6.184 
193 1 -5.507 -7.110 -5.212 
194 1 4.388 6.554 -3.205 
195 1 8.959 -0.396 6.402 
196 1 -3.925 8.002 8.158 
197 1 -3.786 1.862 7.906 
198 1 -0.384 1.427 -8.178 
199 1 5.807 -0.561 -0.754 
200 1 6.591 -7.048 -3.603 
ITEM: TIMESTEP
15000
ITEM: NUMBER OF ATOMS
200
ITEM: BOX BOUNDS pp pp pp
-9.045920656144343 9.045920656144343
-9.045920656144343 9.045920656144343
-9.045920656144343 9.045920656144343
ITEM: ATOMS id type x y z
1 1 3.075 3.240 2.479 
2 1 3.861 4.641 -0.746 
3 1 2.322 2.374 -6.456 
4 1 -3.158 5.177 6.688 
5 1 -7.437 -0.959 1.139 
6 1 4.210 -9.018 6.880 
7 1 3.087 -3.235 2.544 
8 1 3.169 6.550 7.971 
9 1 3.341 8.486 1.897 
10 1 -7.228 6.376 -1.026 
11 1 0.415 -5.242 4.232 
12 1 8.632 8.424 1.341 
13 1 -7.356 -4.450 -1.082 
14 1 8.433 -6.528 2.926 
15 1 5.720 0.061 8.939 
16 1 2.388 -8.430 -5.164 
17 1 -3.393 -7.862 -0.069 
18 1 0.476 -7.559 -2.854 
19 1 -4.805 0.935 2.750 
20 1 -1.753 0.428 -3.123 
21 1 0.902 -1.658 8.320 
22 1 0.123 -6.013 -6.570 
23 1 5.168 5.019 -5.977 
24 1 8.751 5.817 -4.054 
25 1 -8.158 8.551 8.072 
26 1 4.282 8.364 -7.515 
27 1 6.905 2.430 0.552 
28 1 -7.787 8.352 -4.958 
29 1 -0.862 2.903 -5.661 
30 1 -6.512 -1.483 4.435 
31 1 -5.294 1.001 -1.347 
32 1 1.573 6.148 1.018 
33 1 0.842 -0.224 -4.933 
34 1 8.907 5.269 7.747 
35 1 1.619 -7.177 6.702 
36 1 -8.609 2.057 8.679 
37 1 3.470 -4.535 5.429 
38 1 -1.713 -6.991 2.526 
39 1 -6.420 1.352 5.853 
40 1 0.777 4.868 -8.728 
41 1 -1.838 -5.551 -2.300 
42 1 -8.923 -7.039 -6.567 
43 1 7.701 -2.969 -1.109 
44 1 2.941 -0.622 -7.231 
45 1 2.514 8.204 -1.463 
46 1 -5.478 -8.285 6.192 
47 1 -6.842 -5.636 5.108 
48 1 4.075 -6.895 -1.108 
49 1 3.626 -1.559 6.732 
50 1 2.177 5.974 -5.797 
51 1 -3.485 5.694 3.331 
52 1 3.513 3.605 5.947 
53 1 6.008 -5.394 -6.304 
54 1 5.657 8.121 -0.627 
55 1 3.993 -3.490 -8.655 
56 1 -6.076 -0.998 8.298 
57 1 5.428 5.925 2.349 
58 1 7.554 -0.633 -3.951 
59 1 3.356 -6.584 -7.512 
60 1 -2.130 0.958 -0.042 
61 1 7.216 5.296 -1.224 
62 1 -6.859 -1.554 -6.158 
63 1 6.047 8.414 3.636 
64 1 -5.862 -6.647 1.904 
65 1 -5.938 3.886 8.015 
66 1 -8.035 -6.654 -3.309 
67 1 6.368 0.099 4.931 
68 1 6.117 1.828 -2.516 
69 1 1.131 -4.771 8.699 
70 1 -6.265 6.686 5.905 
71 1 7.492 -1.771 1.937 
72 1 5.940 -7.677 1.313 
73 1 -7.267 -8.527 -0.200 
74 1 -5.849 1.363 -7.798 
75 1 1.197 -4.701 -0.237 
76 1 6.928 -8.109 -8.531 
77 1 -3.208 -4.736 0.858 
78 1 3.748 -5.753 -4.018 
79 1 5.326 -6.054 7.701 
80 1 8.867 -3.211 4.501 
81 1 -0.643 -2.343 -6.880 
82 1 -6.491 6.779 1.980 
83 1 -2.649 -8.581 -3.802 
84 1 -3.745 -0.512 5.523 
85 1 9.040 6.928 -7.554 
86 1 -2.740 -5.539 -5.501 
87 1 -4.000 7.496 -5.819 
88 1 0.762 2.358 -2.794 
89 1 -2.191 -2.927 -4.171 
90 1 3.641 3.342 -3.638 
91 1 8.280 -6.184 -0.585 
92 1 1.105 -8.838 3.735 
93 1 -4.051 3.168 -5.341 
94 1 8.139 2.879 -4.754 
95 1 0.501 -8.040 0.311 
96 1 -8.061 3.497 -1.927 
97 1 -6.404 4.144 3.614 
98 1 -6.890 1.816 -4.448 
99 1 -5.588 8.682 -2.607 
100 1 3.607 -0.642 -3.590 
101 1 -0.087 5.759 3.821 
102 1 -7.963 -4.072 1.949 
103 1 9.037 -3.666 -5.121 
104 1 -5.935 6.109 -7.992 
105 1 -4.550 -6.053 8.343 
106 1 5.962 -3.479 -3.768 
107 1 -0.222 -2.332 1.692 
108 1 6.253 6.865 8.772 
109 1 -4.704 4.401 0.036 
110 1 -0.339 3.515 6.942 
111 1 -1.039 -4.037 6.753 
112 1 7.280 -8.655 6.420 
113 1 8.650 0.654 -6.650 
114 1 6.691 2.430 7.175 
115 1 -6.546 -4.022 -7.929 
116 1 3.795 -3.284 -1.372 
117 1 5.794 -3.070 4.298 
118 1 -4.712 -2.850 -1.501 
119 1 7.921 -5.091 -8.665 
120 1 -2.338 -3.130 3.953 
121 1 4.476 4.013 -8.813 
122 1 -6.259 5.425 -4.235 
123 1 -4.093 7.248 0.040 
124 1 2.755 0.714 4.953 
125 1 2.611 -3.466 -5.931 
126 1 -7.821 -3.442 7.125 
127 1 -3.247 2.487 4.848 
128 1 8.648 8.546 -1.951 
129 1 -1.410 7.039 -8.767 
130 1 5.940 -2.146 -6.482 
131 1 -1.594 -0.005 3.339 
132 1 -7.507 -9.018 3.604 
133 1 5.666 1.885 -5.996 
134 1 -7.582 -6.477 8.328 
135 1 5.783 -4.593 1.178 
136 1 -0.828 0.466 6.355 
137 1 0.536 2.699 0.425 
138 1 -0.828 7.934 -1.537 
139 1 -3.054 -7.912 -7.546 
140 1 0.283 7.240 6.857 
141 1 -4.539 -0.665 -4.198 
142 1 -8.977 0.774 3.201 
143 1 -4.950 -6.354 -2.270 
144 1 -2.134 8.308 4.937 
145 1 9.035 3.535 5.438 
146 1 -5.539 -3.737 -4.458 
147 1 -7.439 -1.270 -2.643 
148 1 0.130 2.565 4.186 
149 1 -3.852 -2.779 -6.880 
150 1 -3.016 -6.236 5.333 
151 1 3.157 1.504 -0.793 
152 1 -7.402 2.522 1.210 
153 1 0.908 -2.032 4.817 
154 1 1.340 -8.985 -8.730 
155 1 -2.663 4.249 -7.987 
156 1 0.961 5.658 -2.898 
157 1 7.605 3.994 -7.915 
158 1 -2.564 -1.300 8.672 
159 1 -7.443 3.915 -6.729 
160 1 -4.496 -3.342 6.783 
161 1 -6.342 -8.576 -7.814 
162 1 5.441 -6.744 4.565 
163 1 0.895 -3.762 -3.333 
164 1 6.251 5.384 5.974 
165 1 -3.394 6.259 -3.077 
166 1 -2.135 -4.841 -8.560 
167 1 -2.192 3.105 1.976 
168 1 -1.341 5.168 -0.504 
169 1 -3.939 -1.544 1.125 
170 1 8.462 5.125 1.958 
171 1 1.365 -1.215 -1.457 
172 1 3.007 6.513 4.692 
173 1 -3.065 3.170 -2.466 
174 1 8.841 -1.951 -8.363 
175 1 6.805 -2.920 7.435 
176 1 2.523 1.427 8.228 
177 1 6.793 8.428 -5.209 
178 1 1.830 0.296 2.026 
179 1 -4.436 -8.946 3.042 
180 1 -1.610 -2.683 -1.172 
181 1 8.393 -5.831 6.113 
182 1 -5.103 -4.125 3.303 
183 1 4.951 -0.122 2.143 
184 1 -0.968 6.159 -5.516 
185 1 9.022 0.754 -0.989 
186 1 -0.269 -9.022 -6.135 
187 1 -1.258 -7.523 7.847 
188 1 6.177 3.138 3.713 
189 1 8.587 7.055 4.745 
190 1 3.105 -6.293 1.881 
191 1 -1.394 7.849 1.827 
192 1 -2.576 0.316 -6.480 
193 1 -5.426 -6.878 -5.557 
194 1 4.680 6.727 -3.362 
195 1 9.016 -0.493 6.332 
196 1 -4.056 7.919 8.277 
197 1 -3.687 1.685 7.976 
198 1 -0.511 1.475 -8.589 
199 1 5.704 -0.781 -0.730 
200 1 6.652 -7.126 -3.116 
ITEM: TIMESTEP
16000
ITEM: NUMBER OF ATOMS
200
ITEM: BOX BOUNDS pp pp pp
-9.045920656144343 9.045920656144343
-9.045920656144343 9.045920656144343
-9.045920656144343 9.045920656144343
ITEM: ATOMS id type x y z
1 1 3.029 3.197 2.206 
2 1 3.991 4.654 -0.883 
3 1 2.465 2.545 -6.839 
4 1 -3.200 5.394 6.636 
5 1 -7.239 -1.079 0.705 
6 1 4.320 -8.744 6.914 
7 1 3.037 -2.791 2.234 
8 1 3.378 6.586 8.146 
9 1 3.239 8.617 1.601 
10 1 -7.323 6.403 -1.202 
11 1 0.415 -5.242 4.232 
12 1 8.306 8.298 1.433 
13 1 -7.483 -4.487 -1.410 
14 1 8.406 -6.161 2.933 
15 1 5.758 -0.089 -8.999 
16 1 3.239 -8.703 -4.484 
17 1 -3.320 -7.800 -0.071 
18 1 0.667 -7.046 -3.161 
19 1 -4.942 0.948 2.768 
20 1 -1.593 0.285 -3.300 
21 1 0.847 -1.549 8.202 
22 1 0.547 -5.839 -6.278 
23 1 5.458 5.303 -5.781 
24 1 8.586 5.920 -4.152 
25 1 -7.841 8.427 7.698 
26 1 4.405 8.352 -7.236 
27 1 7.318 1.998 0.898 
28 1 -7.493 8.427 -5.387 
29 1 -1.122 2.687 -5.691 
30 1 -6.729 -1.455 4.226 
31 1 -5.214 1.039 -1.066 
32 1 1.340 6.155 0.689 
33 1 0.943 -0.215 -4.832 
34 1 -8.764 5.365 7.850 
35 1 1.539 -7.375 6.436 
36 1 -8.246 2.245 8.541 
37 1 3.069 -4.408 5.933 
38 1 -1.713 -7.335 2.570 
39 1 -6.345 1.374 5.990 
40 1 0.684 4.834 -8.417 
41 1 -1.848 -5.392 -2.422 
42 1 -8.904 -6.992 -6.515 
43 1 8.068 -2.851 -1.637 
44 1 2.878 -0.618 -7.311 
45 1 2.511 8.374 -1.365 
46 1 -5.387 -8.286 6.086 
47 1 -6.842 -5.636 5.108 
48 1 4.045 -6.733 -1.220 
49 1 3.655 -1.475 6.773 
50 1 2.280 6.088 -6.194 
51 1 -3.577 5.807 3.189 
52 1 3.094 3.851 6.330 
53 1 6.078 -6.187 -5.860 
54 1 5.766 7.696 -0.571 
55 1 3.857 -3.470 -8.864 
56 1 -5.747 -1.139 8.374 
57 1 5.178 5.692 2.082 
58 1 7.507 -0.431 -3.888 
59 1 3.493 -6.788 -7.677 
60 1 -2.237 0.502 0.018 
61 1 7.408 4.786 -0.972 
62 1 -6.878 -1.052 -6.207 
63 1 5.899 8.300 3.959 
64 1 -5.735 -6.596 1.852 
65 1 -5.705 4.060 7.796 
66 1 -8.363 -6.885 -3.305 
67 1 6.274 -0.027 5.161 
68 1 6.062 1.953 -2.440 
69 1 1.299 -4.898 8.548 
70 1 -5.921 6.736 5.676 
71 1 7.755 -1.978 1.948 
72 1 5.828 -7.625 1.535 
73 1 -7.296 -8.482 0.246 
74 1 -5.824 1.383 -7.950 
75 1 0.885 -4.948 -0.361 
76 1 6.981 -7.955 -8.593 
77 1 -2.929 -4.827 0.816 
78 1 3.472 -5.560 -3.950 
79 1 5.319 -5.919 7.517 
80 1 8.600 -3.320 4.655 
81 1 -0.469 -2.177 -7.207 
82 1 -6.704 6.439 1.863 
83 1 -2.720 -8.415 -3.568 
84 1 -3.799 -0.409 5.754 
85 1 8.879 7.038 -7.567 
86 1 -2.740 -5.539 -5.501 
87 1 -4.349 7.752 -5.860 
88 1 1.135 2.443 -2.790 
89 1 -1.932 -2.710 -4.538 
90 1 3.754 3.553 -3.864 
91 1 8.275 -6.532 -0.400 
92 1 0.898 -9.011 3.806 
93 1 -4.240 3.131 -5.475 
94 1 7.880 2.656 -4.619 
95 1 0.192 -7.833 0.295 
96 1 -8.098 3.322 -2.109 
97 1 -6.529 4.086 3.849 
98 1 -6.929 1.571 -4.385 
99 1 -5.747 8.607 -2.717 
100 1 3.726 -1.173 -3.401 
101 1 -0.099 5.447 3.767 
102 1 -7.757 -3.852 1.933 
103 1 8.882 -3.571 -5.449 
104 1 -6.151 6.317 -8.106 
105 1 -4.427 -6.554 8.503 
106 1 6.023 -3.385 -3.649 
107 1 -0.247 -2.792 1.639 
108 1 6.593 7.094 8.680 
109 1 -4.862 4.142 -0.169 
110 1 -0.442 3.718 6.760 
111 1 -1.016 -3.949 6.791 
112 1 7.625 -8.739 6.426 
113 1 8.606 0.655 -7.094 
114 1 6.634 2.411 7.438 
115 1 -6.751 -4.566 -7.381 
116 1 3.536 -3.238 -1.228 
117 1 5.492 -2.875 4.105 
118 1 -4.729 -2.690 -1.591 
119 1 7.713 -5.081 -8.662 
120 1 -2.338 -3.130 3.953 
121 1 4.434 3.897 -8.804 
122 1 -6.186 5.207 -4.179 
123 1 -4.008 7.153 -0.193 
124 1 3.111 0.865 4.790 
125 1 2.939 -3.404 -5.974 
126 1 -7.490 -3.219 7.114 
127 1 -3.527 2.822 4.884 
128 1 8.667 8.519 -2.125 
129 1 -1.108 7.354 -9.032 
130 1 5.737 -1.968 -6.573 
131 1 -1.807 -0.281 2.932 
132 1 -7.503 -8.789 3.643 
133 1 5.339 1.554 -6.429 
134 1 -7.582 -6.477 8.328 
135 1 5.846 -4.399 0.969 
136 1 -0.860 0.578 6.379 
137 1 0.524 2.735 0.397 
138 1 -0.572 7.944 -1.824 
139 1 -2.685 -8.208 -7.562 
140 1 0.784 7.294 6.442 
141 1 -4.586 -0.543 -4.169 
142 1 8.966 0.671 3.506 
143 1 -4.779 -6.401 -2.284 
144 1 -2.099 8.403 5.415 
145 1 8.970 3.486 5.274 
146 1 -5.521 -3.727 -4.352 
147 1 -7.389 -1.348 -2.850 
148 1 0.334 2.191 4.028 
149 1 -4.140 -2.871 -7.005 
150 1 -2.920 -6.171 5.226 
151 1 3.532 1.749 -0.690 
152 1 -7.420 2.463 1.218 
153 1 0.786 -1.981 4.813 
154 1 1.517 8.976 -8.831 
155 1 -3.129 4.943 -7.959 
156 1 1.365 5.806 -3.020 
157 1 7.462 3.890 -7.669 
158 1 -2.667 -1.315 8.671 
159 1 -7.717 3.915 -6.483 
160 1 -4.338 -3.458 6.728 
161 1 -6.063 -8.549 -7.930 
162 1 5.195 -6.296 4.188 
163 1 0.927 -3.567 -3.371 
164 1 5.851 5.645 6.176 
165 1 -3.383 6.419 -3.182 
166 1 -2.077 -4.735 -8.463 
167 1 -2.192 3.105 1.976 
168 1 -1.513 5.121 -0.329 
169 1 -4.138 -1.754 1.284 
170 1 8.645 4.883 1.893 
171 1 1.249 -0.628 -1.145 
172 1 3.191 6.476 4.612 
173 1 -2.558 3.234 -2.547 
174 1 8.707 -2.109 -8.468 
175 1 6.640 -2.890 7.209 
176 1 2.669 1.336 7.968 
177 1 6.990 8.728 -5.198 
178 1 1.647 0.101 1.965 
179 1 -4.492 8.930 3.062 
180 1 -1.789 -2.491 -1.221 
181 1 8.393 -5.831 6.113 
182 1 -5.117 -4.056 3.378 
183 1 5.025 0.352 2.120 
184 1 -0.802 5.717 -5.313 
185 1 8.768 0.469 -1.281 
186 1 0.128 8.824 -6.095 
187 1 -1.164 -7.406 7.997 
188 1 6.396 3.003 3.759 
189 1 8.939 6.728 4.466 
190 1 2.731 -6.327 1.676 
191 1 -1.306 7.866 1.773 
192 1 -2.854 0.076 -6.573 
193 1 -5.762 -7.047 -5.144 
194 1 4.510 6.917 -3.345 
195 1 8.991 -0.347 6.827 
196 1 -3.972 8.051 8.101 
197 1 -3.403 1.691 8.208 
198 1 -0.134 1.473 -8.484 
199 1 5.821 -0.769 -0.740 
200 1 6.222 -7.215 -3.124 
ITEM: TIMESTEP
17000
ITEM: NUMBER OF ATOMS
200
ITEM: BOX BOUNDS pp pp pp
-9.045920656144343 9.045920656144343
-9.045920656144343 9.045920656144343
-9.045920656144343 9.045920656144343
ITEM: ATOMS id type x y z
1 1 3.480 3.050 2.505 
2 1 4.041 4.651 -0.863 
3 1 2.250 2.408 -6.776 
4 1 -2.776 5.601 6.704 
5 1 -7.297 -1.209 0.615 
6 1 4.221 -8.931 6.357 
7 1 2.856 -3.267 2.487 
8 1 3.193 6.744 7.887 
9 1 3.521 8.534 1.435 
10 1 -7.201 6.328 -1.212 
11 1 0.282 -5.448 3.819 
12 1 8.467 7.864 1.782 
13 1 -7.528 -4.712 -1.106 
14 1 8.107 -6.260 3.011 
15 1 5.759 -0.064 8.670 
16 1 3.419 -8.616 -4.477 
17 1 -3.153 -8.017 -0.070 
18 1 0.643 -7.158 -3.007 
19 1 -4.911 1.459 2.277 
20 1 -1.668 0.190 -3.240 
21 1 0.847 -1.549 8.202 
22 1 0.228 -5.465 -6.047 
23 1 5.813 5.230 -5.920 
24 1 8.559 5.824 -4.172 
25 1 -7.710 8.348 7.513 
26 1 4.537 8.108 -7.123 
27 1 7.184 2.519 0.928 
28 1 -7.487 8.564 -5.179 
29 1 -0.937 2.782 -5.567 
30 1 -6.569 -1.248 4.170 
31 1 -5.282 0.574 -1.125 
32 1 1.519 6.179 0.942 
33 1 1.048 0.047 -4.806 
34 1 -8.764 5.365 7.850 
35 1 1.399 -7.192 6.202 
36 1 -8.246 2.245 8.541 
37 1 2.684 -4.569 5.691 
38 1 -2.063 -6.839 2.360 
39 1 -6.652 1.568 6.029 
40 1 0.864 4.533 -8.629 
41 1 -1.883 -5.359 -2.296 
42 1 -8.893 -7.098 -6.743 
43 1 7.801 -3.073 -1.057 
44 1 2.950 -0.530 -7.335 
45 1 2.559 8.543 -1.483 
46 1 -5.341 -8.000 6.060 
47 1 -7.164 -5.753 4.897 
48 1 3.913 -6.512 -1.076 
49 1 3.646 -1.534 6.636 
50 1 2.334 5.871 -5.963 
51 1 -3.309 5.902 3.241 
52 1 2.229 4.136 6.152 
53 1 5.882 -5.937 -6.252 
54 1 5.701 8.034 -0.861 
55 1 3.886 -3.123 -8.880 
56 1 -6.009 -1.387 8.524 
57 1 5.165 5.899 1.776 
58 1 7.016 -0.420 -4.519 
59 1 3.266 -6.657 -7.806 
60 1 -2.217 0.607 0.068 
61 1 7.466 5.093 -0.909 
62 1 -6.884 -1.391 -6.393 
63 1 6.071 8.629 3.594 
64 1 -5.350 -6.321 1.657 
65 1 -5.379 4.024 7.407 
66 1 -8.430 -6.873 -3.458 
67 1 6.179 -0.245 5.423 
68 1 6.374 2.213 -2.285 
69 1 1.056 -4.722 8.764 
70 1 -5.682 6.857 5.449 
71 1 7.620 -1.510 1.692 
72 1 5.936 -7.645 1.117 
73 1 -7.509 -8.280 0.368 
74 1 -5.824 1.383 -7.950 
75 1 0.804 -4.610 -0.310 
76 1 6.612 -7.981 -8.824 
77 1 -2.584 -4.494 0.738 
78 1 3.431 -5.603 -3.983 
79 1 4.922 -5.502 7.644 
80 1 8.557 -2.804 4.429 
81 1 0.072 -2.110 -6.967 
82 1 -6.783 6.538 2.063 
83 1 -2.720 -8.415 -3.568 
84 1 -3.987 -0.344 5.817 
85 1 8.835 7.120 -7.482 
86 1 -2.767 -5.816 -5.394 
87 1 -3.979 7.469 -5.742 
88 1 1.068 2.354 -2.632 
89 1 -2.090 -2.964 -4.615 
90 1 3.864 3.163 -4.002 
91 1 8.097 -6.570 -0.728 
92 1 0.732 -8.688 3.450 
93 1 -4.077 3.291 -5.535 
94 1 7.938 2.917 -4.863 
95 1 0.355 -7.801 0.214 
96 1 -8.078 3.491 -2.160 
97 1 -6.179 4.126 4.017 
98 1 -6.919 1.313 -4.595 
99 1 -5.568 8.634 -2.910 
100 1 3.799 -0.344 -3.513 
101 1 -0.051 5.483 3.554 
102 1 -7.923 -3.842 1.846 
103 1 8.844 -3.677 -4.909 
104 1 -6.406 6.393 -8.195 
105 1 -4.417 -6.207 8.600 
106 1 5.829 -3.402 -3.669 
107 1 -0.169 -2.280 1.642 
108 1 6.533 7.051 8.402 
109 1 -4.811 4.036 -0.475 
110 1 -0.640 3.246 7.042 
111 1 -1.016 -3.949 6.791 
112 1 7.773 -8.790 6.381 
113 1 8.335 0.673 -7.288 
114 1 6.666 2.537 7.062 
115 1 -6.812 -4.440 -7.223 
116 1 3.610 -3.363 -1.199 
117 1 5.478 -2.791 3.943 
118 1 -4.744 -2.634 -1.441 
119 1 7.781 -4.834 -8.381 
120 1 -2.025 -3.191 3.913 
121 1 4.360 3.956 9.033 
122 1 -5.921 5.462 -3.984 
123 1 -4.105 7.137 0.110 
124 1 3.029 1.034 4.975 
125 1 2.984 -3.528 -6.055 
126 1 -7.340 -3.526 6.995 
127 1 -3.238 2.804 4.929 
128 1 8.559 8.462 -2.175 
129 1 -0.980 7.455 -8.877 
130 1 6.234 -2.359 -6.736 
131 1 -1.796 -0.098 3.121 
132 1 -7.576 -8.825 3.873 
133 1 5.192 1.888 -6.747 
134 1 -7.772 -6.455 8.420 
135 1 5.865 -4.402 1.094 
136 1 -0.762 0.288 6.317 
137 1 0.307 2.648 0.534 
138 1 -0.617 8.027 -1.946 
139 1 -2.698 -8.141 -7.477 
140 1 0.461 7.191 6.283 
141 1 -4.553 -0.738 -4.082 
142 1 8.970 0.911 3.420 
143 1 -4.993 -6.246 -1.983 
144 1 -2.333 8.329 5.319 
145 1 -8.986 3.337 5.544 
146 1 -5.307 -3.911 -4.331 
147 1 -7.560 -1.622 -3.065 
148 1 0.328 2.404 4.108 
149 1 -4.151 -2.727 -7.093 
150 1 -3.166 -5.958 5.190 
151 1 3.479 1.742 -0.555 
152 1 -7.399 2.606 0.762 
153 1 1.095 -1.795 4.583 
154 1 1.517 8.976 -8.831 
155 1 -3.028 4.804 -7.949 
156 1 1.249 5.599 -2.940 
157 1 7.414 3.942 -8.023 
158 1 -2.591 -1.183 8.669 
159 1 -7.653 3.932 -6.467 
160 1 -4.129 -3.599 6.773 
161 1 -6.063 -8.549 -7.930 
162 1 5.312 -6.527 4.367 
163 1 1.054 -3.346 -3.478 
164 1 5.485 5.422 5.836 
165 1 -3.112 6.383 -2.989 
166 1 -1.976 -4.718 -8.177 
167 1 -2.306 3.207 1.804 
168 1 -1.390 5.319 -0.443 
169 1 -4.071 -1.568 1.657 
170 1 8.763 4.610 2.256 
171 1 1.442 -0.884 -1.364 
172 1 2.675 6.866 3.990 
173 1 -2.725 2.934 -2.493 
174 1 -8.920 -1.949 -8.583 
175 1 6.813 -2.992 7.313 
176 1 2.594 1.429 8.123 
177 1 6.774 8.776 -5.127 
178 1 1.710 0.174 1.946 
179 1 -4.648 8.981 3.059 
180 1 -1.702 -2.184 -1.216 
181 1 8.061 -5.794 6.243 
182 1 -5.088 -3.908 3.571 
183 1 4.879 0.261 2.109 
184 1 -1.095 6.063 -5.257 
185 1 8.967 0.611 -1.363 
186 1 0.129 9.042 -5.724 
187 1 -1.442 -7.590 7.491 
188 1 6.289 2.455 3.880 
189 1 8.786 6.526 4.940 
190 1 2.752 -6.329 2.184 
191 1 -1.306 7.866 1.773 
192 1 -2.919 0.286 -6.622 
193 1 -5.772 -6.887 -5.336 
194 1 4.703 6.611 -3.308 
195 1 -8.956 -0.359 6.791 
196 1 -4.159 8.228 8.272 
197 1 -3.060 1.907 8.473 
198 1 -0.193 1.143 -8.572 
199 1 5.692 -0.752 -0.669 
200 1 6.273 -6.833 -3.316 
ITEM: TIMESTEP
18000
ITEM: NUMBER OF ATOMS
200
ITEM: BOX BOUNDS pp pp pp
-9.045920656144343 9.045920656144343
-9.045920656144343 9.045920656144343
-9.045920656144343 9.045920656144343
ITEM: ATOMS id type x y z
1 1 3.282 3.188 2.863 
2 1 4.119 4.893 -0.970 
3 1 2.028 2.718 -6.836 
4 1 -2.876 5.956 6.218 
5 1 -7.006 -1.280 0.610 
6 1 4.069 -8.573 6.400 
7 1 2.829 -2.890 2.356 
8 1 3.193 6.744 7.887 
9 1 3.521 8.534 1.435 
10 1 -7.263 6.413 -1.153 
11 1 0.349 -5.120 3.808 
12 1 8.421 7.705 1.528 
13 1 -7.309 -4.320 -1.089 
14 1 8.403 -6.308 2.895 
15 1 6.014 -0.031 8.719 
16 1 3.755 -8.897 -4.578 
17 1 -3.036 -8.059 -0.397 
18 1 0.915 -7.386 -2.897 
19 1 -5.084 1.016 2.740 
20 1 -1.504 0.068 -3.241 
21 1 0.968 -1.804 8.190 
22 1 0.856 -5.099 -6.091 
23 1 5.673 5.586 -6.326 
24 1 8.518 5.766 -4.008 
25 1 -7.535 8.433 7.831 
26 1 4.314 8.200 -7.574 
27 1 7.226 1.962 0.924 
28 1 -7.902 8.306 -5.116 
29 1 -0.893 3.131 -5.305 
30 1 -6.692 -1.410 4.507 
31 1 -5.044 0.667 -1.106 
32 1 1.593 6.114 1.108 
33 1 0.967 0.327 -4.945 
34 1 -8.504 5.413 7.924 
35 1 1.016 -7.375 5.898 
36 1 -8.246 2.245 8.541 
37 1 2.702 -4.732 5.990 
38 1 -1.695 -6.887 2.579 
39 1 -6.622 1.595 5.656 
40 1 1.021 4.830 -8.700 
41 1 -1.755 -5.430 -2.341 
42 1 9.036 -7.275 -6.660 
43 1 7.980 -2.819 -1.212 
44 1 2.944 -0.499 -7.280 
45 1 2.706 8.270 -1.668 
46 1 -5.360 -8.155 6.012 
47 1 -7.400 -5.676 4.831 
48 1 3.319 -6.483 -0.829 
49 1 3.603 -1.563 6.431 
50 1 2.199 6.274 -6.196 
51 1 -3.446 5.787 3.045 
52 1 2.488 3.830 6.264 
53 1 5.882 -5.937 -6.252 
54 1 5.984 8.121 -0.894 
55 1 3.890 -3.019 -8.897 
56 1 -5.688 -0.928 8.042 
57 1 5.638 5.455 1.885 
58 1 7.522 -0.563 -4.077 
59 1 3.325 -6.812 -7.666 
60 1 -1.743 0.796 -0.045 
61 1 7.707 5.218 -0.888 
62 1 -7.042 -0.956 -6.219 
63 1 5.750 8.133 3.830 
64 1 -5.188 -6.316 1.568 
65 1 -5.679 4.134 7.430 
66 1 -7.760 -6.853 -3.241 
67 1 6.246 -0.191 5.401 
68 1 6.180 2.081 -2.418 
69 1 1.290 -5.117 8.857 
70 1 -5.822 6.670 5.542 
71 1 7.652 -1.323 1.529 
72 1 5.867 -7.725 1.361 
73 1 -7.273 -8.385 0.372 
74 1 -5.481 1.348 -7.638 
75 1 0.769 -4.736 -0.037 
76 1 6.501 -8.252 -8.904 
77 1 -2.560 -4.601 0.663 
78 1 3.532 -5.703 -4.195 
79 1 4.951 -5.799 7.735 
80 1 8.470 -2.819 4.654 
81 1 -0.116 -2.108 -6.984 
82 1 -6.640 6.672 2.293 
83 1 -2.476 -8.315 -3.693 
84 1 -3.866 -0.247 5.520 
85 1 8.632 7.110 -7.723 
86 1 -2.747 -5.561 -5.385 
87 1 -3.930 7.578 -5.755 
88 1 0.866 2.638 -2.587 
89 1 -1.935 -2.691 -4.558 
90 1 3.881 3.310 -4.073 
91 1 8.314 -6.599 -0.519 
92 1 1.013 -8.694 3.259 
93 1 -4.332 3.199 -5.289 
94 1 7.714 3.189 -5.213 
95 1 0.355 -7.801 0.214 
96 1 -8.449 3.310 -2.372 
97 1 -6.420 3.912 3.572 
98 1 -6.896 1.427 -4.114 
99 1 -5.585 8.550 -2.531 
100 1 3.795 -0.407 -3.779 
101 1 0.028 5.413 3.836 
102 1 -8.003 -3.758 2.042 
103 1 -8.816 -4.041 -4.639 
104 1 -6.003 5.810 -7.491 
105 1 -4.732 -5.910 8.693 
106 1 5.884 -3.509 -3.498 
107 1 -0.194 -2.214 1.397 
108 1 6.306 6.797 7.915 
109 1 -5.037 4.079 -0.559 
110 1 -0.720 3.444 7.187 
111 1 -1.050 -3.816 6.837 
112 1 7.773 -8.790 6.381 
113 1 8.532 0.762 -6.956 
114 1 6.361 2.795 6.987 
115 1 -6.913 -4.394 -7.300 
116 1 3.303 -3.267 -1.107 
117 1 5.398 -2.891 3.990 
118 1 -4.761 -2.699 -1.218 
119 1 7.557 -4.852 -8.605 
120 1 -1.987 -3.012 3.738 
121 1 4.219 4.212 -8.867 
122 1 -6.311 5.681 -4.306 
123 1 -4.330 7.106 0.259 
124 1 3.120 1.079 5.051 
125 1 3.259 -3.097 -5.818 
126 1 -7.594 -3.616 7.235 
127 1 -3.171 2.847 5.119 
128 1 8.740 8.516 -2.123 
129 1 -0.918 7.397 -8.682 
130 1 6.481 -2.444 -6.622 
131 1 -1.615 0.194 3.086 
132 1 -7.901 -8.783 4.212 
133 1 5.289 1.643 -6.887 
134 1 -8.082 -6.517 8.323 
135 1 5.700 -4.160 0.983 
136 1 -0.605 0.416 6.426 
137 1 0.543 2.752 0.793 
138 1 -0.617 8.027 -1.946 
139 1 -2.909 -8.125 -7.559 
140 1 0.447 6.817 6.513 
141 1 -4.503 -0.693 -4.097 
142 1 -8.911 0.589 3.316 
143 1 -4.914 -6.276 -2.146 
144 1 -1.911 8.812 5.031 
145 1 8.903 3.500 5.246 
146 1 -5.307 -3.911 -4.331 
147 1 -7.457 -1.684 -3.062 
148 1 0.460 2.573 4.114 
149 1 -4.158 -2.612 -6.978 
150 1 -3.292 -6.048 5.573 
151 1 3.499 1.816 -0.572 
152 1 -7.477 2.554 0.976 
153 1 0.907 -1.765 4.856 
154 1 1.441 -8.352 8.773 
155 1 -2.890 4.569 -8.172 
156 1 1.214 5.706 -3.024 
157 1 7.653 4.075 -8.194 
158 1 -2.449 -1.729 8.600 
159 1 -7.496 3.507 -6.361 
160 1 -4.458 -3.310 6.702 
161 1 -6.201 -8.816 -7.746 
162 1 5.460 -6.458 4.325 
163 1 1.089 -3.174 -3.381 
164 1 5.625 5.128 5.343 
165 1 -3.260 6.233 -2.860 
166 1 -1.877 -4.713 -8.242 
167 1 -2.636 3.164 1.633 
168 1 -1.085 5.090 -0.593 
169 1 -3.761 -1.575 1.566 
170 1 8.885 4.590 2.212 
171 1 1.293 -0.751 -1.512 
172 1 2.863 6.649 4.258 
173 1 -2.758 3.010 -2.437 
174 1 -8.920 -1.949 -8.583 
175 1 6.363 -2.817 7.178 
176 1 3.110 1.428 8.292 
177 1 7.077 8.551 -5.407 
178 1 1.710 0.174 1.946 
179 1 -4.386 -8.809 3.197 
180 1 -1.702 -2.506 -1.237 
181 1 7.864 -5.418 6.257 
182 1 -5.088 -3.908 3.571 
183 1 4.806 0.079 2.293 
184 1 -0.996 6.205 -5.435 
185 1 -8.891 0.418 -1.131 
186 1 0.218 -8.896 -5.601 
187 1 -1.477 -7.478 7.871 
188 1 6.272 2.551 3.836 
189 1 8.603 6.633 4.999 
190 1 2.858 -6.437 2.305 
191 1 -1.031 7.609 1.533 
192 1 -2.607 0.079 -6.454 
193 1 -5.268 -7.432 -5.132 
194 1 4.868 6.435 -3.348 
195 1 -8.959 -0.384 6.696 
196 1 -4.144 7.687 8.451 
197 1 -2.979 1.524 8.328 
198 1 -0.012 1.056 -8.571 
199 1 5.301 -0.837 -0.809 
200 1 6.337 -7.221 -2.924 
ITEM: TIMESTEP
19000
ITEM: NUMBER OF ATOMS
200
ITEM: BOX BOUNDS pp pp pp
-9.045920656144343 9.045920656144343
-9.045920656144343 9.045920656144343
-9.045920656144343 9.045920656144343
ITEM: ATOMS id type x y z
1 1 2.760 3.598 2.868 
2 1 4.035 4.941 -1.036 
3 1 2.210 2.723 -6.615 
4 1 -2.876 5.956 6.218 
5 1 -7.123 -1.407 0.865 
6 1 3.868 -8.453 6.125 
7 1 2.759 -2.994 2.082 
8 1 3.071 6.827 7.858 
9 1 3.348 8.329 1.620 
10 1 -7.197 6.447 -1.047 
11 1 0.284 -4.891 3.502 
12 1 8.566 7.826 1.285 
13 1 -7.450 -4.396 -1.381 
14 1 8.468 -6.534 3.105 
15 1 5.940 -0.181 8.887 
16 1 3.763 -8.639 -4.391 
17 1 -2.857 -8.207 -0.481 
18 1 0.951 -7.078 -2.714 
19 1 -4.917 0.980 2.753 
20 1 -1.604 0.106 -3.186 
21 1 0.864 -1.889 8.332 
22 1 0.680 -5.350 -5.992 
23 1 6.041 5.441 -6.250 
24 1 8.486 5.887 -4.128 
25 1 -7.842 8.362 7.276 
26 1 4.144 8.189 -7.488 
27 1 6.846 2.048 0.779 
28 1 -7.963 8.190 -4.724 
29 1 -0.697 3.250 -5.245 
30 1 -6.692 -1.410 4.507 
31 1 -5.084 0.426 -1.177 
32 1 1.577 6.051 0.880 
33 1 1.000 0.367 -4.749 
34 1 -8.458 5.317 7.672 
35 1 0.623 -6.841 5.905 
36 1 -8.092 2.269 8.676 
37 1 2.736 -4.655 5.579 
38 1 -1.704 -7.099 2.682 
39 1 -6.389 1.676 5.789 
40 1 0.764 4.964 -8.611 
41 1 -1.680 -5.322 -2.309 
42 1 -8.867 -7.337 -6.727 
43 1 7.835 -3.056 -1.042 
44 1 2.858 -0.526 -7.403 
45 1 2.706 8.270 -1.668 
46 1 -5.097 -8.140 6.527 
47 1 -7.136 -6.092 5.111 
48 1 3.513 -6.572 -0.659 
49 1 3.611 -1.512 6.566 
50 1 2.405 6.057 -5.831 
51 1 -3.291 5.896 3.180 
52 1 2.604 4.075 6.255 
53 1 5.918 -6.125 -6.036 
54 1 5.610 8.069 -0.588 
55 1 3.985 -3.252 -8.968 
56 1 -5.780 -0.704 8.388 
57 1 5.332 5.889 1.718 
58 1 7.955 -0.954 -4.152 
59 1 3.292 -6.874 -7.653 
60 1 -1.844 0.609 0.095 
61 1 7.280 5.230 -1.156 
62 1 -7.042 -0.956 -6.219 
63 1 6.301 8.073 3.677 
64 1 -5.421 -6.406 1.868 
65 1 -5.382 4.262 7.293 
66 1 -8.045 -6.776 -3.475 
67 1 6.398 0.163 5.037 
68 1 6.489 1.897 -2.465 
69 1 1.221 -5.127 8.918 
70 1 -5.736 6.732 5.256 
71 1 7.703 -1.245 1.718 
72 1 6.053 -7.612 1.172 
73 1 -7.239 -8.521 0.363 
74 1 -5.479 1.352 -6.983 
75 1 0.801 -4.594 -0.316 
76 1 6.507 -8.272 -8.670 
77 1 -2.620 -4.596 1.058 
78 1 3.247 -5.481 -3.995 
79 1 4.952 -5.955 8.102 
80 1 8.470 -2.819 4.654 
81 1 0.026 -2.030 -6.952 
82 1 -6.398 6.761 2.224 
83 1 -2.476 -8.315 -3.693 
84 1 -3.844 -0.275 5.659 
85 1 -9.035 7.285 -7.695 
86 1 -2.747 -5.561 -5.385 
87 1 -4.301 7.687 -5.616 
88 1 0.658 2.304 -2.423 
89 1 -2.019 -2.725 -4.348 
90 1 4.241 3.213 -3.909 
91 1 8.453 -6.346 -0.424 
92 1 1.076 -8.794 3.445 
93 1 -3.927 3.582 -5.306 
94 1 7.714 3.189 -5.213 
95 1 0.517 -8.105 0.284 
96 1 -8.491 3.436 -2.416 
97 1 -6.235 3.976 3.532 
98 1 -6.761 1.309 -4.075 
99 1 -5.297 8.776 -2.596 
100 1 4.154 -0.258 -4.403 
101 1 -0.260 5.390 3.669 
102 1 -8.102 -4.086 1.782 
103 1 -8.831 -3.760 -5.194 
104 1 -5.747 5.509 -7.761 
105 1 -4.692 -6.146 -9.014 
106 1 5.992 -3.582 -3.445 
107 1 -0.510 -2.117 1.672 
108 1 6.182 6.623 8.498 
109 1 -4.990 4.074 -0.226 
110 1 -0.699 3.850 6.849 
111 1 -0.971 -4.294 6.710 
112 1 7.530 -8.909 6.412 
113 1 8.511 0.750 -6.875 
114 1 6.393 2.887 7.240 
115 1 -7.146 -4.555 -7.950 
116 1 3.607 -3.249 -1.523 
117 1 5.507 -3.201 4.135 
118 1 -4.929 -2.693 -1.331 
119 1 7.653 -5.013 -8.376 
120 1 -2.077 -2.844 4.162 
121 1 4.113 4.353 -8.874 
122 1 -6.128 5.570 -4.190 
123 1 -4.027 7.134 0.146 
124 1 3.461 1.212 5.020 
125 1 3.454 -3.067 -5.741 
126 1 -7.548 -3.530 7.076 
127 1 -3.285 2.922 4.944 
128 1 8.323 8.541 -2.089 
129 1 -1.031 7.592 -8.459 
130 1 6.477 -2.323 -6.485 
131 1 -1.721 0.148 3.323 
132 1 -7.840 8.947 3.791 
133 1 5.125 1.893 -7.059 
134 1 -8.181 -6.914 8.237 
135 1 6.001 -4.221 1.234 
136 1 -0.598 0.674 6.478 
137 1 0.470 2.783 0.549 
138 1 -0.370 8.109 -2.190 
139 1 -2.271 -8.141 -7.121 
140 1 0.205 7.005 6.610 
141 1 -4.413 -0.813 -4.065 
142 1 -8.654 0.680 3.323 
143 1 -4.777 -6.226 -1.746 
144 1 -1.671 8.802 4.966 
145 1 9.014 3.425 5.238 
146 1 -5.782 -3.979 -4.246 
147 1 -7.457 -1.684 -3.062 
148 1 0.290 2.529 4.046 
149 1 -4.341 -2.545 -6.847 
150 1 -3.244 -6.096 5.225 
151 1 3.829 1.747 -0.429 
152 1 -7.463 2.437 0.903 
153 1 0.777 -1.868 4.772 
154 1 1.431 -8.638 8.783 
155 1 -2.671 4.694 -8.249 
156 1 1.431 5.555 -2.731 
157 1 7.911 3.885 -8.139 
158 1 -2.449 -1.729 8.600 
159 1 -7.552 3.407 -6.297 
160 1 -4.343 -3.684 6.964 
161 1 -6.244 -8.675 -7.979 
162 1 5.630 -6.551 4.202 
163 1 0.966 -3.053 -3.648 
164 1 5.462 5.523 5.412 
165 1 -3.121 6.315 -2.811 
166 1 -1.572 -4.906 -8.168 
167 1 -2.505 3.081 1.839 
168 1 -1.216 5.144 -0.560 
169 1 -3.856 -1.657 1.379 
170 1 8.842 4.553 2.055 
171 1 1.063 -0.741 -0.954 
172 1 2.609 6.624 4.306 
173 1 -2.758 3.010 -2.437 
174 1 8.933 -1.825 -8.635 
175 1 6.363 -2.817 7.178 
176 1 3.174 1.468 8.216 
177 1 6.791 8.706 -5.723 
178 1 1.687 0.215 1.997 
179 1 -4.146 8.877 3.392 
180 1 -1.702 -2.506 -1.237 
181 1 7.999 -5.551 6.101 
182 1 -5.088 -3.908 3.571 
183 1 4.843 0.103 2.216 
184 1 -0.982 6.341 -5.574 
185 1 -8.806 0.614 -1.418 
186 1 0.500 -8.711 -5.472 
187 1 -1.572 -7.336 8.018 
188 1 6.024 2.904 3.885 
189 1 8.762 6.432 5.051 
190 1 2.804 -6.475 2.503 
191 1 -1.469 7.934 1.580 
192 1 -2.444 0.741 -6.642 
193 1 -5.268 -7.432 -5.132 
194 1 4.767 6.545 -3.524 
195 1 -8.960 -0.262 6.901 
196 1 -4.144 7.687 8.451 
197 1 -3.207 1.545 8.485 
198 1 -0.012 1.056 -8.571 
199 1 5.639 -0.844 -0.687 
200 1 6.114 -7.115 -2.897 
ITEM: TIMESTEP
20000
ITEM: NUMBER OF ATOMS
200
ITEM: BOX BOUNDS pp pp pp
-9.045920656144343 9.045920656144343
-9.045920656144343 9.045920656144343
-9.045920656144343 9.045920656144343
ITEM: ATOMS id type x y z
1 1 3.062 3.932 3.275 
2 1 3.803 4.928 -0.704 
3 1 2.287 2.567 -6.546 
4 1 -2.705 5.729 6.131 
5 1 -7.020 -1.035 1.005 
6 1 3.495 -8.610 5.477 
7 1 2.693 -2.825 2.368 
8 1 3.068 6.894 7.759 
9 1 3.483 8.441 1.757 
10 1 -7.159 6.533 -1.250 
11 1 -0.018 -4.965 3.307 
12 1 8.628 7.978 1.412 
13 1 -7.429 -4.361 -1.351 
14 1 8.462 -6.665 3.239 
15 1 5.601 -0.370 8.905 
16 1 3.828 -8.551 -4.472 
17 1 -2.725 -7.931 -0.330 
18 1 0.719 -7.104 -2.864 
19 1 -4.979 0.825 2.753 
20 1 -1.434 0.000 -3.029 
21 1 0.955 -1.503 8.099 
22 1 0.817 -5.469 -5.843 
23 1 6.117 5.626 -6.305 
24 1 8.721 5.850 -4.241 
25 1 -7.936 8.285 7.241 
26 1 4.204 8.223 -7.611 
27 1 7.336 2.298 0.802 
28 1 -7.777 8.324 -4.969 
29 1 -0.715 3.121 -5.350 
30 1 -6.501 -1.426 4.644 
31 1 -4.670 0.477 -0.780 
32 1 1.508 6.471 0.770 
33 1 0.886 0.364 -5.091 
34 1 -8.044 5.204 7.921 
35 1 0.592 -7.140 6.005 
36 1 -7.445 2.128 8.741 
37 1 2.696 -4.910 5.742 
38 1 -2.033 -7.294 2.638 
39 1 -6.268 1.653 5.820 
40 1 0.635 4.531 -8.484 
41 1 -1.742 -5.295 -2.067 
42 1 -8.589 -7.496 -6.549 
43 1 7.874 -2.729 -1.047 
44 1 2.863 -0.660 -7.496 
45 1 2.746 8.667 -1.685 
46 1 -5.045 -8.134 6.588 
47 1 -6.889 -6.035 4.772 
48 1 3.647 -6.568 -0.547 
49 1 3.517 -1.627 6.443 
50 1 2.171 6.038 -6.202 
51 1 -3.832 5.472 2.961 
52 1 2.239 4.084 6.403 
53 1 6.188 -6.200 -5.341 
54 1 5.717 8.086 -0.895 
55 1 3.618 -3.311 -8.913 
56 1 -6.122 -0.702 8.903 
57 1 5.823 5.384 1.625 
58 1 7.749 -0.816 -4.363 
59 1 3.956 -6.673 -7.391 
60 1 -1.844 0.609 0.095 
61 1 7.712 5.548 -1.110 
62 1 -7.096 -1.250 -6.204 
63 1 6.090 7.964 3.664 
64 1 -5.280 -6.445 1.588 
65 1 -5.046 4.406 7.788 
66 1 -8.589 -6.607 -3.509 
67 1 6.195 0.025 5.419 
68 1 6.851 2.118 -2.358 
69 1 1.266 -5.403 8.849 
70 1 -5.672 6.506 5.508 
71 1 7.450 -1.151 1.774 
72 1 6.303 -7.832 1.333 
73 1 -7.066 -8.476 -0.044 
74 1 -5.361 1.791 -7.084 
75 1 0.892 -4.740 -0.195 
76 1 6.765 -8.259 -8.520 
77 1 -2.554 -4.770 1.144 
78 1 3.477 -5.495 -3.566 
79 1 4.682 -6.552 7.648 
80 1 8.558 -2.761 4.701 
81 1 0.323 -2.408 -6.933 
82 1 -6.677 6.654 2.213 
83 1 -2.310 -8.139 -3.922 
84 1 -3.954 -0.272 6.051 
85 1 -8.981 7.698 -7.910 
86 1 -2.957 -5.531 -5.523 
87 1 -4.490 8.112 -5.802 
88 1 0.975 2.518 -2.673 
89 1 -2.016 -2.758 -4.351 
90 1 3.967 3.278 -3.692 
91 1 8.458 -6.257 -0.355 
92 1 0.766 -8.746 3.292 
93 1 -3.869 3.438 -5.161 
94 1 7.460 3.047 -5.156 
95 1 0.477 -7.836 0.067 
96 1 -8.342 3.428 -2.422 
97 1 -6.286 3.788 3.517 
98 1 -6.714 1.274 -3.976 
99 1 -5.325 8.804 -2.797 
100 1 3.788 -0.508 -3.772 
101 1 -0.410 5.476 3.736 
102 1 -8.126 -4.007 1.781 
103 1 9.042 -3.747 -5.117 
104 1 -6.059 5.747 -7.400 
105 1 -5.006 -5.894 8.934 
106 1 6.157 -3.665 -3.629 
107 1 -0.468 -2.328 1.776 
108 1 6.250 6.608 8.386 
109 1 -5.001 3.779 -0.479 
110 1 -1.126 3.401 7.281 
111 1 -0.984 -4.047 6.996 
112 1 6.933 -8.972 6.454 
113 1 8.537 0.541 -7.625 
114 1 6.210 2.634 7.010 
115 1 -7.434 -4.775 -7.498 
116 1 3.470 -3.116 -1.143 
117 1 5.195 -3.412 4.068 
118 1 -4.789 -3.079 -1.119 
119 1 7.379 -5.041 -8.163 
120 1 -2.366 -2.736 4.533 
121 1 4.038 4.340 -8.776 
122 1 -6.097 5.304 -4.348 
123 1 -4.024 7.571 0.032 
124 1 3.065 1.142 5.057 
125 1 3.454 -3.067 -5.741 
126 1 -7.434 -3.733 7.170 
127 1 -3.088 2.717 5.037 
128 1 8.563 8.649 -1.899 
129 1 -0.972 7.624 -8.388 
130 1 6.184 -2.273 -6.743 
131 1 -1.746 0.158 3.313 
132 1 -7.791 -8.931 4.193 
133 1 5.149 1.300 -6.145 
134 1 -8.077 -6.760 8.081 
135 1 5.917 -4.655 1.140 
136 1 -0.697 0.490 6.404 
137 1 0.813 2.771 0.618 
138 1 -0.466 7.799 -2.143 
139 1 -2.645 -7.943 -7.284 
140 1 0.300 6.923 6.645 
141 1 -4.488 -0.773 -3.750 
142 1 -8.772 0.880 3.759 
143 1 -4.923 -6.165 -1.589 
144 1 -1.789 8.666 5.332 
145 1 9.007 3.442 5.223 
146 1 -5.586 -3.849 -4.092 
147 1 -7.479 -1.740 -2.917 
148 1 0.423 2.574 3.987 
149 1 -4.462 -2.861 -7.191 
150 1 -3.357 -5.907 5.222 
151 1 3.640 1.687 -0.952 
152 1 -7.461 2.198 0.880 
153 1 0.799 -1.881 4.672 
154 1 1.626 -8.442 -8.918 
155 1 -2.637 4.656 -7.937 
156 1 1.701 5.756 -2.910 
157 1 7.698 3.632 -8.440 
158 1 -2.091 -1.308 8.908 
159 1 -7.641 3.580 -6.357 
160 1 -4.093 -3.187 7.173 
161 1 -6.357 -8.610 -8.123 
162 1 5.489 -6.581 4.144 
163 1 1.170 -3.200 -3.524 
164 1 5.075 5.475 5.780 
165 1 -3.522 5.865 -2.673 
166 1 -1.772 -4.717 -8.233 
167 1 -2.505 3.081 1.839 
168 1 -1.324 5.119 -0.383 
169 1 -3.597 -1.672 1.367 
170 1 9.003 4.957 1.901 
171 1 1.477 -0.470 -1.382 
172 1 2.629 6.756 4.262 
173 1 -2.375 2.809 -2.324 
174 1 9.041 -2.261 -8.608 
175 1 6.683 -2.885 7.459 
176 1 2.941 1.488 8.119 
177 1 6.927 8.715 -5.315 
178 1 1.696 0.287 2.283 
179 1 -4.776 -8.987 3.158 
180 1 -1.390 -2.527 -1.103 
181 1 7.671 -5.656 6.310 
182 1 -5.033 -3.939 3.434 
183 1 4.672 -0.003 2.186 
184 1 -1.187 6.641 -5.193 
185 1 -8.827 0.449 -1.210 
186 1 0.925 -8.775 -5.814 
187 1 -1.879 -7.545 7.837 
188 1 6.470 2.787 3.805 
189 1 8.400 6.538 4.886 
190 1 3.046 -6.312 2.675 
191 1 -1.311 7.682 1.775 
192 1 -2.475 0.186 -6.423 
193 1 -5.690 -6.752 -4.967 
194 1 4.943 6.547 -3.741 
195 1 -8.807 -0.198 6.878 
196 1 -4.019 7.504 8.463 
197 1 -3.207 1.545 8.485 
198 1 0.131 1.230 -8.519 
199 1 5.518 -0.785 -0.775 
200 1 5.893 -7.392 -2.619 
