ITEM: TIMESTEP
0
ITEM: NUMBER OF ATOMS
200
ITEM: BOX BOUNDS pp pp pp
-9.045920656144343 9.045920656144343
-9.045920656144343 9.045920656144343
-9.045920656144343 9.045920656144343
ITEM: ATOMS id type x y z
1 1 2.518 2.379 1.860 
2 1 2.727 7.456 0.840 
3 1 1.977 1.069 -6.852 
4 1 -1.341 4.327 4.921 
5 1 -6.274 -2.058 2.344 
6 1 2.220 8.057 5.648 
7 1 2.788 -2.002 3.310 
8 1 1.176 6.872 7.211 
9 1 2.835 7.833 2.446 
10 1 -4.526 4.564 -1.094 
11 1 -0.668 -6.997 2.965 
12 1 6.904 7.868 4.710 
13 1 -4.921 -4.034 -1.265 
14 1 -8.859 -5.387 4.042 
15 1 4.361 1.027 7.195 
16 1 -0.133 8.612 -5.901 
17 1 -1.971 -6.375 0.730 
18 1 -0.051 -6.771 -2.962 
19 1 -4.206 1.228 3.518 
20 1 -0.786 0.668 -2.781 
21 1 0.495 -2.632 -8.222 
22 1 -1.221 -4.957 -5.624 
23 1 5.688 5.666 -6.106 
24 1 7.892 6.121 -4.632 
25 1 -6.079 6.653 6.533 
26 1 3.726 -7.307 -8.135 
27 1 -8.866 0.973 2.457 
28 1 -7.607 6.839 -4.530 
29 1 -0.321 3.240 -3.484 
30 1 -5.978 -2.383 4.272 
31 1 -4.795 1.274 2.569 
32 1 0.280 7.040 3.765 
33 1 0.329 -0.553 -5.888 
34 1 -7.871 4.560 7.217 
35 1 -2.288 -7.024 4.686 
36 1 -7.026 1.355 7.439 
37 1 2.510 -5.091 8.500 
38 1 -1.872 -6.557 2.193 
39 1 -4.959 2.861 4.423 
40 1 0.053 2.649 -7.786 
41 1 -0.681 -4.821 -2.437 
42 1 8.931 -8.870 -6.266 
43 1 -8.928 -1.867 1.420 
44 1 1.524 -1.194 -6.081 
45 1 3.279 -8.484 -2.514 
46 1 -3.941 8.696 4.831 
47 1 -6.089 -5.214 4.905 
48 1 1.661 -8.584 1.794 
49 1 3.404 0.783 6.424 
50 1 3.047 5.768 -6.564 
51 1 -3.811 6.485 3.357 
52 1 1.432 4.060 6.017 
53 1 3.847 -7.006 -5.816 
54 1 6.828 7.694 0.765 
55 1 2.374 -2.869 -7.108 
56 1 -6.141 0.602 8.132 
57 1 3.620 5.767 3.974 
58 1 8.578 -1.471 -5.257 
59 1 3.275 -6.630 -6.810 
60 1 -0.073 1.496 -0.508 
61 1 7.860 6.912 2.356 
62 1 -6.904 -3.617 -6.712 
63 1 3.665 8.548 5.411 
64 1 -5.206 -6.214 1.775 
65 1 -4.572 3.814 5.639 
66 1 -5.670 7.761 -2.330 
67 1 6.965 1.657 3.413 
68 1 7.551 2.735 -4.004 
69 1 1.172 -4.509 -8.968 
70 1 -4.181 6.274 4.318 
71 1 8.896 0.746 2.436 
72 1 5.756 -8.026 1.336 
73 1 -5.288 -8.671 0.910 
74 1 -6.031 0.611 -7.780 
75 1 0.386 -6.466 0.467 
76 1 5.964 8.398 8.057 
77 1 -2.258 -4.918 0.873 
78 1 1.710 -5.866 -6.411 
79 1 3.374 -6.403 -8.848 
80 1 -8.743 -1.518 2.821 
81 1 -1.089 -3.036 -5.766 
82 1 -4.176 7.960 3.920 
83 1 -2.942 -7.248 -2.122 
84 1 -3.538 0.848 5.370 
85 1 -8.493 6.244 -7.707 
86 1 -1.964 -5.849 -4.201 
87 1 -3.134 6.066 -5.209 
88 1 -0.232 2.148 -2.912 
89 1 -1.771 -1.575 -3.634 
90 1 2.581 2.280 -1.222 
91 1 8.030 -6.589 1.610 
92 1 0.044 8.001 3.668 
93 1 -4.961 2.568 -4.954 
94 1 7.449 3.505 -4.525 
95 1 0.595 8.492 2.879 
96 1 -5.735 3.484 -2.588 
97 1 -2.640 3.181 4.601 
98 1 -7.656 1.685 -4.993 
99 1 -3.515 6.273 -1.607 
100 1 2.097 -1.270 -3.222 
101 1 -0.401 7.291 3.838 
102 1 -6.382 -5.127 1.982 
103 1 8.994 -2.649 -5.310 
104 1 -5.670 6.384 -7.447 
105 1 -3.518 -7.325 5.844 
106 1 4.474 -3.698 -6.831 
107 1 -0.405 -1.347 0.762 
108 1 5.102 6.854 -7.670 
109 1 -4.653 5.171 2.891 
110 1 -0.907 3.040 6.193 
111 1 0.857 -2.660 6.395 
112 1 5.642 8.455 5.856 
113 1 -7.864 2.591 -7.011 
114 1 5.219 3.288 5.509 
115 1 -5.440 -5.691 -7.470 
116 1 0.464 -1.815 -0.619 
117 1 5.867 -2.564 2.808 
118 1 -4.727 -2.466 -1.830 
119 1 6.465 -6.679 -6.642 
120 1 -2.381 -1.349 5.257 
121 1 3.081 1.912 -8.694 
122 1 -4.633 5.746 -3.466 
123 1 -3.433 6.637 1.902 
124 1 2.419 1.849 3.747 
125 1 0.475 -1.817 -5.840 
126 1 -6.164 -4.763 5.102 
127 1 -2.831 1.507 5.071 
128 1 8.385 7.532 -2.572 
129 1 0.414 6.965 8.514 
130 1 6.328 -2.337 -6.628 
131 1 -2.911 0.095 2.652 
132 1 -6.550 6.880 4.182 
133 1 4.836 -1.138 -6.387 
134 1 7.880 -8.815 7.625 
135 1 7.499 -3.167 2.835 
136 1 -1.751 -1.170 6.582 
137 1 0.762 3.582 0.859 
138 1 -0.764 8.195 -1.867 
139 1 -3.265 -6.965 -7.067 
140 1 -1.406 8.795 6.036 
141 1 -3.603 0.140 -3.154 
142 1 -6.277 0.824 4.059 
143 1 -3.518 -4.143 -1.747 
144 1 -1.779 8.752 5.530 
145 1 -4.666 5.269 3.821 
146 1 -4.114 -2.652 -5.025 
147 1 -7.883 -2.968 -3.940 
148 1 0.098 4.825 4.232 
149 1 -3.953 -2.138 -7.377 
150 1 -2.559 -6.801 3.816 
151 1 3.473 1.178 -0.254 
152 1 -4.927 2.063 3.416 
153 1 1.738 -1.616 5.115 
154 1 -2.288 -7.411 -8.923 
155 1 -3.085 5.048 8.505 
156 1 -0.610 4.478 -0.805 
157 1 7.412 5.654 -8.573 
158 1 -2.029 -1.674 7.612 
159 1 -7.940 4.770 -6.905 
160 1 -4.896 -2.389 6.937 
161 1 -3.738 -7.650 -8.955 
162 1 2.999 -5.962 3.507 
163 1 -0.396 -3.778 -4.059 
164 1 3.311 7.625 5.600 
165 1 -3.337 6.380 -4.019 
166 1 -3.303 -2.880 -7.078 
167 1 -2.172 2.265 2.560 
168 1 -0.477 4.322 0.110 
169 1 -3.048 -0.183 2.407 
170 1 -4.506 5.870 3.331 
171 1 2.391 0.910 -0.901 
172 1 2.231 6.603 3.941 
173 1 -1.925 4.811 -0.639 
174 1 -8.876 -2.687 -7.928 
175 1 6.446 -2.385 7.335 
176 1 2.798 1.355 7.971 
177 1 6.932 8.230 -6.068 
178 1 2.081 1.740 2.988 
179 1 -3.828 -8.214 4.611 
180 1 -2.421 -3.615 -1.813 
181 1 6.791 -7.041 5.648 
182 1 -4.435 -3.151 2.383 
183 1 3.253 1.778 2.169 
184 1 -1.676 5.685 -5.361 
185 1 7.739 0.147 -0.273 
186 1 -0.937 8.255 -5.060 
187 1 -2.448 -8.078 7.648 
188 1 4.725 3.929 4.035 
189 1 7.294 5.693 5.882 
190 1 2.625 -7.000 3.420 
191 1 -1.876 -8.577 2.734 
192 1 -3.416 -2.716 -6.607 
193 1 -4.846 -6.843 -6.605 
194 1 3.020 6.823 -2.800 
195 1 -7.707 1.165 5.427 
196 1 -3.260 5.502 7.759 
197 1 -3.076 1.210 6.764 
198 1 -0.917 0.562 8.458 
199 1 5.904 0.214 0.276 
200 1 3.889 -7.511 -4.667 
ITEM: TIMESTEP
10
ITEM: NUMBER OF ATOMS
200
ITEM: BOX BOUNDS pp pp pp
-9.045920656144343 9.045920656144343
-9.045920656144343 9.045920656144343
-9.045920656144343 9.045920656144343
ITEM: ATOMS id type x y z
1 1 2.356 2.679 1.624 
2 1 2.725 7.451 0.819 
3 1 1.977 1.069 -6.852 
4 1 -1.351 4.331 4.928 
5 1 -6.275 -2.058 2.342 
6 1 2.012 8.160 5.654 
7 1 2.789 -2.002 3.309 
8 1 1.206 6.868 7.159 
9 1 2.838 7.839 2.466 
10 1 -4.526 4.563 -1.093 
11 1 -0.607 -7.018 3.002 
12 1 6.909 7.866 4.705 
13 1 -5.055 -4.035 -1.211 
14 1 -8.859 -5.387 4.042 
15 1 4.526 1.067 7.320 
16 1 0.015 8.677 -6.056 
17 1 -1.963 -6.435 0.638 
18 1 -0.050 -6.772 -2.962 
19 1 -3.970 1.057 3.723 
20 1 -0.811 0.606 -2.777 
21 1 0.495 -2.631 -8.222 
22 1 -1.219 -4.958 -5.629 
23 1 5.688 5.666 -6.104 
24 1 7.892 6.121 -4.632 
25 1 -6.079 6.653 6.533 
26 1 3.818 -7.517 -8.048 
27 1 -8.347 1.332 2.492 
28 1 -7.607 6.839 -4.530 
29 1 -0.337 3.436 -3.587 
30 1 -5.977 -2.383 4.274 
31 1 -4.863 1.083 2.192 
32 1 0.668 6.764 3.721 
33 1 0.237 -0.357 -5.882 
34 1 -7.871 4.560 7.217 
35 1 -2.157 -7.104 5.009 
36 1 -7.128 1.441 7.360 
37 1 2.526 -5.084 8.474 
38 1 -1.909 -6.541 2.208 
39 1 -4.972 2.984 4.611 
40 1 0.053 2.649 -7.786 
41 1 -0.681 -4.822 -2.434 
42 1 8.932 -8.870 -6.266 
43 1 -8.939 -1.888 1.333 
44 1 1.749 -1.143 -6.127 
45 1 3.279 -8.484 -2.514 
46 1 -3.910 8.591 5.125 
47 1 -6.001 -5.742 4.674 
48 1 1.688 -8.557 1.767 
49 1 3.248 0.740 6.289 
50 1 3.047 5.768 -6.564 
51 1 -3.243 6.722 3.332 
52 1 1.432 4.060 6.017 
53 1 4.018 -6.976 -5.841 
54 1 6.827 7.694 0.764 
55 1 2.374 -2.869 -7.108 
56 1 -6.040 0.515 8.211 
57 1 3.644 5.753 3.974 
58 1 8.508 -1.273 -5.248 
59 1 3.091 -6.495 -7.039 
60 1 -0.073 1.496 -0.507 
61 1 7.861 6.911 2.357 
62 1 -6.904 -3.617 -6.712 
63 1 3.770 8.843 5.351 
64 1 -5.185 -6.233 1.771 
65 1 -4.548 3.866 5.710 
66 1 -5.670 7.761 -2.330 
67 1 6.965 1.658 3.414 
68 1 7.590 2.436 -3.802 
69 1 1.142 -4.496 -8.954 
70 1 -4.149 6.346 4.709 
71 1 8.378 0.389 2.401 
72 1 5.756 -8.026 1.336 
73 1 -5.288 -8.671 0.910 
74 1 -6.030 0.611 -7.780 
75 1 0.386 -6.466 0.467 
76 1 5.963 8.397 8.058 
77 1 -2.272 -4.849 0.880 
78 1 1.700 -5.861 -6.408 
79 1 3.320 -6.248 -8.976 
80 1 -8.732 -1.497 2.907 
81 1 -1.093 -3.035 -5.768 
82 1 -4.274 7.882 3.718 
83 1 -2.942 -7.248 -2.122 
84 1 -3.783 0.620 5.428 
85 1 -8.496 6.252 -7.711 
86 1 -1.966 -5.852 -4.197 
87 1 -3.171 6.028 -5.413 
88 1 -0.192 2.013 -2.813 
89 1 -1.771 -1.575 -3.634 
90 1 2.593 2.381 -1.248 
91 1 8.030 -6.589 1.610 
92 1 0.062 8.378 3.945 
93 1 -4.961 2.568 -4.954 
94 1 7.410 3.804 -4.728 
95 1 0.769 8.605 2.573 
96 1 -5.735 3.484 -2.588 
97 1 -2.646 3.208 4.590 
98 1 -7.656 1.684 -4.993 
99 1 -3.514 6.274 -1.607 
100 1 2.097 -1.270 -3.222 
101 1 -1.027 7.053 3.934 
102 1 -6.403 -5.107 1.986 
103 1 -9.032 -2.846 -5.323 
104 1 -5.670 6.384 -7.447 
105 1 -3.527 -7.295 5.915 
106 1 4.474 -3.699 -6.831 
107 1 -0.413 -1.342 0.774 
108 1 5.101 6.855 -7.671 
109 1 -4.669 4.769 2.530 
110 1 -0.906 3.036 6.196 
111 1 0.855 -2.662 6.398 
112 1 5.639 8.457 5.861 
113 1 -7.864 2.590 -7.012 
114 1 5.224 3.281 5.525 
115 1 -5.456 -5.658 -7.495 
116 1 0.472 -1.820 -0.632 
117 1 5.856 -2.560 2.808 
118 1 -4.726 -2.448 -1.836 
119 1 6.466 -6.679 -6.642 
120 1 -2.445 -1.371 5.139 
121 1 3.090 1.928 -8.653 
122 1 -4.685 5.719 -3.447 
123 1 -3.427 6.632 1.759 
124 1 2.601 1.911 4.142 
125 1 0.346 -2.061 -5.799 
126 1 -6.251 -4.236 5.333 
127 1 -2.602 1.687 4.981 
128 1 8.385 7.533 -2.572 
129 1 0.383 6.969 8.567 
130 1 6.330 -2.339 -6.629 
131 1 -2.670 0.527 3.035 
132 1 -6.551 6.881 4.182 
133 1 4.834 -1.136 -6.386 
134 1 7.880 -8.815 7.625 
135 1 7.510 -3.171 2.835 
136 1 -1.627 -1.039 6.481 
137 1 0.825 3.545 0.886 
138 1 -0.764 8.195 -1.867 
139 1 -3.243 -6.966 -7.072 
140 1 -1.100 8.830 6.451 
141 1 -3.603 0.140 -3.154 
142 1 -6.278 0.821 4.059 
143 1 -3.599 -4.262 -1.782 
144 1 -2.081 8.716 5.116 
145 1 -4.753 4.895 4.171 
146 1 -4.237 -2.663 -4.796 
147 1 -7.879 -2.969 -3.935 
148 1 0.114 4.830 4.224 
149 1 -4.148 -1.918 -7.484 
150 1 -2.682 -6.717 3.509 
151 1 3.633 1.212 -0.156 
152 1 -5.130 2.261 3.336 
153 1 1.740 -1.613 5.112 
154 1 -2.205 -7.390 -8.905 
155 1 -3.009 4.851 8.828 
156 1 -0.529 4.508 -1.199 
157 1 7.412 5.654 -8.573 
158 1 -2.090 -1.782 7.831 
159 1 -7.937 4.763 -6.900 
160 1 -4.896 -2.389 6.937 
161 1 -3.819 -7.663 -8.956 
162 1 3.092 -5.702 3.529 
163 1 -0.395 -3.777 -4.058 
164 1 3.413 7.227 5.655 
165 1 -3.319 6.462 -3.830 
166 1 -3.033 -3.234 -7.578 
167 1 -2.171 2.267 2.559 
168 1 -0.490 4.298 0.441 
169 1 -3.267 -0.629 2.012 
170 1 -4.967 6.260 3.092 
171 1 2.220 0.773 -0.973 
172 1 2.225 6.613 3.943 
173 1 -2.057 4.842 -0.603 
174 1 -8.876 -2.687 -7.928 
175 1 6.446 -2.385 7.335 
176 1 2.780 1.343 7.941 
177 1 6.932 8.230 -6.068 
178 1 1.796 1.565 2.749 
179 1 -3.821 -7.983 4.489 
180 1 -2.208 -3.511 -1.825 
181 1 6.791 -7.041 5.648 
182 1 -4.434 -3.152 2.383 
183 1 3.519 1.591 2.250 
184 1 -1.605 5.667 -5.365 
185 1 7.742 0.147 -0.274 
186 1 -1.085 8.189 -4.905 
187 1 -2.449 -8.086 7.630 
188 1 4.721 3.935 4.020 
189 1 7.294 5.693 5.882 
190 1 2.532 -7.261 3.398 
191 1 -1.877 -8.580 2.734 
192 1 -3.368 -2.570 -6.228 
193 1 -4.851 -6.874 -6.574 
194 1 3.020 6.823 -2.800 
195 1 -7.709 1.165 5.427 
196 1 -3.337 5.699 7.436 
197 1 -3.059 1.224 6.810 
198 1 -0.917 0.562 8.458 
199 1 5.901 0.214 0.277 
200 1 3.889 -7.645 -4.365 
ITEM: TIMESTEP
20
ITEM: NUMBER OF ATOMS
200
ITEM: BOX BOUNDS pp pp pp
-9.045920656144343 9.045920656144343
-9.045920656144343 9.045920656144343
-9.045920656144343 9.045920656144343
ITEM: ATOMS id type x y z
1 1 2.788 2.942 1.548 
2 1 2.698 7.351 0.468 
3 1 1.938 1.132 -6.813 
4 1 -1.460 4.566 5.220 
5 1 -6.371 -1.983 2.146 
6 1 1.742 8.478 5.718 
7 1 2.862 -2.037 3.177 
8 1 1.335 6.687 6.975 
9 1 3.051 8.072 2.584 
10 1 -4.605 4.475 -0.994 
11 1 -0.117 -7.133 3.294 
12 1 7.115 7.790 4.506 
13 1 -5.557 -4.165 -0.923 
14 1 -8.860 -5.388 4.045 
15 1 4.857 1.099 7.456 
16 1 0.235 8.774 -6.286 
17 1 -1.995 -6.721 -0.181 
18 1 0.018 -6.927 -3.000 
19 1 -4.087 1.128 3.659 
20 1 -1.010 0.208 -2.748 
21 1 0.378 -2.418 -8.217 
22 1 -1.121 -5.214 -5.888 
23 1 5.717 5.587 -6.006 
24 1 7.911 6.192 -4.629 
25 1 -6.099 6.654 6.593 
26 1 4.124 -8.180 -7.993 
27 1 -8.090 1.529 2.497 
28 1 -7.598 6.841 -4.531 
29 1 -0.415 3.844 -3.879 
30 1 -5.921 -2.250 4.362 
31 1 -4.895 0.664 1.591 
32 1 0.739 6.405 2.861 
33 1 -0.005 -0.004 -5.857 
34 1 -7.873 4.559 7.218 
35 1 -1.293 -6.215 5.365 
36 1 -7.316 1.713 7.415 
37 1 2.570 -4.648 7.918 
38 1 -1.648 -6.302 1.966 
39 1 -5.308 2.510 5.049 
40 1 0.046 2.657 -7.789 
41 1 -0.639 -4.931 -2.216 
42 1 8.994 -8.839 -6.272 
43 1 -8.974 -1.971 0.998 
44 1 2.248 -0.953 -6.139 
45 1 3.167 -8.617 -2.205 
46 1 -4.336 8.466 6.006 
47 1 -5.951 -6.059 4.534 
48 1 1.991 -8.199 1.355 
49 1 3.172 0.504 5.903 
50 1 3.030 5.763 -6.559 
51 1 -3.159 6.370 3.245 
52 1 1.474 4.046 6.070 
53 1 4.499 -6.906 -5.904 
54 1 6.761 7.738 0.653 
55 1 2.408 -2.994 -7.165 
56 1 -5.774 0.275 8.228 
57 1 4.221 5.727 3.875 
58 1 8.407 -0.946 -5.219 
59 1 2.930 -6.243 -7.238 
60 1 -0.119 1.479 -0.417 
61 1 7.939 6.849 2.445 
62 1 -6.888 -3.610 -6.701 
63 1 3.752 -8.862 5.186 
64 1 -4.946 -6.429 1.732 
65 1 -4.429 4.081 6.425 
66 1 -5.682 7.781 -2.324 
67 1 6.896 1.735 3.474 
68 1 7.627 2.153 -3.607 
69 1 0.791 -4.589 -8.781 
70 1 -4.146 6.400 5.242 
71 1 8.125 0.192 2.302 
72 1 5.746 -8.021 1.338 
73 1 -5.292 -8.696 0.898 
74 1 -6.039 0.626 -7.615 
75 1 0.423 -6.453 0.457 
76 1 5.900 8.353 8.218 
77 1 -2.360 -4.477 0.862 
78 1 1.182 -5.656 -6.112 
79 1 3.627 -6.404 8.771 
80 1 -8.640 -1.470 3.271 
81 1 -1.351 -3.048 -5.904 
82 1 -4.490 8.206 3.373 
83 1 -2.969 -7.276 -2.145 
84 1 -4.171 0.150 5.682 
85 1 -8.561 6.513 -7.839 
86 1 -2.116 -5.973 -4.013 
87 1 -3.529 5.998 -5.784 
88 1 0.141 2.091 -2.621 
89 1 -1.807 -1.648 -3.688 
90 1 2.597 2.713 -1.362 
91 1 8.035 -6.586 1.609 
92 1 0.003 8.745 4.404 
93 1 -4.954 2.566 -4.964 
94 1 7.359 3.992 -4.926 
95 1 0.567 8.472 2.244 
96 1 -5.803 3.412 -2.635 
97 1 -3.061 3.404 4.341 
98 1 -7.651 1.652 -4.918 
99 1 -3.543 6.495 -1.551 
100 1 2.099 -1.272 -3.225 
101 1 -1.400 6.557 4.360 
102 1 -6.647 -4.889 2.023 
103 1 8.977 -3.174 -5.538 
104 1 -5.667 6.386 -7.450 
105 1 -3.854 -7.057 6.232 
106 1 4.517 -3.763 -6.824 
107 1 -0.564 -1.261 1.017 
108 1 5.062 6.938 -7.780 
109 1 -4.502 4.426 2.007 
110 1 -0.822 2.859 6.380 
111 1 0.741 -2.805 6.565 
112 1 5.655 8.499 6.013 
113 1 -7.876 2.463 -7.103 
114 1 5.323 3.167 5.843 
115 1 -5.554 -5.409 -7.714 
116 1 0.622 -1.907 -0.871 
117 1 5.593 -2.461 2.803 
118 1 -4.673 -2.210 -1.917 
119 1 6.550 -6.668 -6.673 
120 1 -2.650 -1.521 4.807 
121 1 3.267 2.145 -8.319 
122 1 -4.995 5.555 -3.432 
123 1 -3.471 6.664 1.146 
124 1 2.732 2.078 4.375 
125 1 0.590 -2.257 -5.670 
126 1 -6.343 -4.081 5.577 
127 1 -2.179 1.441 5.041 
128 1 8.387 7.543 -2.555 
129 1 0.190 6.997 8.898 
130 1 6.513 -2.432 -6.652 
131 1 -2.070 0.310 3.076 
132 1 -6.772 6.956 4.309 
133 1 4.699 -1.009 -6.362 
134 1 7.968 -8.777 7.607 
135 1 7.753 -3.289 2.844 
136 1 -1.255 -0.748 6.462 
137 1 0.877 3.429 0.763 
138 1 -0.763 8.196 -1.864 
139 1 -2.978 -6.904 -6.958 
140 1 -0.756 8.748 6.702 
141 1 -3.622 0.152 -3.153 
142 1 -6.276 0.638 3.962 
143 1 -3.581 -4.639 -1.984 
144 1 -2.439 8.606 4.799 
145 1 -4.989 4.637 4.257 
146 1 -4.577 -2.726 -4.355 
147 1 -7.706 -2.966 -3.715 
148 1 0.479 4.622 4.059 
149 1 -4.447 -1.668 -7.768 
150 1 -3.154 -6.147 3.766 
151 1 3.856 1.246 -0.024 
152 1 -5.620 2.578 2.497 
153 1 1.774 -1.443 5.074 
154 1 -1.737 -7.230 -8.765 
155 1 -2.949 4.676 -8.995 
156 1 -0.272 4.499 -1.556 
157 1 7.385 5.639 -8.588 
158 1 -2.229 -1.985 8.150 
159 1 -7.846 4.675 -6.743 
160 1 -4.891 -2.385 6.947 
161 1 -4.167 -7.724 -8.985 
162 1 3.211 -5.372 3.553 
163 1 -0.258 -3.701 -4.038 
164 1 3.717 6.895 5.975 
165 1 -2.985 6.749 -3.685 
166 1 -2.869 -3.561 -7.984 
167 1 -2.106 2.523 2.411 
168 1 -0.893 4.584 0.835 
169 1 -3.362 -0.989 1.763 
170 1 -5.336 6.335 2.738 
171 1 1.966 0.426 -1.067 
172 1 2.321 6.880 4.296 
173 1 -2.407 4.859 -0.642 
174 1 -8.889 -2.676 -7.961 
175 1 6.445 -2.385 7.335 
176 1 2.439 1.308 7.869 
177 1 6.872 8.210 -6.062 
178 1 1.381 1.283 2.672 
179 1 -4.228 -7.966 4.208 
180 1 -1.899 -3.117 -1.750 
181 1 6.791 -7.035 5.645 
182 1 -4.353 -3.212 2.385 
183 1 3.943 1.269 2.395 
184 1 -1.264 5.589 -5.352 
185 1 7.941 0.144 -0.346 
186 1 -1.289 8.117 -4.683 
187 1 -2.494 -8.249 7.517 
188 1 4.858 3.492 3.664 
189 1 7.297 5.675 5.893 
190 1 2.453 -7.525 3.494 
191 1 -1.931 -8.675 2.663 
192 1 -3.295 -2.314 -6.043 
193 1 -5.096 -7.145 -6.238 
194 1 3.020 6.817 -2.801 
195 1 -7.942 1.158 5.341 
196 1 -3.080 6.356 7.480 
197 1 -2.953 1.366 7.221 
198 1 -0.900 0.574 8.487 
199 1 5.777 0.178 0.352 
200 1 3.873 -7.783 -4.074 
ITEM: TIMESTEP
30
ITEM: NUMBER OF ATOMS
200
ITEM: BOX BOUNDS pp pp pp
-9.045920656144343 9.045920656144343
-9.045920656144343 9.045920656144343
-9.045920656144343 9.045920656144343
ITEM: ATOMS id type x y z
1 1 3.236 3.510 1.597 
2 1 2.667 7.034 0.075 
3 1 1.823 1.821 -6.614 
4 1 -1.617 4.664 6.046 
5 1 -6.436 -1.812 1.620 
6 1 2.058 -9.013 6.515 
7 1 2.736 -2.133 2.674 
8 1 1.285 6.349 7.196 
9 1 3.525 8.172 2.545 
10 1 -5.304 4.530 -0.810 
11 1 0.114 -6.406 3.565 
12 1 7.617 7.988 4.113 
13 1 -6.055 -4.299 -0.670 
14 1 -9.035 -5.513 4.252 
15 1 5.282 0.960 7.843 
16 1 0.677 8.965 -6.689 
17 1 -2.090 -7.144 -0.461 
18 1 0.301 -7.355 -3.146 
19 1 -3.916 0.958 3.252 
20 1 -1.109 0.084 -2.498 
21 1 0.187 -1.949 -8.476 
22 1 -1.028 -5.538 -6.410 
23 1 5.478 5.419 -5.689 
24 1 7.964 6.330 -4.639 
25 1 -6.321 6.613 7.170 
26 1 4.000 -8.579 -7.818 
27 1 -8.450 1.826 2.251 
28 1 -7.423 6.991 -4.587 
29 1 -0.604 3.843 -4.267 
30 1 -5.755 -2.245 4.491 
31 1 -5.243 0.660 0.735 
32 1 1.022 6.194 2.118 
33 1 -0.472 0.202 -5.779 
34 1 -8.122 4.585 7.202 
35 1 -1.176 -6.154 5.937 
36 1 -7.571 2.005 7.820 
37 1 2.820 -4.268 7.571 
38 1 -1.837 -6.131 2.050 
39 1 -5.767 2.277 5.497 
40 1 -0.272 3.051 -7.900 
41 1 -0.613 -5.107 -1.459 
42 1 -8.780 -8.683 -6.264 
43 1 -8.993 -2.221 0.566 
44 1 2.731 -0.590 -6.021 
45 1 2.888 -8.850 -1.636 
46 1 -5.056 8.927 6.454 
47 1 -6.405 -6.128 4.345 
48 1 2.676 -7.928 0.753 
49 1 3.632 0.119 5.742 
50 1 2.621 5.622 -6.422 
51 1 -2.751 5.827 3.340 
52 1 1.960 3.892 6.501 
53 1 4.818 -6.646 -5.869 
54 1 6.611 7.709 0.306 
55 1 2.477 -3.161 -7.592 
56 1 -5.709 0.122 8.090 
57 1 4.689 6.037 3.738 
58 1 8.397 -0.645 -5.132 
59 1 2.710 -6.123 -7.728 
60 1 -0.649 1.204 -0.103 
61 1 8.402 6.303 2.116 
62 1 -6.712 -3.386 -6.527 
63 1 4.166 -8.373 4.991 
64 1 -4.703 -6.368 1.604 
65 1 -4.387 4.144 7.023 
66 1 -6.145 8.185 -2.359 
67 1 7.113 1.782 3.895 
68 1 7.642 1.723 -3.206 
69 1 0.456 -4.832 -8.794 
70 1 -4.058 6.458 5.452 
71 1 7.850 -0.202 2.169 
72 1 5.563 -7.892 1.397 
73 1 -5.452 -8.922 0.617 
74 1 -5.917 0.638 -7.184 
75 1 0.641 -6.177 0.543 
76 1 6.166 8.527 8.850 
77 1 -2.491 -3.964 0.628 
78 1 1.510 -5.612 -5.313 
79 1 4.173 -6.705 8.001 
80 1 -8.541 -1.606 3.847 
81 1 -1.475 -2.869 -6.446 
82 1 -4.785 7.909 3.124 
83 1 -3.626 -7.988 -2.520 
84 1 -4.296 -0.108 5.787 
85 1 -8.572 7.009 -8.055 
86 1 -2.283 -6.018 -4.041 
87 1 -3.750 5.745 -6.200 
88 1 0.692 2.046 -2.774 
89 1 -2.026 -1.886 -4.032 
90 1 2.837 3.380 -1.673 
91 1 8.150 -6.548 1.554 
92 1 0.273 -9.010 4.323 
93 1 -4.763 2.566 -5.202 
94 1 7.527 3.598 -5.249 
95 1 0.321 8.793 1.490 
96 1 -6.282 2.870 -2.713 
97 1 -3.372 3.483 4.257 
98 1 -7.687 1.508 -4.686 
99 1 -3.827 7.025 -1.432 
100 1 2.330 -1.360 -3.294 
101 1 -0.652 6.585 4.527 
102 1 -7.082 -4.706 1.959 
103 1 8.800 -3.754 -5.380 
104 1 -5.812 6.547 -7.760 
105 1 -4.135 -6.154 6.766 
106 1 4.810 -4.113 -6.709 
107 1 -0.430 -1.510 1.060 
108 1 4.638 6.757 -7.939 
109 1 -3.977 4.193 1.477 
110 1 -0.352 2.542 7.119 
111 1 0.366 -3.186 6.810 
112 1 6.176 8.383 6.261 
113 1 -8.267 2.224 -7.509 
114 1 5.398 3.306 6.189 
115 1 -5.546 -5.373 -8.055 
116 1 0.883 -2.412 -1.121 
117 1 5.477 -2.294 2.804 
118 1 -4.725 -1.840 -1.537 
119 1 7.321 -6.560 -7.006 
120 1 -2.693 -2.055 4.551 
121 1 3.885 2.643 -8.316 
122 1 -5.270 5.406 -3.633 
123 1 -3.223 7.086 0.802 
124 1 2.683 2.375 4.407 
125 1 0.901 -2.402 -5.439 
126 1 -6.837 -4.161 6.236 
127 1 -1.896 1.475 5.191 
128 1 8.442 7.743 -2.226 
129 1 -0.074 6.977 -8.604 
130 1 6.929 -2.517 -6.944 
131 1 -1.322 -0.041 3.075 
132 1 -7.294 7.240 4.397 
133 1 5.304 -0.465 -6.410 
134 1 8.472 -8.616 7.580 
135 1 7.848 -3.586 2.764 
136 1 -0.819 -0.692 6.322 
137 1 0.823 3.368 0.602 
138 1 -0.721 8.163 -1.717 
139 1 -3.106 -7.291 -6.697 
140 1 -0.493 8.354 7.016 
141 1 -3.883 0.381 -3.218 
142 1 -6.495 0.262 3.686 
143 1 -3.685 -4.824 -2.018 
144 1 -2.446 8.683 5.017 
145 1 -5.870 4.794 4.281 
146 1 -4.944 -3.194 -4.119 
147 1 -7.630 -2.872 -3.296 
148 1 0.454 4.007 3.864 
149 1 -4.843 -1.807 -8.341 
150 1 -3.090 -5.068 4.213 
151 1 4.054 1.481 -0.105 
152 1 -5.990 2.787 2.438 
153 1 1.429 -1.333 4.935 
154 1 -1.091 -7.083 -8.759 
155 1 -2.880 4.351 -8.636 
156 1 0.224 4.896 -1.674 
157 1 7.218 5.426 -8.710 
158 1 -2.299 -1.996 8.216 
159 1 -7.735 4.723 -6.364 
160 1 -4.780 -2.565 7.124 
161 1 -4.806 -7.899 -8.902 
162 1 3.424 -4.842 3.593 
163 1 -0.172 -3.965 -3.838 
164 1 4.062 6.594 6.581 
165 1 -2.661 6.624 -3.965 
166 1 -3.057 -4.145 -8.242 
167 1 -1.869 2.466 1.995 
168 1 -1.189 5.029 1.226 
169 1 -3.285 -1.253 1.365 
170 1 -6.416 5.958 1.695 
171 1 1.872 0.212 -1.059 
172 1 2.098 6.707 4.555 
173 1 -2.492 4.424 -1.107 
174 1 -8.828 -2.559 -8.392 
175 1 6.444 -2.387 7.334 
176 1 2.029 1.246 7.944 
177 1 6.560 8.369 -6.091 
178 1 1.163 1.043 2.472 
179 1 -4.253 -7.639 4.190 
180 1 -1.920 -2.529 -1.450 
181 1 6.800 -6.847 5.588 
182 1 -4.447 -3.535 2.470 
183 1 4.231 0.670 2.698 
184 1 -0.908 5.935 -5.971 
185 1 8.396 0.306 -0.776 
186 1 -1.149 8.689 -4.628 
187 1 -2.666 -8.403 7.625 
188 1 5.141 3.448 3.402 
189 1 7.332 5.550 5.987 
190 1 2.626 -7.456 3.364 
191 1 -2.273 -8.801 2.286 
192 1 -3.798 -1.451 -5.949 
193 1 -5.745 -7.424 -5.780 
194 1 3.026 6.656 -2.911 
195 1 -8.599 1.165 5.326 
196 1 -2.807 6.720 7.868 
197 1 -3.159 1.620 7.790 
198 1 -0.761 0.507 8.939 
199 1 5.835 -0.438 0.398 
200 1 3.781 -8.007 -3.924 
ITEM: TIMESTEP
40
ITEM: NUMBER OF ATOMS
200
ITEM: BOX BOUNDS pp pp pp
-9.045920656144343 9.045920656144343
-9.045920656144343 9.045920656144343
-9.045920656144343 9.045920656144343
ITEM: ATOMS id type x y z
1 1 3.333 4.012 1.478 
2 1 2.975 6.635 -0.161 
3 1 1.898 2.255 -6.267 
4 1 -1.795 4.750 6.353 
5 1 -6.527 -1.707 1.348 
6 1 2.325 -8.767 6.917 
7 1 2.547 -2.182 2.086 
8 1 1.352 6.274 7.421 
9 1 3.628 8.192 2.349 
10 1 -5.723 4.772 -0.871 
11 1 0.322 -5.555 3.968 
12 1 7.701 8.342 3.704 
13 1 -6.413 -4.385 -0.756 
14 1 8.889 -5.547 4.488 
15 1 5.634 0.748 8.135 
16 1 0.993 -8.925 -6.682 
17 1 -2.167 -7.583 -0.434 
18 1 0.458 -7.325 -3.018 
19 1 -3.941 0.812 3.020 
20 1 -1.054 0.291 -2.822 
21 1 0.429 -1.773 -8.726 
22 1 -0.752 -5.595 -6.402 
23 1 5.219 5.310 -5.470 
24 1 7.955 6.257 -4.560 
25 1 -6.591 6.775 7.481 
26 1 3.750 -8.822 -7.739 
27 1 -8.885 2.130 1.950 
28 1 -7.298 7.257 -4.827 
29 1 -0.975 3.616 -4.392 
30 1 -5.908 -2.364 4.556 
31 1 -5.358 0.917 0.176 
32 1 1.265 6.106 2.150 
33 1 -0.633 0.343 -5.762 
34 1 -8.396 4.634 7.132 
35 1 -1.069 -6.272 6.472 
36 1 -7.778 2.048 8.057 
37 1 3.088 -4.128 7.354 
38 1 -1.852 -6.231 2.263 
39 1 -6.050 2.144 5.674 
40 1 -0.219 3.440 -7.817 
41 1 -0.767 -5.197 -1.197 
42 1 -8.693 -8.567 -6.191 
43 1 8.980 -2.515 0.081 
44 1 2.957 -0.410 -6.256 
45 1 2.400 8.970 -1.736 
46 1 -5.587 -8.797 6.328 
47 1 -6.471 -6.127 4.424 
48 1 3.099 -7.604 0.444 
49 1 4.007 -0.144 5.741 
50 1 2.291 5.498 -6.288 
51 1 -2.689 5.896 3.372 
52 1 2.459 3.764 6.770 
53 1 5.138 -6.775 -5.930 
54 1 6.455 7.609 0.231 
55 1 2.808 -3.050 -7.933 
56 1 -5.880 -0.061 8.045 
57 1 5.251 6.296 3.849 
58 1 8.378 -0.776 -5.049 
59 1 2.669 -6.110 -7.923 
60 1 -1.015 0.931 -0.040 
61 1 8.474 5.910 1.961 
62 1 -6.861 -3.215 -6.286 
63 1 4.474 -8.405 4.953 
64 1 -4.835 -6.382 1.309 
65 1 -4.758 4.176 7.340 
66 1 -6.747 8.673 -2.290 
67 1 7.056 1.503 4.250 
68 1 7.421 1.706 -3.104 
69 1 0.313 -4.729 -9.000 
70 1 -4.231 6.544 5.665 
71 1 7.764 -0.467 2.153 
72 1 5.740 -7.766 1.576 
73 1 -5.658 -9.028 0.423 
74 1 -6.026 0.737 -7.185 
75 1 0.802 -5.924 0.937 
76 1 6.494 8.748 -8.875 
77 1 -2.501 -3.750 0.490 
78 1 2.016 -5.658 -5.060 
79 1 4.491 -6.840 7.852 
80 1 -8.780 -1.896 4.286 
81 1 -1.714 -2.739 -6.827 
82 1 -4.987 7.934 3.150 
83 1 -3.992 -8.144 -2.764 
84 1 -4.114 -0.169 5.781 
85 1 -8.752 7.169 -8.191 
86 1 -2.405 -6.153 -4.104 
87 1 -3.731 5.624 -6.203 
88 1 1.125 2.083 -2.981 
89 1 -2.186 -2.071 -4.196 
90 1 3.197 3.806 -1.837 
91 1 8.391 -6.611 1.395 
92 1 0.392 -8.701 4.280 
93 1 -4.563 2.685 -5.350 
94 1 7.578 3.401 -5.538 
95 1 0.485 8.843 1.124 
96 1 -6.390 2.507 -2.494 
97 1 -3.795 3.544 4.336 
98 1 -7.737 1.393 -4.737 
99 1 -4.229 7.154 -1.834 
100 1 2.771 -1.333 -3.319 
101 1 -0.378 6.558 4.733 
102 1 -7.461 -4.682 1.995 
103 1 8.607 -4.159 -5.197 
104 1 -5.780 6.787 -7.852 
105 1 -4.455 -5.895 7.006 
106 1 4.932 -3.966 -6.376 
107 1 -0.184 -1.883 1.092 
108 1 4.427 6.440 -8.211 
109 1 -3.911 4.226 1.288 
110 1 -0.126 2.600 7.380 
111 1 0.154 -3.434 6.499 
112 1 6.501 8.232 6.403 
113 1 -8.767 2.067 -7.429 
114 1 5.360 3.308 6.408 
115 1 -5.951 -5.379 -8.200 
116 1 1.287 -2.903 -1.242 
117 1 5.376 -2.230 3.064 
118 1 -4.940 -1.750 -1.448 
119 1 7.684 -6.377 -7.362 
120 1 -2.552 -2.243 4.563 
121 1 4.115 2.945 -8.299 
122 1 -5.424 5.172 -3.817 
123 1 -3.245 7.223 0.713 
124 1 2.813 2.309 4.354 
125 1 0.911 -2.443 -5.552 
126 1 -7.373 -4.252 6.637 
127 1 -1.728 1.725 5.210 
128 1 8.476 7.890 -2.064 
129 1 -0.192 7.117 -8.580 
130 1 7.118 -2.399 -7.322 
131 1 -1.084 -0.233 3.244 
132 1 -7.661 7.553 4.546 
133 1 5.742 0.120 -6.411 
134 1 8.967 -8.439 7.556 
135 1 7.722 -3.783 2.499 
136 1 -0.679 -0.546 6.495 
137 1 0.837 3.201 0.319 
138 1 -0.715 8.078 -1.634 
139 1 -3.134 -7.570 -6.697 
140 1 -0.411 8.558 7.152 
141 1 -4.055 0.575 -3.185 
142 1 -6.748 0.248 3.493 
143 1 -3.748 -4.937 -1.836 
144 1 -2.415 8.581 5.108 
145 1 -6.378 4.927 4.428 
146 1 -4.856 -3.420 -4.156 
147 1 -7.742 -2.692 -3.045 
148 1 0.308 3.802 3.922 
149 1 -5.000 -2.184 -8.272 
150 1 -3.020 -4.965 4.616 
151 1 4.434 1.677 -0.200 
152 1 -6.144 2.894 2.331 
153 1 1.503 -1.399 4.750 
154 1 -0.742 -7.461 -8.717 
155 1 -2.907 4.134 -8.524 
156 1 0.350 5.236 -1.884 
157 1 7.151 5.142 -8.781 
158 1 -2.350 -1.963 8.376 
159 1 -7.623 4.650 -6.314 
160 1 -4.684 -2.974 7.046 
161 1 -5.358 -8.291 -8.684 
162 1 3.637 -4.571 3.779 
163 1 -0.161 -4.084 -3.896 
164 1 4.320 6.334 6.959 
165 1 -2.259 6.320 -3.789 
166 1 -3.035 -4.723 -8.553 
167 1 -1.684 2.561 2.225 
168 1 -1.100 5.228 0.907 
169 1 -3.257 -1.166 1.130 
170 1 -6.646 6.065 1.542 
171 1 1.896 0.104 -0.757 
172 1 2.566 6.779 4.718 
173 1 -2.608 4.116 -1.537 
174 1 -8.480 -2.506 -8.848 
175 1 6.445 -2.411 7.316 
176 1 2.207 0.905 8.135 
177 1 6.393 8.481 -5.917 
178 1 1.362 0.914 2.220 
179 1 -4.062 -7.550 4.046 
180 1 -1.828 -2.197 -1.279 
181 1 6.703 -6.712 5.813 
182 1 -4.645 -3.677 2.461 
183 1 4.418 0.525 2.629 
184 1 -0.643 5.946 -5.944 
185 1 8.651 0.408 -0.742 
186 1 -1.280 8.967 -4.733 
187 1 -2.971 -8.287 7.736 
188 1 5.437 3.520 3.250 
189 1 7.341 5.499 5.791 
190 1 2.605 -7.232 3.292 
191 1 -2.159 -8.863 2.311 
192 1 -3.994 -0.857 -5.897 
193 1 -5.951 -7.414 -5.530 
194 1 3.100 6.459 -3.276 
195 1 -8.665 0.926 5.583 
196 1 -2.893 6.875 8.331 
197 1 -3.294 1.632 7.995 
198 1 -0.968 0.660 -8.677 
199 1 5.727 -1.015 -0.012 
200 1 3.754 -8.283 -4.144 
ITEM: TIMESTEP
50
ITEM: NUMBER OF ATOMS
200
ITEM: BOX BOUNDS pp pp pp
-9.045920656144343 9.045920656144343
-9.045920656144343 9.045920656144343
-9.045920656144343 9.045920656144343
ITEM: ATOMS id type x y z
1 1 3.379 3.957 1.498 
2 1 3.241 6.443 -0.313 
3 1 2.096 2.408 -5.996 
4 1 -1.937 4.783 6.603 
5 1 -6.637 -1.708 1.106 
6 1 2.515 -8.707 7.128 
7 1 2.904 -2.325 1.722 
8 1 1.423 6.209 7.582 
9 1 3.604 8.288 2.051 
10 1 -6.098 4.855 -0.883 
11 1 0.545 -5.135 4.088 
12 1 7.668 8.694 3.381 
13 1 -6.751 -4.598 -0.923 
14 1 8.766 -5.440 4.426 
15 1 5.906 0.601 8.389 
16 1 1.146 -8.876 -6.256 
17 1 -2.383 -7.738 -0.372 
18 1 0.436 -7.283 -3.179 
19 1 -4.076 0.978 2.998 
20 1 -1.048 0.536 -2.912 
21 1 0.654 -1.629 -8.881 
22 1 -0.477 -5.644 -6.348 
23 1 5.155 5.251 -5.308 
24 1 8.116 6.152 -4.454 
25 1 -6.803 7.052 7.579 
26 1 3.738 -8.924 -7.797 
27 1 8.754 2.426 1.857 
28 1 -7.133 7.383 -4.964 
29 1 -1.208 3.275 -4.492 
30 1 -6.207 -2.246 4.664 
31 1 -5.302 1.030 0.060 
32 1 1.304 6.153 2.186 
33 1 -0.500 0.345 -5.758 
34 1 -8.446 4.634 7.224 
35 1 -0.920 -6.430 6.598 
36 1 -7.603 2.108 8.312 
37 1 3.161 -4.075 7.066 
38 1 -1.658 -6.304 2.396 
39 1 -6.121 2.054 5.626 
40 1 0.035 3.710 -7.788 
41 1 -0.789 -5.326 -1.191 
42 1 -8.833 -8.390 -6.158 
43 1 8.778 -2.708 -0.294 
44 1 3.111 -0.354 -6.534 
45 1 2.143 8.818 -1.741 
46 1 -5.779 -8.649 6.167 
47 1 -6.464 -6.034 4.493 
48 1 3.448 -7.180 -0.030 
49 1 4.262 -0.303 5.817 
50 1 2.279 5.478 -6.354 
51 1 -2.564 6.005 3.226 
52 1 2.735 3.656 7.043 
53 1 5.383 -6.732 -6.031 
54 1 6.240 7.531 0.284 
55 1 3.227 -3.031 -8.136 
56 1 -6.142 -0.468 7.883 
57 1 5.433 6.515 3.616 
58 1 8.300 -1.003 -4.915 
59 1 2.597 -6.107 -7.910 
60 1 -1.232 0.773 0.022 
61 1 8.245 5.669 2.010 
62 1 -7.241 -3.056 -6.162 
63 1 4.593 -8.563 4.851 
64 1 -4.868 -6.341 1.060 
65 1 -5.186 4.225 7.661 
66 1 -7.082 -8.955 -2.424 
67 1 6.843 1.124 4.475 
68 1 7.137 1.679 -2.997 
69 1 0.253 -4.645 8.992 
70 1 -4.442 6.456 5.761 
71 1 7.838 -0.575 2.022 
72 1 5.810 -7.561 1.835 
73 1 -5.983 9.031 0.425 
74 1 -6.192 0.903 -7.404 
75 1 1.063 -5.560 1.065 
76 1 6.668 8.911 -8.720 
77 1 -2.454 -3.984 0.696 
78 1 2.448 -5.571 -4.890 
79 1 4.676 -6.760 8.101 
80 1 8.857 -2.182 4.539 
81 1 -1.748 -2.766 -7.014 
82 1 -5.095 7.922 3.196 
83 1 -4.157 -8.056 -2.882 
84 1 -4.045 -0.237 5.745 
85 1 -8.876 7.171 -8.164 
86 1 -2.507 -5.994 -4.239 
87 1 -3.560 5.814 -6.084 
88 1 1.482 2.089 -3.068 
89 1 -2.264 -2.129 -4.307 
90 1 3.615 3.936 -1.986 
91 1 8.710 -6.875 1.101 
92 1 0.384 -8.505 4.294 
93 1 -4.367 2.662 -5.528 
94 1 7.431 3.378 -5.521 
95 1 0.744 9.045 0.993 
96 1 -6.597 2.345 -2.316 
97 1 -3.998 3.712 4.351 
98 1 -7.786 1.335 -4.776 
99 1 -4.676 7.234 -2.120 
100 1 3.087 -1.289 -3.414 
101 1 -0.229 6.614 4.887 
102 1 -7.561 -4.542 2.044 
103 1 8.296 -4.422 -4.986 
104 1 -5.795 6.777 -7.712 
105 1 -4.845 -6.013 7.145 
106 1 4.994 -3.707 -5.722 
107 1 -0.093 -2.205 1.293 
108 1 4.499 6.304 -8.166 
109 1 -3.931 4.163 1.121 
110 1 0.003 2.645 7.460 
111 1 -0.021 -3.335 6.368 
112 1 6.856 8.247 6.423 
113 1 8.775 1.630 -7.470 
114 1 5.634 3.140 6.514 
115 1 -6.268 -5.337 -8.182 
116 1 1.640 -3.158 -1.234 
117 1 5.498 -2.119 3.536 
118 1 -4.976 -1.879 -1.546 
119 1 7.861 -6.105 -7.836 
120 1 -2.370 -2.286 4.491 
121 1 4.242 3.058 -8.255 
122 1 -5.579 4.942 -3.896 
123 1 -3.480 7.158 0.516 
124 1 3.059 2.284 4.417 
125 1 1.071 -2.393 -5.778 
126 1 -7.637 -4.331 6.855 
127 1 -1.844 1.920 5.244 
128 1 8.268 7.972 -1.965 
129 1 -0.288 7.256 -8.314 
130 1 7.076 -2.356 -7.590 
131 1 -1.006 -0.096 3.218 
132 1 -7.891 7.786 4.644 
133 1 5.987 0.518 -6.402 
134 1 -8.788 -8.235 7.582 
135 1 7.404 -3.989 2.141 
136 1 -0.388 -0.332 6.525 
137 1 0.889 3.056 0.000 
138 1 -0.822 8.061 -1.584 
139 1 -3.216 -7.712 -6.859 
140 1 -0.351 8.637 7.164 
141 1 -4.093 0.672 -3.052 
142 1 -7.170 0.285 3.309 
143 1 -3.862 -5.038 -1.724 
144 1 -2.528 8.620 5.253 
145 1 -6.867 4.929 4.542 
146 1 -4.905 -3.633 -4.285 
147 1 -7.801 -2.512 -3.045 
148 1 0.469 3.782 4.131 
149 1 -4.955 -2.420 -8.095 
150 1 -2.981 -5.037 4.932 
151 1 4.796 1.685 -0.373 
152 1 -6.405 3.011 2.231 
153 1 1.684 -1.463 4.525 
154 1 -0.495 -7.622 -8.583 
155 1 -2.914 3.964 -8.356 
156 1 0.510 5.237 -2.196 
157 1 7.166 4.844 -8.825 
158 1 -2.356 -1.825 8.270 
159 1 -7.600 4.443 -6.412 
160 1 -4.661 -3.107 7.012 
161 1 -5.846 -8.374 -8.597 
162 1 3.745 -4.505 4.052 
163 1 -0.012 -4.124 -3.729 
164 1 4.618 6.209 6.960 
165 1 -2.270 6.164 -3.395 
166 1 -2.981 -5.051 -8.674 
167 1 -1.570 2.738 2.218 
168 1 -1.047 5.373 0.552 
169 1 -3.349 -1.191 1.117 
170 1 -6.882 6.180 1.611 
171 1 1.949 -0.007 -0.759 
172 1 2.689 6.948 4.788 
173 1 -2.721 3.703 -1.666 
174 1 -8.328 -2.333 -9.039 
175 1 6.470 -2.508 7.232 
176 1 2.410 0.718 8.280 
177 1 6.305 8.369 -5.653 
178 1 1.535 0.916 2.136 
179 1 -4.066 -7.488 3.774 
180 1 -1.578 -2.067 -1.231 
181 1 6.679 -6.632 5.983 
182 1 -4.754 -3.701 2.711 
183 1 4.569 0.535 2.423 
184 1 -0.516 6.024 -5.708 
185 1 8.936 0.467 -0.783 
186 1 -1.512 8.929 -4.718 
187 1 -3.110 -8.256 8.011 
188 1 5.863 3.581 3.091 
189 1 7.471 5.383 5.456 
190 1 2.706 -7.111 3.066 
191 1 -1.923 8.873 2.324 
192 1 -3.966 -0.512 -5.949 
193 1 -5.991 -7.251 -5.343 
194 1 3.099 6.574 -3.536 
195 1 -8.782 0.561 5.987 
196 1 -3.133 6.881 8.596 
197 1 -3.579 1.595 8.019 
198 1 -1.158 0.796 -8.554 
199 1 5.640 -1.373 -0.250 
200 1 3.735 -8.479 -4.164 
ITEM: TIMESTEP
60
ITEM: NUMBER OF ATOMS
200
ITEM: BOX BOUNDS pp pp pp
-9.045920656144343 9.045920656144343
-9.045920656144343 9.045920656144343
-9.045920656144343 9.045920656144343
ITEM: ATOMS id type x y z
1 1 3.382 3.805 1.599 
2 1 3.270 6.167 -0.469 
3 1 2.320 2.588 -5.913 
4 1 -2.061 4.869 6.842 
5 1 -6.759 -1.591 0.881 
6 1 2.662 -8.537 7.271 
7 1 3.345 -2.564 1.552 
8 1 1.641 6.205 7.949 
9 1 3.568 8.390 1.759 
10 1 -6.569 4.943 -0.914 
11 1 0.901 -4.852 4.167 
12 1 7.643 8.880 3.061 
13 1 -7.206 -5.006 -1.424 
14 1 8.503 -5.614 4.040 
15 1 6.083 0.337 8.554 
16 1 1.204 9.026 -5.821 
17 1 -2.768 -7.797 -0.156 
18 1 0.423 -7.320 -3.397 
19 1 -4.239 1.081 2.885 
20 1 -1.090 0.475 -2.875 
21 1 0.803 -1.557 -8.896 
22 1 -0.131 -5.625 -6.129 
23 1 5.241 5.035 -5.229 
24 1 8.407 5.968 -4.297 
25 1 -7.115 7.376 7.667 
26 1 3.661 -9.003 -7.724 
27 1 8.380 2.387 1.447 
28 1 -7.040 7.695 -4.999 
29 1 -1.216 3.109 -4.707 
30 1 -6.551 -2.055 4.822 
31 1 -5.141 1.089 -0.066 
32 1 1.184 6.204 2.106 
33 1 -0.024 0.118 -5.773 
34 1 -8.686 4.811 7.466 
35 1 -0.512 -6.497 6.665 
36 1 -7.579 2.253 8.399 
37 1 2.959 -4.061 6.952 
38 1 -1.232 -6.377 2.517 
39 1 -6.294 1.856 5.617 
40 1 0.153 3.911 -7.740 
41 1 -0.794 -5.652 -1.099 
42 1 9.023 -8.097 -6.109 
43 1 8.516 -2.941 -0.647 
44 1 3.093 -0.335 -6.810 
45 1 2.270 8.893 -1.635 
46 1 -5.653 -8.636 5.891 
47 1 -6.532 -5.912 4.489 
48 1 3.808 -6.631 -0.612 
49 1 4.265 -0.485 6.158 
50 1 2.409 5.761 -6.692 
51 1 -2.519 5.871 3.089 
52 1 3.132 3.686 7.174 
53 1 5.665 -6.528 -6.210 
54 1 6.152 7.631 0.248 
55 1 3.789 -3.131 -8.248 
56 1 -6.176 -0.655 7.789 
57 1 5.365 6.512 3.410 
58 1 7.888 -1.253 -4.701 
59 1 2.575 -6.093 -7.536 
60 1 -1.367 0.766 0.157 
61 1 7.988 5.574 1.770 
62 1 -7.690 -2.715 -6.188 
63 1 4.793 -8.604 4.834 
64 1 -5.276 -6.092 0.831 
65 1 -5.395 4.385 7.968 
66 1 -7.489 -8.040 -2.577 
67 1 6.941 0.824 4.499 
68 1 6.983 1.574 -2.989 
69 1 0.300 -4.584 -9.020 
70 1 -4.609 6.489 5.883 
71 1 7.806 -0.840 1.785 
72 1 5.789 -7.072 1.853 
73 1 -6.458 -8.990 0.378 
74 1 -6.035 0.562 -7.231 
75 1 1.386 -5.206 1.003 
76 1 6.765 -8.878 -8.691 
77 1 -2.468 -4.285 0.947 
78 1 2.783 -5.346 -4.406 
79 1 4.833 -6.370 8.540 
80 1 8.531 -2.415 4.644 
81 1 -1.655 -2.791 -7.062 
82 1 -5.030 7.830 3.135 
83 1 -4.215 -7.926 -2.933 
84 1 -3.902 -0.445 5.559 
85 1 8.985 7.056 -7.832 
86 1 -2.628 -5.738 -4.484 
87 1 -3.359 6.190 -5.959 
88 1 1.670 1.939 -3.022 
89 1 -2.572 -2.288 -3.913 
90 1 4.164 3.921 -2.486 
91 1 8.940 -7.175 0.695 
92 1 0.524 -8.478 4.401 
93 1 -4.293 2.636 -5.761 
94 1 7.692 3.212 -5.596 
95 1 0.778 -8.485 0.931 
96 1 -6.998 2.283 -2.283 
97 1 -4.363 3.856 4.336 
98 1 -8.010 1.136 -4.863 
99 1 -5.378 7.418 -2.379 
100 1 3.380 -1.124 -3.539 
101 1 -0.286 6.563 4.963 
102 1 -7.826 -4.364 1.829 
103 1 8.195 -4.769 -4.711 
104 1 -5.907 6.500 -7.673 
105 1 -5.370 -6.119 7.485 
106 1 5.127 -3.338 -5.100 
107 1 0.119 -2.384 1.736 
108 1 4.992 6.368 -8.226 
109 1 -4.060 4.114 0.925 
110 1 0.191 2.819 7.471 
111 1 -0.231 -3.167 6.429 
112 1 7.352 8.205 6.408 
113 1 8.527 0.922 -7.703 
114 1 6.171 3.021 6.696 
115 1 -6.722 -5.244 -7.951 
116 1 2.244 -3.362 -1.383 
117 1 5.638 -2.043 3.854 
118 1 -4.785 -1.977 -1.635 
119 1 8.071 -5.654 -8.296 
120 1 -2.159 -2.587 4.070 
121 1 4.506 3.009 -8.089 
122 1 -5.846 4.788 -3.989 
123 1 -3.778 7.221 0.239 
124 1 3.481 2.139 4.547 
125 1 1.448 -2.787 -5.965 
126 1 -8.092 -4.473 6.961 
127 1 -2.074 2.107 5.429 
128 1 8.189 8.133 -1.995 
129 1 -0.460 7.179 -7.958 
130 1 6.790 -2.376 -7.617 
131 1 -1.051 0.087 3.289 
132 1 -8.027 7.904 4.616 
133 1 5.811 0.735 -6.012 
134 1 -8.586 -7.769 7.582 
135 1 6.825 -4.121 1.722 
136 1 0.023 -0.073 6.367 
137 1 0.901 3.039 -0.146 
138 1 -0.815 8.175 -1.577 
139 1 -3.392 -7.849 -6.841 
140 1 -0.338 8.492 7.319 
141 1 -4.320 0.700 -3.244 
142 1 -7.711 0.375 3.231 
143 1 -3.907 -4.958 -1.754 
144 1 -2.584 8.792 5.264 
145 1 -7.282 4.837 4.631 
146 1 -5.217 -3.894 -4.575 
147 1 -7.638 -2.153 -3.029 
148 1 0.805 3.698 4.421 
149 1 -4.918 -2.551 -7.940 
150 1 -3.001 -5.310 5.294 
151 1 5.044 1.687 -0.524 
152 1 -6.745 3.110 2.032 
153 1 1.929 -1.651 4.313 
154 1 -0.301 -7.704 -8.360 
155 1 -2.883 3.925 -8.222 
156 1 0.703 5.131 -2.411 
157 1 7.295 4.320 -8.523 
158 1 -2.343 -1.579 8.199 
159 1 -7.607 4.087 -6.700 
160 1 -4.667 -3.248 6.949 
161 1 -6.150 -8.439 -8.396 
162 1 4.193 -4.649 4.121 
163 1 0.089 -3.937 -3.557 
164 1 4.986 6.182 6.775 
165 1 -2.612 5.915 -2.902 
166 1 -2.912 -5.127 -8.705 
167 1 -1.396 3.066 2.290 
168 1 -1.151 5.483 0.138 
169 1 -3.463 -1.200 1.243 
170 1 -7.185 6.321 1.704 
171 1 1.995 -0.209 -0.700 
172 1 2.684 7.084 4.856 
173 1 -2.723 3.047 -1.711 
174 1 -8.628 -2.105 8.959 
175 1 6.461 -2.831 7.175 
176 1 2.616 0.882 8.421 
177 1 6.313 8.188 -5.530 
178 1 1.641 1.018 2.190 
179 1 -4.083 -7.386 3.296 
180 1 -1.150 -2.216 -1.127 
181 1 6.738 -6.553 6.231 
182 1 -4.815 -3.751 2.887 
183 1 4.722 0.401 2.207 
184 1 -0.254 6.116 -5.120 
185 1 -8.958 0.296 -0.903 
186 1 -1.839 8.801 -4.586 
187 1 -3.107 -8.132 8.109 
188 1 5.992 3.446 3.144 
189 1 7.729 5.309 5.005 
190 1 2.813 -7.051 2.965 
191 1 -1.772 8.559 2.272 
192 1 -3.572 -0.136 -6.312 
193 1 -6.140 -6.951 -5.303 
194 1 3.071 6.784 -3.774 
195 1 -8.992 0.166 6.552 
196 1 -3.288 6.970 8.807 
197 1 -3.961 1.533 8.109 
198 1 -1.263 0.994 -8.449 
199 1 5.554 -1.611 -0.685 
200 1 4.005 -8.246 -4.067 
ITEM: TIMESTEP
70
ITEM: NUMBER OF ATOMS
200
ITEM: BOX BOUNDS pp pp pp
-9.045920656144343 9.045920656144343
-9.045920656144343 9.045920656144343
-9.045920656144343 9.045920656144343
ITEM: ATOMS id type x y z
1 1 3.325 3.799 1.815 
2 1 3.379 5.973 -0.496 
3 1 2.487 2.746 -5.742 
4 1 -2.187 4.983 6.989 
5 1 -6.815 -1.459 0.924 
6 1 2.666 -8.339 7.260 
7 1 3.547 -2.711 1.514 
8 1 1.851 6.344 8.109 
9 1 3.398 8.422 1.648 
10 1 -6.907 5.082 -0.885 
11 1 1.115 -4.655 4.197 
12 1 7.675 8.740 2.874 
13 1 -7.250 -4.838 -1.838 
14 1 8.264 -6.043 3.671 
15 1 5.994 0.279 8.721 
16 1 1.323 8.931 -5.757 
17 1 -2.995 -7.707 -0.043 
18 1 0.546 -7.392 -3.307 
19 1 -4.426 1.130 2.896 
20 1 -1.181 0.323 -2.952 
21 1 0.847 -1.522 -8.884 
22 1 -0.107 -5.761 -5.980 
23 1 5.366 4.966 -5.459 
24 1 8.636 5.842 -4.164 
25 1 -7.183 7.537 7.712 
26 1 3.749 9.025 -7.783 
27 1 8.127 2.250 1.025 
28 1 -7.142 7.987 -5.143 
29 1 -1.256 3.018 -4.830 
30 1 -6.593 -1.909 4.863 
31 1 -5.082 1.111 -0.232 
32 1 1.090 6.248 2.063 
33 1 0.233 0.001 -5.732 
34 1 -8.792 4.914 7.483 
35 1 -0.187 -6.490 6.660 
36 1 -7.660 2.157 8.562 
37 1 2.833 -4.013 6.860 
38 1 -1.068 -6.383 2.815 
39 1 -6.368 1.701 5.668 
40 1 0.257 3.975 -7.633 
41 1 -0.780 -5.721 -1.118 
42 1 8.884 -7.820 -6.153 
43 1 8.284 -3.151 -1.037 
44 1 3.191 -0.336 -6.922 
45 1 2.506 8.860 -1.554 
46 1 -5.562 -8.475 5.829 
47 1 -6.722 -5.883 4.451 
48 1 4.045 -6.364 -0.949 
49 1 4.143 -0.807 6.474 
50 1 2.571 5.975 -6.874 
51 1 -2.528 5.910 3.037 
52 1 3.355 3.817 7.076 
53 1 5.815 -6.424 -6.189 
54 1 6.034 7.843 0.045 
55 1 3.910 -3.146 -8.372 
56 1 -6.128 -0.722 7.842 
57 1 5.256 6.450 3.179 
58 1 7.615 -1.408 -4.236 
59 1 2.716 -6.125 -7.184 
60 1 -1.330 0.682 0.200 
61 1 7.791 5.446 1.298 
62 1 -7.954 -2.404 -6.164 
63 1 4.960 -8.608 4.847 
64 1 -5.675 -5.964 0.644 
65 1 -5.489 4.381 7.941 
66 1 -7.632 -7.843 -2.645 
67 1 6.995 0.696 4.424 
68 1 7.000 1.564 -2.823 
69 1 0.478 -4.645 -8.916 
70 1 -4.674 6.599 5.875 
71 1 7.719 -1.052 1.622 
72 1 5.728 -7.146 1.692 
73 1 -6.595 -8.995 0.346 
74 1 -6.153 0.395 -7.259 
75 1 1.510 -5.069 0.916 
76 1 6.855 -8.639 -8.716 
77 1 -2.563 -4.371 1.013 
78 1 2.904 -5.371 -4.053 
79 1 4.779 -6.123 8.599 
80 1 8.493 -2.651 4.508 
81 1 -1.490 -2.867 -6.839 
82 1 -4.968 7.895 3.034 
83 1 -4.236 -7.902 -2.917 
84 1 -3.697 -0.563 5.516 
85 1 8.837 6.988 -7.680 
86 1 -2.823 -5.633 -4.665 
87 1 -3.380 6.316 -5.909 
88 1 1.689 1.818 -2.916 
89 1 -2.762 -2.293 -3.975 
90 1 4.286 3.870 -2.736 
91 1 8.808 -7.108 0.404 
92 1 0.629 -8.639 4.403 
93 1 -4.462 2.797 -5.795 
94 1 7.885 3.082 -5.370 
95 1 0.822 -8.098 0.697 
96 1 -7.168 2.382 -2.301 
97 1 -4.524 3.726 4.488 
98 1 -8.038 0.791 -4.768 
99 1 -5.686 7.524 -2.407 
100 1 3.440 -0.854 -3.628 
101 1 -0.323 6.410 4.980 
102 1 -8.118 -4.195 1.749 
103 1 8.371 -4.871 -4.486 
104 1 -6.026 6.362 -7.616 
105 1 -5.615 -6.072 7.726 
106 1 5.158 -3.361 -4.890 
107 1 0.233 -2.268 1.700 
108 1 5.437 6.400 -8.336 
109 1 -4.168 4.057 0.831 
110 1 0.303 3.121 7.438 
111 1 -0.425 -3.140 6.556 
112 1 7.602 8.283 6.458 
113 1 8.538 0.591 -7.554 
114 1 6.486 2.963 6.744 
115 1 -7.003 -5.077 -7.761 
116 1 2.621 -3.373 -1.582 
117 1 5.497 -2.076 3.969 
118 1 -4.741 -1.931 -1.489 
119 1 7.952 -5.371 -8.451 
120 1 -2.072 -2.994 3.933 
121 1 4.530 3.043 -8.101 
122 1 -6.031 4.897 -4.091 
123 1 -3.852 7.213 0.131 
124 1 3.639 1.823 4.712 
125 1 1.737 -2.985 -5.999 
126 1 -8.330 -4.477 6.821 
127 1 -2.038 2.183 5.519 
128 1 8.200 8.195 -2.116 
129 1 -0.615 7.128 -7.870 
130 1 6.829 -2.333 -7.407 
131 1 -1.212 -0.003 3.422 
132 1 -7.921 7.990 4.567 
133 1 5.758 0.818 -5.774 
134 1 -8.471 -7.607 7.612 
135 1 6.565 -4.084 1.539 
136 1 0.192 0.028 6.376 
137 1 0.923 2.952 -0.057 
138 1 -0.798 8.223 -1.521 
139 1 -3.389 -7.933 -6.917 
140 1 -0.393 8.400 7.359 
141 1 -4.577 0.604 -3.465 
142 1 -8.025 0.442 3.254 
143 1 -3.904 -4.909 -1.822 
144 1 -2.520 8.924 5.092 
145 1 -7.326 4.738 4.679 
146 1 -5.480 -3.823 -4.665 
147 1 -7.476 -1.868 -3.043 
148 1 1.040 3.643 4.348 
149 1 -4.874 -2.602 -7.746 
150 1 -3.030 -5.626 5.506 
151 1 4.921 1.817 -0.504 
152 1 -6.968 3.100 1.886 
153 1 2.037 -1.619 4.292 
154 1 -0.228 -7.769 -8.309 
155 1 -2.865 4.056 -8.161 
156 1 0.869 5.058 -2.344 
157 1 7.515 3.938 -8.342 
158 1 -2.425 -1.450 8.415 
159 1 -7.505 3.753 -6.783 
160 1 -4.569 -3.296 6.938 
161 1 -6.305 -8.451 -8.158 
162 1 4.723 -5.013 4.411 
163 1 0.033 -3.790 -3.512 
164 1 5.203 6.283 6.649 
165 1 -2.780 5.940 -2.818 
166 1 -2.884 -5.064 -8.711 
167 1 -1.355 2.977 2.321 
168 1 -1.221 5.410 0.072 
169 1 -3.451 -1.368 1.349 
170 1 -7.390 6.371 1.857 
171 1 1.982 -0.371 -0.572 
172 1 2.710 7.068 4.923 
173 1 -2.715 2.932 -1.810 
174 1 -8.685 -2.205 8.895 
175 1 6.436 -3.097 7.242 
176 1 2.531 1.062 8.446 
177 1 6.433 8.092 -5.494 
178 1 1.571 0.975 2.345 
179 1 -4.128 -7.219 3.024 
180 1 -1.209 -2.292 -1.085 
181 1 6.889 -6.445 6.403 
182 1 -5.003 -3.743 2.919 
183 1 4.706 0.303 2.114 
184 1 -0.176 6.075 -5.003 
185 1 -8.943 0.069 -1.033 
186 1 -1.809 8.843 -4.547 
187 1 -3.053 -7.907 7.982 
188 1 6.063 3.364 3.181 
189 1 7.757 5.473 4.793 
190 1 2.830 -6.987 3.008 
191 1 -1.635 8.454 2.154 
192 1 -3.105 -0.091 -6.336 
193 1 -6.127 -6.891 -5.298 
194 1 3.202 6.798 -3.867 
195 1 8.928 0.038 6.712 
196 1 -3.484 7.222 8.862 
197 1 -3.949 1.550 8.190 
198 1 -1.042 1.172 -8.467 
199 1 5.470 -1.540 -0.999 
200 1 4.295 -8.199 -3.975 
ITEM: TIMESTEP
80
ITEM: NUMBER OF ATOMS
200
ITEM: BOX BOUNDS pp pp pp
-9.045920656144343 9.045920656144343
-9.045920656144343 9.045920656144343
-9.045920656144343 9.045920656144343
ITEM: ATOMS id type x y z
1 1 3.326 3.787 1.967 
2 1 3.503 5.844 -0.453 
3 1 2.582 2.773 -5.662 
4 1 -2.279 5.041 7.033 
5 1 -6.784 -1.424 1.018 
6 1 2.666 -8.320 7.205 
7 1 3.571 -2.714 1.488 
8 1 1.950 6.430 8.124 
9 1 3.295 8.442 1.686 
10 1 -7.117 5.183 -0.882 
11 1 1.126 -4.528 4.153 
12 1 7.729 8.607 2.744 
13 1 -7.228 -4.772 -1.948 
14 1 8.177 -6.223 3.569 
15 1 5.981 0.332 8.788 
16 1 1.398 8.915 -5.757 
17 1 -3.038 -7.688 -0.015 
18 1 0.628 -7.488 -3.203 
19 1 -4.560 1.108 2.894 
20 1 -1.247 0.261 -2.984 
21 1 0.899 -1.526 -8.889 
22 1 -0.082 -5.844 -5.893 
23 1 5.503 4.962 -5.533 
24 1 8.748 5.817 -4.100 
25 1 -7.158 7.536 7.730 
26 1 3.802 8.991 -7.855 
27 1 7.984 2.202 0.875 
28 1 -7.187 8.057 -5.186 
29 1 -1.248 2.978 -4.875 
30 1 -6.650 -1.824 4.892 
31 1 -5.076 1.110 -0.278 
32 1 1.045 6.219 2.021 
33 1 0.324 -0.015 -5.730 
34 1 -8.913 4.981 7.485 
35 1 -0.072 -6.475 6.606 
36 1 -7.725 2.143 8.525 
37 1 2.808 -4.035 6.818 
38 1 -1.030 -6.432 2.897 
39 1 -6.403 1.606 5.680 
40 1 0.355 3.992 -7.599 
41 1 -0.811 -5.686 -1.185 
42 1 8.901 -7.702 -6.184 
43 1 8.147 -3.279 -1.190 
44 1 3.278 -0.315 -6.996 
45 1 2.640 8.778 -1.504 
46 1 -5.490 -8.383 5.871 
47 1 -6.838 -5.939 4.383 
48 1 4.143 -6.301 -1.020 
49 1 4.045 -0.991 6.723 
50 1 2.679 6.001 -6.888 
51 1 -2.648 5.834 3.024 
52 1 3.442 3.881 6.964 
53 1 5.872 -6.376 -6.160 
54 1 5.928 7.989 -0.054 
55 1 3.977 -3.142 -8.426 
56 1 -6.111 -0.762 7.903 
57 1 5.215 6.401 3.024 
58 1 7.551 -1.405 -4.013 
59 1 2.785 -6.167 -7.095 
60 1 -1.330 0.674 0.190 
61 1 7.680 5.418 0.994 
62 1 -8.060 -2.299 -6.110 
63 1 5.027 -8.630 4.817 
64 1 -5.817 -5.923 0.597 
65 1 -5.529 4.382 7.913 
66 1 -7.667 -7.779 -2.669 
67 1 6.935 0.597 4.441 
68 1 6.964 1.599 -2.636 
69 1 0.578 -4.677 -8.870 
70 1 -4.717 6.642 5.812 
71 1 7.663 -1.145 1.576 
72 1 5.690 -7.252 1.637 
73 1 -6.701 -8.998 0.360 
74 1 -6.108 0.412 -7.231 
75 1 1.524 -4.999 0.840 
76 1 6.894 -8.565 -8.705 
77 1 -2.654 -4.468 1.042 
78 1 2.888 -5.435 -3.987 
79 1 4.727 -6.120 8.544 
80 1 8.450 -2.740 4.405 
81 1 -1.381 -2.866 -6.787 
82 1 -5.009 7.969 2.964 
83 1 -4.189 -7.928 -2.944 
84 1 -3.660 -0.566 5.533 
85 1 8.816 6.946 -7.679 
86 1 -2.928 -5.581 -4.826 
87 1 -3.421 6.421 -5.900 
88 1 1.597 1.804 -2.884 
89 1 -2.856 -2.308 -4.013 
90 1 4.295 3.820 -2.881 
91 1 8.720 -7.036 0.231 
92 1 0.689 -8.727 4.351 
93 1 -4.440 2.834 -5.753 
94 1 7.973 3.036 -5.207 
95 1 0.771 -7.997 0.623 
96 1 -7.254 2.439 -2.264 
97 1 -4.411 3.752 4.525 
98 1 -8.010 0.742 -4.723 
99 1 -5.795 7.578 -2.408 
100 1 3.454 -0.762 -3.684 
101 1 -0.309 6.305 4.993 
102 1 -8.264 -4.142 1.707 
103 1 8.421 -4.855 -4.400 
104 1 -6.086 6.276 -7.581 
105 1 -5.618 -6.008 7.876 
106 1 5.140 -3.395 -4.793 
107 1 0.238 -2.232 1.687 
108 1 5.603 6.388 -8.402 
109 1 -4.238 4.069 0.818 
110 1 0.347 3.337 7.413 
111 1 -0.497 -3.139 6.631 
112 1 7.691 8.326 6.490 
113 1 8.567 0.527 -7.499 
114 1 6.596 2.962 6.717 
115 1 -7.143 -5.028 -7.659 
116 1 2.702 -3.305 -1.646 
117 1 5.390 -2.127 4.064 
118 1 -4.701 -1.936 -1.407 
119 1 7.862 -5.282 -8.507 
120 1 -2.056 -3.125 3.926 
121 1 4.508 3.122 -8.136 
122 1 -6.068 4.935 -4.093 
123 1 -3.882 7.229 0.068 
124 1 3.698 1.616 4.817 
125 1 1.866 -3.021 -5.997 
126 1 -8.336 -4.474 6.761 
127 1 -1.967 2.194 5.582 
128 1 8.179 8.220 -2.160 
129 1 -0.673 7.105 -7.880 
130 1 6.826 -2.288 -7.274 
131 1 -1.248 -0.056 3.470 
132 1 -7.860 8.092 4.596 
133 1 5.769 0.869 -5.668 
134 1 -8.401 -7.584 7.701 
135 1 6.474 -4.161 1.480 
136 1 0.237 0.059 6.397 
137 1 0.959 2.963 0.004 
138 1 -0.791 8.181 -1.482 
139 1 -3.359 -8.012 -6.969 
140 1 -0.425 8.363 7.324 
141 1 -4.704 0.537 -3.533 
142 1 -8.163 0.490 3.244 
143 1 -3.909 -4.918 -1.883 
144 1 -2.497 8.944 5.000 
145 1 -7.336 4.676 4.715 
146 1 -5.583 -3.794 -4.700 
147 1 -7.404 -1.821 -3.011 
148 1 1.139 3.590 4.328 
149 1 -4.869 -2.638 -7.684 
150 1 -3.032 -5.720 5.553 
151 1 4.703 1.943 -0.457 
152 1 -7.094 3.104 1.802 
153 1 2.089 -1.540 4.291 
154 1 -0.153 -7.793 -8.328 
155 1 -2.821 4.110 -8.105 
156 1 0.943 5.066 -2.318 
157 1 7.586 3.747 -8.256 
158 1 -2.456 -1.407 8.514 
159 1 -7.468 3.612 -6.760 
160 1 -4.517 -3.306 6.885 
161 1 -6.336 -8.478 -8.085 
162 1 4.896 -5.142 4.514 
163 1 0.037 -3.692 -3.541 
164 1 5.297 6.343 6.583 
165 1 -2.841 5.960 -2.825 
166 1 -2.808 -5.028 -8.689 
167 1 -1.413 2.989 2.383 
168 1 -1.271 5.325 0.033 
169 1 -3.422 -1.404 1.433 
170 1 -7.532 6.379 1.946 
171 1 1.987 -0.371 -0.539 
172 1 2.735 6.993 4.911 
173 1 -2.751 2.909 -1.871 
174 1 -8.697 -2.278 8.921 
175 1 6.489 -3.137 7.258 
176 1 2.476 1.188 8.449 
177 1 6.539 8.079 -5.484 
178 1 1.543 0.969 2.387 
179 1 -4.162 -7.121 2.968 
180 1 -1.314 -2.341 -1.059 
181 1 7.010 -6.471 6.474 
182 1 -5.089 -3.732 2.950 
183 1 4.703 0.257 2.083 
184 1 -0.157 6.060 -4.988 
185 1 -8.915 -0.017 -1.013 
186 1 -1.736 8.877 -4.550 
187 1 -2.979 -7.855 7.942 
188 1 6.133 3.331 3.224 
189 1 7.791 5.617 4.640 
190 1 2.829 -6.896 3.024 
191 1 -1.509 8.490 2.002 
192 1 -3.010 -0.033 -6.373 
193 1 -6.071 -6.879 -5.293 
194 1 3.306 6.788 -3.872 
195 1 8.872 -0.051 6.743 
196 1 -3.606 7.319 8.874 
197 1 -3.939 1.578 8.232 
198 1 -0.930 1.228 -8.527 
199 1 5.466 -1.410 -1.059 
200 1 4.434 -8.213 -3.915 
ITEM: TIMESTEP
90
ITEM: NUMBER OF ATOMS
200
ITEM: BOX BOUNDS pp pp pp
-9.045920656144343 9.045920656144343
-9.045920656144343 9.045920656144343
-9.045920656144343 9.045920656144343
ITEM: ATOMS id type x y z
1 1 3.380 3.755 2.150 
2 1 3.659 5.679 -0.401 
3 1 2.673 2.714 -5.640 
4 1 -2.373 5.109 7.053 
5 1 -6.754 -1.398 1.152 
6 1 2.693 -8.365 7.105 
7 1 3.561 -2.677 1.471 
8 1 2.079 6.506 8.151 
9 1 3.175 8.437 1.791 
10 1 -7.399 5.337 -0.900 
11 1 1.050 -4.416 4.070 
12 1 7.813 8.527 2.535 
13 1 -7.261 -4.736 -1.942 
14 1 8.112 -6.351 3.483 
15 1 5.997 0.410 8.795 
16 1 1.502 8.898 -5.740 
17 1 -3.047 -7.688 -0.017 
18 1 0.743 -7.608 -3.068 
19 1 -4.709 1.083 2.875 
20 1 -1.318 0.196 -3.033 
21 1 0.967 -1.527 -8.900 
22 1 -0.035 -5.942 -5.783 
23 1 5.657 5.002 -5.587 
24 1 8.810 5.832 -4.022 
25 1 -7.126 7.520 7.736 
26 1 3.838 8.952 -7.946 
27 1 7.792 2.160 0.790 
28 1 -7.231 8.075 -5.215 
29 1 -1.186 2.943 -4.890 
30 1 -6.729 -1.761 4.900 
31 1 -5.083 1.091 -0.320 
32 1 1.017 6.091 1.948 
33 1 0.436 -0.009 -5.739 
34 1 9.009 5.087 7.496 
35 1 0.019 -6.478 6.540 
36 1 -7.799 2.168 8.472 
37 1 2.760 -4.163 6.756 
38 1 -1.002 -6.489 2.910 
39 1 -6.398 1.545 5.689 
40 1 0.451 3.991 -7.545 
41 1 -0.869 -5.642 -1.312 
42 1 8.948 -7.602 -6.209 
43 1 7.985 -3.398 -1.271 
44 1 3.405 -0.322 -7.098 
45 1 2.754 8.670 -1.414 
46 1 -5.411 -8.291 5.967 
47 1 -6.943 -6.053 4.293 
48 1 4.248 -6.234 -1.034 
49 1 3.911 -1.116 6.962 
50 1 2.785 5.998 -6.863 
51 1 -2.741 5.901 2.976 
52 1 3.501 3.932 6.820 
53 1 5.903 -6.338 -6.111 
54 1 5.792 8.104 -0.170 
55 1 4.037 -3.217 -8.483 
56 1 -6.105 -0.792 7.953 
57 1 5.251 6.374 2.871 
58 1 7.535 -1.324 -3.895 
59 1 2.843 -6.221 -7.071 
60 1 -1.331 0.712 0.173 
61 1 7.566 5.408 0.651 
62 1 -8.136 -2.239 -6.046 
63 1 5.089 -8.689 4.760 
64 1 -5.883 -5.943 0.582 
65 1 -5.574 4.401 7.872 
66 1 -7.692 -7.725 -2.725 
67 1 6.863 0.496 4.509 
68 1 6.909 1.642 -2.437 
69 1 0.647 -4.703 -8.827 
70 1 -4.777 6.680 5.710 
71 1 7.622 -1.239 1.580 
72 1 5.620 -7.342 1.657 
73 1 -6.903 -9.015 0.364 
74 1 -6.050 0.422 -7.207 
75 1 1.504 -4.937 0.716 
76 1 6.942 -8.527 -8.666 
77 1 -2.724 -4.536 1.044 
78 1 2.864 -5.489 -3.964 
79 1 4.710 -6.183 8.469 
80 1 8.380 -2.840 4.361 
81 1 -1.265 -2.853 -6.736 
82 1 -5.085 8.052 2.880 
83 1 -4.089 -7.982 -2.989 
84 1 -3.665 -0.522 5.554 
85 1 8.834 6.914 -7.677 
86 1 -2.982 -5.522 -4.995 
87 1 -3.455 6.570 -5.908 
88 1 1.466 1.854 -2.867 
89 1 -2.959 -2.339 -4.051 
90 1 4.324 3.771 -3.013 
91 1 8.573 -6.945 0.057 
92 1 0.757 -8.832 4.296 
93 1 -4.373 2.862 -5.683 
94 1 8.041 3.021 -5.020 
95 1 0.781 -7.916 0.496 
96 1 -7.343 2.503 -2.175 
97 1 -4.395 3.687 4.560 
98 1 -7.951 0.744 -4.670 
99 1 -5.882 7.634 -2.411 
100 1 3.439 -0.651 -3.732 
101 1 -0.340 6.202 4.937 
102 1 -8.356 -4.134 1.630 
103 1 8.436 -4.830 -4.374 
104 1 -6.121 6.158 -7.538 
105 1 -5.537 -5.952 8.076 
106 1 5.162 -3.408 -4.615 
107 1 0.224 -2.185 1.680 
108 1 5.711 6.376 -8.498 
109 1 -4.355 4.079 0.783 
110 1 0.372 3.594 7.440 
111 1 -0.553 -3.155 6.691 
112 1 7.781 8.356 6.552 
113 1 8.601 0.506 -7.455 
114 1 6.667 2.958 6.700 
115 1 -7.271 -5.013 -7.556 
116 1 2.808 -3.242 -1.727 
117 1 5.268 -2.172 4.160 
118 1 -4.690 -1.973 -1.323 
119 1 7.768 -5.217 -8.531 
120 1 -2.067 -3.157 3.931 
121 1 4.487 3.250 -8.198 
122 1 -6.067 4.944 -4.062 
123 1 -3.924 7.246 0.029 
124 1 3.713 1.442 4.913 
125 1 2.003 -3.039 -6.005 
126 1 -8.234 -4.450 6.733 
127 1 -1.913 2.221 5.689 
128 1 8.158 8.269 -2.161 
129 1 -0.719 7.077 -7.906 
130 1 6.776 -2.231 -7.162 
131 1 -1.245 -0.041 3.521 
132 1 -7.826 8.288 4.601 
133 1 5.774 0.958 -5.583 
134 1 -8.314 -7.541 7.806 
135 1 6.375 -4.242 1.459 
136 1 0.271 0.073 6.424 
137 1 1.010 3.025 0.075 
138 1 -0.783 8.089 -1.472 
139 1 -3.293 -8.080 -6.997 
140 1 -0.413 8.300 7.270 
141 1 -4.794 0.463 -3.573 
142 1 -8.293 0.565 3.252 
143 1 -3.958 -4.955 -1.965 
144 1 -2.475 8.940 4.907 
145 1 -7.332 4.578 4.797 
146 1 -5.689 -3.815 -4.720 
147 1 -7.367 -1.801 -2.963 
148 1 1.137 3.465 4.368 
149 1 -4.870 -2.680 -7.655 
150 1 -3.000 -5.745 5.571 
151 1 4.416 2.048 -0.440 
152 1 -7.248 3.113 1.692 
153 1 2.108 -1.493 4.325 
154 1 -0.031 -7.832 -8.350 
155 1 -2.764 4.169 -8.049 
156 1 1.025 5.151 -2.268 
157 1 7.628 3.625 -8.161 
158 1 -2.477 -1.382 8.579 
159 1 -7.435 3.460 -6.716 
160 1 -4.503 -3.302 6.821 
161 1 -6.296 -8.547 -8.038 
162 1 4.993 -5.237 4.559 
163 1 0.061 -3.537 -3.583 
164 1 5.404 6.370 6.472 
165 1 -2.902 5.968 -2.859 
166 1 -2.698 -4.993 -8.668 
167 1 -1.478 2.996 2.434 
168 1 -1.364 5.229 -0.014 
169 1 -3.384 -1.419 1.502 
170 1 -7.692 6.345 2.056 
171 1 1.960 -0.366 -0.560 
172 1 2.753 6.828 4.858 
173 1 -2.828 2.883 -1.954 
174 1 -8.712 -2.327 8.976 
175 1 6.535 -3.127 7.231 
176 1 2.423 1.329 8.458 
177 1 6.641 8.121 -5.483 
178 1 1.553 0.948 2.378 
179 1 -4.170 -7.054 2.960 
180 1 -1.387 -2.364 -1.040 
181 1 7.126 -6.494 6.498 
182 1 -5.154 -3.741 3.012 
183 1 4.745 0.268 2.060 
184 1 -0.137 6.046 -4.981 
185 1 -8.892 -0.073 -0.940 
186 1 -1.609 8.913 -4.569 
187 1 -2.857 -7.832 7.941 
188 1 6.251 3.325 3.328 
189 1 7.897 5.780 4.474 
190 1 2.781 -6.796 3.016 
191 1 -1.424 8.428 1.914 
192 1 -2.913 0.012 -6.380 
193 1 -5.995 -6.912 -5.305 
194 1 3.446 6.796 -3.861 
195 1 8.864 -0.146 6.759 
196 1 -3.732 7.381 8.858 
197 1 -3.951 1.618 8.302 
198 1 -0.857 1.274 -8.596 
199 1 5.465 -1.257 -1.066 
200 1 4.582 -8.202 -3.797 
ITEM: TIMESTEP
100
ITEM: NUMBER OF ATOMS
200
ITEM: BOX BOUNDS pp pp pp
-9.045920656144343 9.045920656144343
-9.045920656144343 9.045920656144343
-9.045920656144343 9.045920656144343
ITEM: ATOMS id type x y z
1 1 3.441 3.710 2.326 
2 1 3.811 5.529 -0.340 
3 1 2.742 2.607 -5.667 
4 1 -2.442 5.185 7.042 
5 1 -6.755 -1.382 1.263 
6 1 2.730 -8.426 6.994 
7 1 3.524 -2.603 1.457 
8 1 2.222 6.552 8.175 
9 1 3.085 8.419 1.866 
10 1 -7.604 5.484 -0.935 
11 1 0.965 -4.362 4.023 
12 1 7.900 8.530 2.288 
13 1 -7.345 -4.696 -1.840 
14 1 8.075 -6.421 3.400 
15 1 6.030 0.433 8.763 
16 1 1.629 8.881 -5.697 
17 1 -3.022 -7.697 -0.009 
18 1 0.851 -7.673 -2.977 
19 1 -4.838 1.078 2.854 
20 1 -1.327 0.155 -3.083 
21 1 0.999 -1.527 -8.889 
22 1 0.004 -6.003 -5.706 
23 1 5.780 5.043 -5.639 
24 1 8.804 5.879 -3.970 
25 1 -7.135 7.512 7.706 
26 1 3.853 8.923 -8.025 
27 1 7.607 2.120 0.821 
28 1 -7.244 8.058 -5.234 
29 1 -1.146 2.922 -4.893 
30 1 -6.787 -1.732 4.871 
31 1 -5.103 1.056 -0.351 
32 1 1.016 5.969 1.867 
33 1 0.532 -0.001 -5.769 
34 1 8.879 5.165 7.508 
35 1 0.097 -6.504 6.501 
36 1 -7.866 2.205 8.449 
37 1 2.742 -4.247 6.697 
38 1 -0.974 -6.545 2.882 
39 1 -6.397 1.490 5.725 
40 1 0.513 3.976 -7.491 
41 1 -0.932 -5.619 -1.467 
42 1 8.990 -7.561 -6.205 
43 1 7.811 -3.448 -1.323 
44 1 3.535 -0.374 -7.199 
45 1 2.736 8.503 -1.348 
46 1 -5.354 -8.237 6.065 
47 1 -6.999 -6.156 4.235 
48 1 4.313 -6.165 -1.016 
49 1 3.804 -1.169 7.097 
50 1 2.854 5.981 -6.821 
51 1 -2.880 5.936 2.919 
52 1 3.522 3.943 6.718 
53 1 5.916 -6.318 -6.040 
54 1 5.722 8.150 -0.235 
55 1 4.089 -3.354 -8.511 
56 1 -6.118 -0.834 7.990 
57 1 5.312 6.393 2.759 
58 1 7.541 -1.219 -3.849 
59 1 2.890 -6.264 -7.078 
60 1 -1.342 0.768 0.143 
61 1 7.479 5.385 0.434 
62 1 -8.168 -2.199 -6.000 
63 1 5.153 -8.747 4.721 
64 1 -5.917 -6.036 0.592 
65 1 -5.607 4.413 7.827 
66 1 -7.696 -7.658 -2.790 
67 1 6.806 0.431 4.587 
68 1 6.850 1.666 -2.329 
69 1 0.705 -4.720 -8.801 
70 1 -4.862 6.698 5.601 
71 1 7.608 -1.315 1.613 
72 1 5.537 -7.400 1.684 
73 1 -7.154 9.039 0.346 
74 1 -5.998 0.397 -7.176 
75 1 1.456 -4.855 0.598 
76 1 6.978 -8.496 -8.616 
77 1 -2.742 -4.551 1.022 
78 1 2.881 -5.525 -3.969 
79 1 4.719 -6.281 8.378 
80 1 8.332 -2.968 4.358 
81 1 -1.184 -2.831 -6.696 
82 1 -5.166 8.154 2.795 
83 1 -3.970 -8.047 -3.039 
84 1 -3.681 -0.481 5.568 
85 1 8.853 6.906 -7.661 
86 1 -2.995 -5.462 -5.106 
87 1 -3.487 6.714 -5.921 
88 1 1.390 1.961 -2.858 
89 1 -3.035 -2.371 -4.064 
90 1 4.379 3.746 -3.097 
91 1 8.404 -6.859 -0.095 
92 1 0.802 -8.914 4.267 
93 1 -4.326 2.880 -5.633 
94 1 8.095 3.026 -4.871 
95 1 0.780 -7.857 0.406 
96 1 -7.417 2.568 -2.085 
97 1 -4.372 3.646 4.590 
98 1 -7.886 0.766 -4.620 
99 1 -5.925 7.692 -2.410 
100 1 3.423 -0.550 -3.770 
101 1 -0.387 6.114 4.834 
102 1 -8.399 -4.145 1.557 
103 1 8.461 -4.804 -4.375 
104 1 -6.124 6.065 -7.529 
105 1 -5.432 -5.932 8.261 
106 1 5.217 -3.405 -4.427 
107 1 0.183 -2.135 1.678 
108 1 5.772 6.389 -8.593 
109 1 -4.471 4.085 0.732 
110 1 0.386 3.824 7.480 
111 1 -0.584 -3.182 6.732 
112 1 7.830 8.385 6.630 
113 1 8.618 0.503 -7.412 
114 1 6.693 2.939 6.740 
115 1 -7.357 -5.010 -7.492 
116 1 2.923 -3.203 -1.794 
117 1 5.187 -2.217 4.209 
118 1 -4.716 -2.041 -1.254 
119 1 7.683 -5.175 -8.525 
120 1 -2.101 -3.132 3.947 
121 1 4.491 3.339 -8.260 
122 1 -6.075 4.943 -4.019 
123 1 -3.947 7.260 -0.004 
124 1 3.700 1.338 4.972 
125 1 2.119 -3.050 -6.005 
126 1 -8.068 -4.416 6.732 
127 1 -1.884 2.250 5.818 
128 1 8.163 8.337 -2.133 
129 1 -0.737 7.055 -7.920 
130 1 6.709 -2.182 -7.073 
131 1 -1.231 0.013 3.564 
132 1 -7.854 8.530 4.554 
133 1 5.775 1.056 -5.565 
134 1 -8.248 -7.487 7.906 
135 1 6.286 -4.287 1.464 
136 1 0.278 0.061 6.463 
137 1 1.035 3.086 0.137 
138 1 -0.798 8.035 -1.478 
139 1 -3.210 -8.091 -7.018 
140 1 -0.368 8.209 7.220 
141 1 -4.801 0.410 -3.581 
142 1 -8.390 0.639 3.281 
143 1 -4.047 -5.020 -2.019 
144 1 -2.465 8.914 4.861 
145 1 -7.385 4.453 4.851 
146 1 -5.789 -3.871 -4.684 
147 1 -7.378 -1.785 -2.911 
148 1 1.068 3.300 4.414 
149 1 -4.864 -2.741 -7.617 
150 1 -2.935 -5.745 5.596 
151 1 4.200 2.072 -0.460 
152 1 -7.389 3.094 1.553 
153 1 2.075 -1.487 4.361 
154 1 0.111 -7.886 -8.364 
155 1 -2.731 4.225 -8.019 
156 1 1.119 5.272 -2.201 
157 1 7.652 3.599 -8.073 
158 1 -2.503 -1.376 8.608 
159 1 -7.414 3.369 -6.674 
160 1 -4.530 -3.315 6.761 
161 1 -6.236 -8.635 -8.022 
162 1 5.026 -5.319 4.567 
163 1 0.109 -3.394 -3.606 
164 1 5.473 6.357 6.362 
165 1 -2.943 5.972 -2.902 
166 1 -2.583 -4.956 -8.670 
167 1 -1.563 3.022 2.467 
168 1 -1.446 5.146 -0.067 
169 1 -3.365 -1.395 1.541 
170 1 -7.713 6.279 2.132 
171 1 1.863 -0.388 -0.652 
172 1 2.752 6.656 4.791 
173 1 -2.917 2.859 -2.041 
174 1 -8.756 -2.360 9.024 
175 1 6.544 -3.089 7.213 
176 1 2.376 1.426 8.482 
177 1 6.684 8.181 -5.481 
178 1 1.595 0.894 2.322 
179 1 -4.138 -7.006 2.986 
180 1 -1.427 -2.360 -1.042 
181 1 7.249 -6.454 6.482 
182 1 -5.187 -3.775 3.042 
183 1 4.811 0.324 2.054 
184 1 -0.115 6.029 -4.962 
185 1 -8.887 -0.064 -0.855 
186 1 -1.466 8.943 -4.608 
187 1 -2.716 -7.826 7.945 
188 1 6.372 3.365 3.470 
189 1 7.991 5.949 4.400 
190 1 2.709 -6.723 2.978 
191 1 -1.327 8.366 1.856 
192 1 -2.838 0.037 -6.366 
193 1 -5.914 -6.965 -5.340 
194 1 3.619 6.811 -3.850 
195 1 8.879 -0.205 6.774 
196 1 -3.811 7.432 8.822 
197 1 -3.991 1.642 8.375 
198 1 -0.848 1.317 -8.648 
199 1 5.449 -1.145 -1.046 
200 1 4.714 -8.188 -3.623 
