ITEM: TIMESTEP
0
ITEM: NUMBER OF ATOMS
200
ITEM: BOX BOUNDS pp pp pp
-9.855748163310864 9.855748163310864
-9.855748163310864 9.855748163310864
-9.855748163310864 9.855748163310864
ITEM: ATOMS id type x y z
1 1 3.424 4.200 2.247 
2 1 3.690 6.416 -0.326 
3 1 2.374 2.940 -6.531 
4 1 -2.390 5.425 7.875 
5 1 -7.358 -1.614 1.229 
6 1 3.031 -9.763 7.840 
7 1 3.743 -2.892 1.678 
8 1 1.686 6.708 8.728 
9 1 3.476 9.222 2.022 
10 1 -7.204 5.568 -0.899 
11 1 1.152 -4.719 4.526 
12 1 8.540 9.507 3.143 
13 1 -7.892 -5.241 -2.335 
14 1 8.653 -6.557 3.997 
15 1 6.493 0.461 9.688 
16 1 1.402 9.722 -6.445 
17 1 -3.452 -8.457 0.070 
18 1 0.759 -8.256 -3.550 
19 1 -4.811 1.185 3.172 
20 1 -1.008 0.314 -3.081 
21 1 0.870 -1.634 -9.586 
22 1 -0.061 -6.329 -6.371 
23 1 5.969 5.406 -6.113 
24 1 9.539 6.628 -5.046 
25 1 -7.520 8.173 8.375 
26 1 4.218 9.690 -8.480 
27 1 8.637 2.416 1.224 
28 1 -7.582 8.905 -5.771 
29 1 -1.314 3.219 -5.311 
30 1 -7.154 -1.968 5.315 
31 1 -5.528 1.099 -0.254 
32 1 0.946 6.762 2.204 
33 1 0.236 -0.091 -6.279 
34 1 -9.812 5.599 8.354 
35 1 0.180 -7.086 7.122 
36 1 -8.449 2.388 9.155 
37 1 2.911 -4.035 7.433 
38 1 -0.987 -7.142 3.363 
39 1 -6.814 1.687 6.128 
40 1 -0.028 4.643 -8.387 
41 1 -0.986 -6.410 -1.360 
42 1 9.774 -8.420 -6.941 
43 1 9.049 -3.315 -1.199 
44 1 3.564 -0.400 -7.623 
45 1 2.874 9.473 -1.654 
46 1 -5.895 -9.057 6.349 
47 1 -7.632 -6.591 4.678 
48 1 4.054 -6.928 -0.878 
49 1 4.668 -1.035 7.247 
50 1 2.896 6.449 -7.715 
51 1 -2.867 6.395 3.142 
52 1 3.840 4.255 7.588 
53 1 6.453 -6.994 -6.783 
54 1 6.398 8.754 0.029 
55 1 4.303 -3.623 -9.072 
56 1 -6.607 -0.850 8.589 
57 1 5.825 7.158 3.334 
58 1 8.279 -1.573 -4.559 
59 1 3.102 -6.848 -7.618 
60 1 -1.673 0.767 0.294 
61 1 8.496 6.012 1.267 
62 1 -8.613 -2.373 -6.699 
63 1 5.428 -9.375 5.179 
64 1 -6.401 -6.408 0.570 
65 1 -6.036 4.823 8.371 
66 1 -8.476 -8.600 -2.907 
67 1 7.509 0.694 4.843 
68 1 7.345 1.358 -2.719 
69 1 0.852 -5.067 -9.612 
70 1 -4.800 7.338 6.225 
71 1 8.371 -1.218 1.697 
72 1 6.200 -7.907 1.806 
73 1 -7.186 9.851 0.337 
74 1 -6.652 0.502 -7.976 
75 1 1.305 -5.290 0.961 
76 1 7.443 -9.279 -9.584 
77 1 -2.766 -5.039 1.255 
78 1 3.087 -5.809 -4.260 
79 1 4.696 -6.798 8.986 
80 1 9.257 -2.891 4.798 
81 1 -1.562 -3.208 -7.406 
82 1 -5.306 8.860 3.174 
83 1 -4.631 -8.483 -3.142 
84 1 -3.889 -0.606 6.075 
85 1 9.691 7.805 -8.502 
86 1 -3.158 -5.999 -5.210 
87 1 -3.770 7.093 -6.466 
88 1 2.099 2.105 -3.258 
89 1 -2.984 -2.400 -4.336 
90 1 4.945 4.460 -2.994 
91 1 9.639 -7.711 0.476 
92 1 1.057 -9.688 4.706 
93 1 -4.895 3.017 -6.039 
94 1 8.648 3.339 -5.259 
95 1 0.895 -8.643 0.662 
96 1 -7.493 2.713 -2.661 
97 1 -4.788 4.162 4.814 
98 1 -8.703 0.832 -5.168 
99 1 -6.201 8.301 -2.691 
100 1 3.820 -0.885 -4.009 
101 1 -0.507 6.898 5.455 
102 1 -9.058 -4.526 1.928 
103 1 9.291 -5.165 -5.225 
104 1 -6.710 6.584 -8.273 
105 1 -6.099 -6.490 8.649 
106 1 5.565 -3.705 -5.389 
107 1 0.222 -2.211 1.824 
108 1 6.272 6.891 -9.220 
109 1 -4.450 4.190 0.972 
110 1 0.443 3.452 8.135 
111 1 -0.778 -3.571 7.413 
112 1 8.531 9.023 7.041 
113 1 9.410 0.541 -8.199 
114 1 7.257 3.238 7.398 
115 1 -7.955 -5.512 -8.317 
116 1 2.899 -3.551 -1.693 
117 1 5.903 -2.362 4.318 
118 1 -5.178 -2.135 -1.492 
119 1 8.443 -5.728 -9.372 
120 1 -2.191 -3.402 4.301 
121 1 4.856 3.425 -8.862 
122 1 -6.718 5.550 -4.645 
123 1 -4.200 7.723 0.062 
124 1 3.966 1.742 5.256 
125 1 1.949 -3.272 -6.465 
126 1 -9.136 -4.952 7.336 
127 1 -2.124 2.482 6.037 
128 1 9.252 8.379 -1.966 
129 1 -0.914 8.006 -8.559 
130 1 7.437 -2.453 -8.042 
131 1 -1.353 -0.004 3.817 
132 1 -8.383 8.661 5.029 
133 1 6.318 1.006 -6.256 
134 1 -9.063 -8.328 8.482 
135 1 6.967 -4.485 1.522 
136 1 0.024 -0.062 7.102 
137 1 1.008 3.124 -0.117 
138 1 -0.915 8.927 -1.522 
139 1 -3.556 -8.585 -7.579 
140 1 -0.491 9.219 7.956 
141 1 -4.987 0.432 -3.811 
142 1 -8.918 0.490 3.593 
143 1 -4.196 -5.282 -1.975 
144 1 -2.575 -9.742 5.339 
145 1 -7.979 5.019 5.328 
146 1 -5.988 -3.980 -5.067 
147 1 -8.104 -1.898 -3.238 
148 1 1.190 3.909 4.857 
149 1 -5.340 -3.028 -8.458 
150 1 -3.169 -6.252 6.141 
151 1 4.611 2.074 -0.587 
152 1 -7.633 3.297 2.047 
153 1 2.270 -1.491 4.748 
154 1 -0.236 -8.332 -9.165 
155 1 -3.487 4.448 -8.762 
156 1 1.100 5.522 -2.574 
157 1 8.275 3.917 -8.795 
158 1 -2.764 -1.449 9.372 
159 1 -8.236 3.699 -7.301 
160 1 -4.839 -3.596 7.450 
161 1 -6.741 -9.264 -8.808 
162 1 5.288 -5.596 5.228 
163 1 0.003 -4.073 -3.740 
164 1 5.720 7.110 7.134 
165 1 -3.046 6.458 -3.146 
166 1 -2.836 -5.437 -9.758 
167 1 -1.371 3.314 2.620 
168 1 -1.393 5.660 -0.103 
169 1 -3.740 -1.683 1.638 
170 1 -7.928 6.819 2.177 
171 1 1.939 -0.370 -0.698 
172 1 2.915 7.072 5.212 
173 1 -3.101 3.088 -2.144 
174 1 -9.417 -2.532 9.706 
175 1 7.129 -3.466 7.862 
176 1 2.781 1.172 9.109 
177 1 7.011 8.916 -6.141 
178 1 1.689 1.107 2.555 
179 1 -4.521 -7.558 3.259 
180 1 -1.602 -2.607 -1.074 
181 1 7.634 -7.209 7.204 
182 1 -5.533 -4.181 3.282 
183 1 5.169 0.349 2.245 
184 1 -0.175 6.661 -5.467 
185 1 -9.436 0.294 -0.963 
186 1 -1.976 9.690 -4.857 
187 1 -3.303 -8.630 8.664 
188 1 6.479 3.721 3.605 
189 1 8.515 6.036 5.134 
190 1 3.076 -7.268 3.213 
191 1 -1.568 9.253 2.131 
192 1 -3.357 -0.091 -7.016 
193 1 -6.623 -7.371 -5.725 
194 1 3.475 7.402 -4.413 
195 1 9.737 -0.144 7.271 
196 1 -4.070 7.923 9.677 
197 1 -4.292 1.768 8.839 
198 1 -1.080 1.429 -9.221 
199 1 5.891 -1.535 -1.021 
200 1 4.465 -8.936 -4.566 
ITEM: TIMESTEP
1000
ITEM: NUMBER OF ATOMS
200
ITEM: BOX BOUNDS pp pp pp
-9.855748163310864 9.855748163310864
-9.855748163310864 9.855748163310864
-9.855748163310864 9.855748163310864
ITEM: ATOMS id type x y z
1 1 4.077 3.904 2.262 
2 1 3.821 6.222 -0.382 
3 1 2.595 2.882 -6.562 
4 1 -2.477 6.073 7.867 
5 1 -7.314 -1.420 1.004 
6 1 2.780 -9.591 8.077 
7 1 3.315 -3.068 2.166 
8 1 2.313 7.038 8.835 
9 1 3.163 9.267 1.956 
10 1 -7.099 5.727 -1.318 
11 1 1.346 -4.919 4.526 
12 1 8.406 9.488 3.686 
13 1 -7.786 -5.187 -2.175 
14 1 9.092 -6.694 4.262 
15 1 6.180 0.603 9.698 
16 1 1.458 9.505 -6.706 
17 1 -3.452 -8.303 0.431 
18 1 0.781 -8.367 -3.505 
19 1 -5.630 1.153 3.320 
20 1 -1.431 0.436 -3.375 
21 1 1.064 -1.454 9.731 
22 1 0.000 -6.627 -6.327 
23 1 6.341 5.292 -6.031 
24 1 9.831 6.317 -4.849 
25 1 -7.607 8.681 8.265 
26 1 4.576 -9.810 -8.329 
27 1 8.402 2.530 0.915 
28 1 -7.367 9.171 -5.703 
29 1 -1.317 3.364 -5.081 
30 1 -6.979 -2.258 4.873 
31 1 -5.486 0.949 -0.448 
32 1 0.832 6.581 2.201 
33 1 0.270 -0.283 -6.393 
34 1 -9.526 5.872 8.718 
35 1 0.870 -6.960 7.082 
36 1 -8.537 1.937 9.134 
37 1 2.899 -3.607 7.513 
38 1 -0.600 -7.062 2.937 
39 1 -6.811 1.780 6.324 
40 1 0.639 4.669 -8.486 
41 1 -1.197 -6.355 -1.315 
42 1 -9.807 -8.366 -6.796 
43 1 8.890 -3.765 -2.049 
44 1 3.462 0.049 -7.578 
45 1 3.518 9.693 -1.210 
46 1 -6.024 -8.923 6.506 
47 1 -7.478 -6.818 4.609 
48 1 4.007 -6.653 -1.664 
49 1 4.682 -0.941 7.195 
50 1 3.284 6.199 -7.151 
51 1 -2.637 6.354 3.137 
52 1 3.661 3.901 7.435 
53 1 6.670 -7.311 -6.129 
54 1 6.386 8.700 0.341 
55 1 3.992 -3.198 -8.497 
56 1 -6.595 -1.049 8.233 
57 1 5.646 7.170 3.547 
58 1 7.920 -1.435 -4.798 
59 1 2.847 -7.141 -7.697 
60 1 -1.522 0.800 -0.035 
61 1 8.432 6.460 1.410 
62 1 -8.989 -2.564 -6.631 
63 1 5.320 -9.167 5.592 
64 1 -6.453 -6.636 0.770 
65 1 -5.800 5.125 8.670 
66 1 -9.274 -9.404 -2.923 
67 1 7.766 0.521 4.937 
68 1 7.420 1.604 -2.711 
69 1 1.278 -5.005 -9.322 
70 1 -4.803 7.385 6.196 
71 1 8.177 -1.125 1.768 
72 1 6.264 -7.898 2.077 
73 1 -6.997 -9.719 0.364 
74 1 -6.329 0.588 -7.784 
75 1 1.122 -5.041 1.038 
76 1 7.634 -9.401 -9.358 
77 1 -2.486 -4.585 1.293 
78 1 3.068 -5.813 -4.653 
79 1 4.984 -6.996 9.257 
80 1 9.175 -2.411 5.092 
81 1 -0.893 -3.226 -7.166 
82 1 -4.924 8.512 3.266 
83 1 -3.883 -8.706 -3.269 
84 1 -4.199 -0.341 6.081 
85 1 9.500 7.430 -8.386 
86 1 -2.999 -5.581 -5.230 
87 1 -3.840 7.052 -6.779 
88 1 1.654 2.037 -3.464 
89 1 -3.425 -2.562 -4.591 
90 1 5.078 4.179 -3.344 
91 1 9.432 -8.426 0.817 
92 1 1.429 -9.488 4.960 
93 1 -5.468 3.236 -6.161 
94 1 8.925 3.450 -4.997 
95 1 1.125 -8.616 0.452 
96 1 -7.280 2.783 -3.195 
97 1 -4.956 4.373 4.964 
98 1 -8.841 0.983 -5.128 
99 1 -5.782 8.554 -2.602 
100 1 4.767 -0.181 -4.204 
101 1 -0.236 6.833 5.557 
102 1 -8.981 -4.066 2.190 
103 1 8.842 -5.168 -5.222 
104 1 -6.753 6.505 -8.265 
105 1 -6.081 -6.718 8.577 
106 1 5.388 -3.789 -5.374 
107 1 -0.055 -2.274 1.754 
108 1 6.306 7.303 -8.843 
109 1 -4.961 4.123 1.138 
110 1 0.271 3.875 8.027 
111 1 -0.512 -3.955 7.611 
112 1 8.677 9.185 7.049 
113 1 9.115 0.775 -8.085 
114 1 6.674 3.009 7.509 
115 1 -7.986 -5.921 -8.363 
116 1 3.274 -3.814 -2.033 
117 1 5.685 -2.213 4.006 
118 1 -5.019 -2.292 -1.767 
119 1 8.267 -5.898 -9.240 
120 1 -1.746 -3.395 4.603 
121 1 5.186 3.953 -9.184 
122 1 -6.765 6.002 -4.893 
123 1 -4.059 7.582 0.331 
124 1 4.338 1.434 5.047 
125 1 2.166 -3.012 -5.888 
126 1 -8.666 -5.353 7.342 
127 1 -2.512 2.811 6.092 
128 1 8.860 7.584 -2.233 
129 1 -1.126 8.290 -8.243 
130 1 7.397 -2.693 -8.608 
131 1 -1.362 -0.013 4.268 
132 1 -8.114 9.020 4.490 
133 1 5.918 1.667 -6.433 
134 1 -9.242 -8.382 9.269 
135 1 7.062 -4.320 1.162 
136 1 0.177 0.759 7.224 
137 1 1.160 3.169 0.040 
138 1 -0.806 8.980 -1.574 
139 1 -3.245 -8.595 -7.207 
140 1 -0.572 8.756 8.250 
141 1 -5.251 0.386 -4.122 
142 1 -8.949 0.247 3.351 
143 1 -4.243 -5.480 -1.678 
144 1 -2.390 9.547 5.238 
145 1 -7.959 5.765 5.643 
146 1 -6.466 -4.278 -5.013 
147 1 -7.989 -1.718 -3.229 
148 1 0.541 3.834 4.560 
149 1 -5.020 -2.424 -8.225 
150 1 -2.868 -6.466 6.408 
151 1 4.552 2.337 -0.716 
152 1 -8.244 3.096 2.050 
153 1 1.987 -1.674 4.705 
154 1 -0.197 -8.217 -9.535 
155 1 -2.931 4.155 -8.699 
156 1 1.673 5.087 -2.437 
157 1 8.292 3.971 -8.891 
158 1 -2.920 -1.741 9.170 
159 1 -8.554 3.811 -7.657 
160 1 -4.867 -4.077 7.288 
161 1 -6.526 -9.197 -8.799 
162 1 5.107 -5.292 5.681 
163 1 0.153 -4.165 -3.609 
164 1 5.584 7.406 7.293 
165 1 -3.689 6.205 -3.331 
166 1 -2.689 -4.990 -9.850 
167 1 -2.009 2.881 2.409 
168 1 -1.052 5.762 -0.622 
169 1 -3.669 -1.506 1.958 
170 1 -7.679 6.247 1.912 
171 1 1.853 -0.586 -1.060 
172 1 3.005 6.064 5.324 
173 1 -3.065 3.046 -1.971 
174 1 -9.312 -2.720 9.573 
175 1 7.103 -3.520 7.853 
176 1 2.564 1.573 9.408 
177 1 6.229 8.656 -4.832 
178 1 1.651 0.675 2.167 
179 1 -4.328 -7.577 3.606 
180 1 -1.750 -2.668 -1.371 
181 1 8.044 -7.040 7.368 
182 1 -5.104 -4.470 3.538 
183 1 5.405 0.662 1.858 
184 1 -0.151 6.375 -5.552 
185 1 -9.375 0.370 -0.959 
186 1 -1.535 9.178 -4.795 
187 1 -3.176 -8.378 8.762 
188 1 6.647 3.580 3.583 
189 1 7.971 5.818 5.949 
190 1 3.317 -7.411 3.194 
191 1 -1.227 9.011 1.781 
192 1 -2.906 0.184 -7.213 
193 1 -6.217 -7.602 -5.974 
194 1 2.912 7.916 -4.096 
195 1 9.444 -0.162 7.629 
196 1 -4.281 8.276 -9.768 
197 1 -4.550 1.484 8.742 
198 1 -0.922 1.540 -9.382 
199 1 5.602 -1.585 -0.581 
200 1 3.840 -8.752 -4.737 
ITEM: TIMESTEP
2000
ITEM: NUMBER OF ATOMS
200
ITEM: BOX BOUNDS pp pp pp
-9.855748163310864 9.855748163310864
-9.855748163310864 9.855748163310864
-9.855748163310864 9.855748163310864
ITEM: ATOMS id type x y z
1 1 3.371 4.375 2.540 
2 1 3.689 6.030 -0.431 
3 1 2.484 3.079 -6.071 
4 1 -2.211 6.654 8.245 
5 1 -7.453 -1.691 0.992 
6 1 3.262 -9.788 8.191 
7 1 3.792 -3.128 1.364 
8 1 2.560 6.477 9.265 
9 1 3.032 9.310 2.093 
10 1 -7.248 6.027 -1.424 
11 1 1.509 -5.702 5.087 
12 1 8.347 9.086 3.861 
13 1 -8.728 -6.282 -2.562 
14 1 8.723 -6.687 4.211 
15 1 5.801 0.663 -9.482 
16 1 1.711 9.250 -6.891 
17 1 -3.415 -8.779 -0.127 
18 1 0.587 -8.064 -2.862 
19 1 -5.617 1.174 3.065 
20 1 -1.045 0.196 -3.290 
21 1 1.035 -1.324 -9.553 
22 1 0.165 -7.028 -5.974 
23 1 6.530 5.653 -5.762 
24 1 9.850 6.729 -5.170 
25 1 -7.408 8.304 8.840 
26 1 4.938 9.604 -7.776 
27 1 8.455 2.889 0.873 
28 1 -7.412 9.236 -5.763 
29 1 -1.516 2.753 -5.322 
30 1 -6.533 -2.431 4.289 
31 1 -5.340 0.983 -0.427 
32 1 0.925 6.595 2.406 
33 1 0.132 0.412 -6.669 
34 1 -9.317 5.634 8.937 
35 1 0.265 -7.458 7.366 
36 1 -8.845 2.062 9.789 
37 1 2.845 -2.926 8.197 
38 1 -1.099 -7.559 3.536 
39 1 -7.081 2.122 6.439 
40 1 0.282 5.008 -8.602 
41 1 -1.600 -6.137 -1.806 
42 1 9.529 -8.572 -6.432 
43 1 8.384 -3.490 -2.084 
44 1 3.715 -0.034 -7.166 
45 1 2.848 9.343 -1.356 
46 1 -6.030 -9.164 6.865 
47 1 -7.854 -7.160 4.451 
48 1 3.732 -7.343 -1.435 
49 1 5.206 -0.995 7.168 
50 1 3.344 6.337 -7.227 
51 1 -2.525 6.859 3.694 
52 1 3.621 3.689 7.200 
53 1 6.179 -7.362 -6.909 
54 1 6.169 8.977 -0.531 
55 1 3.881 -3.179 -8.388 
56 1 -6.862 -0.769 8.584 
57 1 5.677 6.703 2.930 
58 1 8.021 -1.116 -4.756 
59 1 3.136 -7.402 -7.721 
60 1 -1.866 0.641 0.140 
61 1 8.428 6.487 1.727 
62 1 -8.940 -2.712 -6.833 
63 1 5.574 -8.960 5.649 
64 1 -6.589 -6.563 0.927 
65 1 -5.544 4.475 8.212 
66 1 9.477 -9.829 -2.612 
67 1 7.294 0.422 4.668 
68 1 7.387 2.070 -2.128 
69 1 0.710 -5.214 -9.307 
70 1 -4.805 7.397 6.246 
71 1 8.142 -1.386 1.274 
72 1 6.250 -8.386 2.064 
73 1 -6.757 -9.646 0.180 
74 1 -7.121 0.223 -7.576 
75 1 1.028 -5.039 0.932 
76 1 7.826 -8.992 -9.368 
77 1 -2.403 -4.859 1.087 
78 1 3.098 -5.787 -4.530 
79 1 5.011 -6.352 8.855 
80 1 9.668 -2.441 5.286 
81 1 -0.723 -2.901 -7.027 
82 1 -5.348 8.656 2.869 
83 1 -3.397 -8.112 -3.736 
84 1 -3.794 -0.868 6.478 
85 1 -9.762 8.148 -8.353 
86 1 -3.416 -5.462 -5.444 
87 1 -4.326 7.827 -6.299 
88 1 2.505 1.744 -3.109 
89 1 -3.118 -2.211 -4.760 
90 1 4.688 4.341 -3.552 
91 1 9.631 -8.659 1.068 
92 1 1.306 9.711 4.941 
93 1 -5.140 3.081 -5.621 
94 1 8.931 3.453 -5.047 
95 1 0.295 -8.615 0.219 
96 1 -7.630 2.674 -2.344 
97 1 -5.285 4.111 4.375 
98 1 -8.872 0.927 -4.531 
99 1 -5.664 9.068 -2.622 
100 1 4.702 -0.934 -3.876 
101 1 0.112 6.597 5.521 
102 1 -9.270 -4.452 1.760 
103 1 9.259 -5.126 -5.264 
104 1 -7.172 6.465 -8.141 
105 1 -6.081 -6.718 8.577 
106 1 5.918 -4.052 -4.988 
107 1 -0.084 -1.932 1.719 
108 1 6.523 6.705 -8.643 
109 1 -5.067 4.028 0.878 
110 1 0.180 4.040 7.417 
111 1 -0.567 -3.479 7.921 
112 1 9.285 8.853 7.597 
113 1 9.166 0.412 -7.805 
114 1 6.890 2.682 7.771 
115 1 -7.698 -5.789 -8.115 
116 1 3.448 -4.114 -1.690 
117 1 5.609 -2.338 4.151 
118 1 -5.476 -2.295 -1.892 
119 1 8.465 -5.708 -8.878 
120 1 -2.014 -3.207 4.325 
121 1 4.736 3.978 -9.104 
122 1 -6.661 5.474 -4.506 
123 1 -3.868 7.851 -0.238 
124 1 3.550 1.307 5.140 
125 1 2.463 -2.661 -5.728 
126 1 -8.598 -5.125 6.877 
127 1 -2.700 2.778 6.121 
128 1 9.096 6.837 -1.802 
129 1 -1.442 8.519 -8.370 
130 1 7.246 -2.496 -8.427 
131 1 -1.694 0.212 3.694 
132 1 -8.299 8.872 4.218 
133 1 5.907 1.800 -5.655 
134 1 -8.837 -7.968 9.588 
135 1 7.255 -4.360 2.131 
136 1 -0.118 0.707 7.264 
137 1 0.677 2.864 -0.216 
138 1 -0.799 8.568 -1.733 
139 1 -3.458 -8.582 -7.101 
140 1 0.121 8.946 7.826 
141 1 -5.128 0.196 -4.114 
142 1 -8.872 -0.120 3.745 
143 1 -4.675 -5.449 -2.120 
144 1 -2.145 9.715 5.526 
145 1 -7.899 5.570 5.398 
146 1 -6.629 -4.328 -5.121 
147 1 -8.350 -2.131 -3.187 
148 1 0.318 3.198 4.274 
149 1 -4.957 -2.365 -7.781 
150 1 -2.662 -6.026 6.463 
151 1 4.410 2.830 -0.574 
152 1 -8.435 3.052 2.367 
153 1 2.112 -1.669 4.515 
154 1 -0.162 -8.300 -9.018 
155 1 -3.659 4.143 -8.263 
156 1 1.324 4.741 -3.117 
157 1 7.904 3.652 -8.805 
158 1 -2.401 -1.182 9.505 
159 1 -8.394 3.391 -7.251 
160 1 -4.954 -3.833 7.496 
161 1 -6.066 -9.200 -8.714 
162 1 5.190 -5.338 5.226 
163 1 0.075 -3.837 -3.386 
164 1 6.161 7.438 7.915 
165 1 -3.172 6.220 -3.322 
166 1 -3.071 -5.047 -9.615 
167 1 -2.183 3.456 2.658 
168 1 -1.258 5.731 -0.568 
169 1 -3.964 -1.489 1.703 
170 1 -7.943 6.719 1.853 
171 1 1.570 -1.409 -1.152 
172 1 3.330 6.521 5.727 
173 1 -3.403 3.046 -2.562 
174 1 -9.551 -2.792 9.147 
175 1 7.402 -3.425 7.527 
176 1 2.182 2.087 -9.617 
177 1 6.377 8.867 -4.949 
178 1 1.923 0.905 1.889 
179 1 -4.422 -8.389 4.309 
180 1 -2.064 -2.782 -1.243 
181 1 8.129 -7.277 7.531 
182 1 -5.223 -5.271 3.876 
183 1 5.241 0.720 1.873 
184 1 -0.326 6.161 -5.393 
185 1 9.632 0.015 -1.334 
186 1 -1.345 9.324 -5.166 
187 1 -3.006 -8.302 8.944 
188 1 7.276 3.388 3.879 
189 1 8.414 6.036 5.711 
190 1 3.308 -7.369 2.935 
191 1 -1.679 9.441 2.089 
192 1 -3.370 0.817 -7.340 
193 1 -6.389 -7.404 -5.600 
194 1 3.184 7.399 -3.947 
195 1 9.096 0.258 7.401 
196 1 -4.418 8.009 -9.733 
197 1 -4.228 1.350 9.011 
198 1 -1.033 2.119 -9.691 
199 1 5.787 -1.566 -1.192 
200 1 3.814 -8.810 -4.884 
ITEM: TIMESTEP
3000
ITEM: NUMBER OF ATOMS
200
ITEM: BOX BOUNDS pp pp pp
-9.855748163310864 9.855748163310864
-9.855748163310864 9.855748163310864
-9.855748163310864 9.855748163310864
ITEM: ATOMS id type x y z
1 1 3.326 3.927 2.803 
2 1 3.918 6.390 -0.402 
3 1 2.178 3.184 -5.885 
4 1 -2.554 6.747 7.797 
5 1 -7.172 -1.988 1.274 
6 1 3.503 -9.503 8.897 
7 1 3.844 -3.732 1.405 
8 1 2.407 6.587 8.546 
9 1 3.091 9.085 2.347 
10 1 -7.497 6.188 -1.760 
11 1 1.452 -5.107 4.535 
12 1 8.420 9.019 3.372 
13 1 -8.996 -6.443 -2.161 
14 1 8.393 -7.357 4.102 
15 1 5.964 0.476 -9.700 
16 1 1.421 9.297 -6.886 
17 1 -4.086 -8.453 0.250 
18 1 0.510 -8.236 -2.970 
19 1 -4.841 1.489 3.347 
20 1 -0.913 0.496 -3.037 
21 1 1.271 -1.069 -9.110 
22 1 -0.168 -6.332 -5.932 
23 1 6.786 5.972 -5.836 
24 1 -9.612 6.469 -6.539 
25 1 -7.632 8.337 8.680 
26 1 4.955 9.189 -7.846 
27 1 8.146 3.170 0.769 
28 1 -7.497 9.251 -5.785 
29 1 -1.457 2.860 -5.621 
30 1 -7.025 -2.364 4.835 
31 1 -5.311 0.562 0.049 
32 1 0.860 6.793 1.993 
33 1 0.458 0.010 -5.938 
34 1 -9.591 5.329 8.927 
35 1 0.169 -7.206 7.740 
36 1 -8.435 1.747 9.386 
37 1 2.908 -2.984 7.677 
38 1 -1.158 -7.099 2.635 
39 1 -6.607 2.054 6.273 
40 1 0.053 5.462 -8.883 
41 1 -1.206 -5.908 -1.364 
42 1 -9.659 -8.409 -6.341 
43 1 9.010 -3.729 -2.128 
44 1 3.873 -0.126 -7.192 
45 1 2.823 9.501 -1.236 
46 1 -6.054 -9.252 6.773 
47 1 -7.768 -7.599 3.802 
48 1 4.576 -7.597 -1.485 
49 1 5.719 -0.875 6.739 
50 1 3.684 6.285 -7.113 
51 1 -2.525 6.859 3.694 
52 1 3.767 3.385 7.469 
53 1 6.435 -6.785 -6.577 
54 1 6.829 8.714 -0.497 
55 1 3.840 -3.913 -8.455 
56 1 -7.070 -1.249 8.291 
57 1 5.684 6.951 2.659 
58 1 7.886 -1.197 -4.880 
59 1 2.783 -7.590 -7.741 
60 1 -1.903 0.639 0.574 
61 1 8.733 6.127 1.809 
62 1 -8.707 -2.605 -7.228 
63 1 5.208 -9.256 5.065 
64 1 -6.497 -6.509 0.575 
65 1 -5.476 4.885 8.375 
66 1 -9.655 9.458 -2.457 
67 1 7.665 0.526 4.447 
68 1 7.118 1.209 -2.714 
69 1 0.661 -4.718 -8.976 
70 1 -5.131 7.652 6.082 
71 1 8.588 -1.255 1.479 
72 1 6.191 -8.397 1.320 
73 1 -7.232 9.800 0.341 
74 1 -6.939 0.312 -7.860 
75 1 0.954 -5.248 0.997 
76 1 7.361 -8.785 -9.571 
77 1 -2.897 -4.718 1.161 
78 1 2.883 -5.813 -4.272 
79 1 4.753 -6.424 9.084 
80 1 9.397 -3.054 4.636 
81 1 -0.714 -2.935 -6.956 
82 1 -5.178 8.357 2.541 
83 1 -3.525 -8.231 -3.437 
84 1 -3.765 -1.005 5.989 
85 1 9.366 8.767 -8.522 
86 1 -3.106 -5.213 -5.138 
87 1 -4.344 7.396 -6.485 
88 1 2.874 1.383 -3.160 
89 1 -2.776 -1.862 -4.698 
90 1 4.407 4.511 -3.261 
91 1 9.398 -8.414 0.532 
92 1 1.570 -8.899 5.087 
93 1 -4.804 3.078 -5.903 
94 1 8.987 3.352 -4.766 
95 1 0.826 -8.475 0.187 
96 1 -8.163 3.063 -2.288 
97 1 -4.927 4.711 4.041 
98 1 -8.361 0.860 -4.905 
99 1 -5.885 9.115 -2.743 
100 1 4.550 -0.896 -4.330 
101 1 0.165 6.050 5.082 
102 1 -9.625 -5.487 1.726 
103 1 9.445 -5.368 -5.595 
104 1 -6.638 5.970 -8.308 
105 1 -5.851 -6.807 8.848 
106 1 5.729 -3.895 -4.848 
107 1 -0.136 -2.087 1.735 
108 1 6.783 6.810 -8.804 
109 1 -5.272 4.079 0.423 
110 1 -0.144 4.256 7.902 
111 1 -0.692 -3.840 7.091 
112 1 8.788 9.498 7.269 
113 1 9.160 0.796 -7.845 
114 1 7.044 2.718 7.443 
115 1 -7.348 -5.963 -7.995 
116 1 3.698 -3.803 -2.013 
117 1 5.868 -2.380 4.089 
118 1 -5.011 -2.490 -1.849 
119 1 8.141 -5.796 -9.133 
120 1 -1.804 -3.319 4.124 
121 1 4.997 3.837 -9.044 
122 1 -6.682 5.331 -4.730 
123 1 -3.624 7.618 -0.561 
124 1 4.141 0.901 4.280 
125 1 2.558 -2.834 -5.504 
126 1 -7.994 -4.735 7.215 
127 1 -2.701 2.752 6.494 
128 1 8.806 5.998 -2.286 
129 1 -1.512 8.127 -8.467 
130 1 7.118 -2.109 -8.346 
131 1 -1.703 0.480 4.111 
132 1 -8.086 8.827 4.574 
133 1 5.452 2.386 -5.431 
134 1 -9.132 -8.073 9.358 
135 1 6.751 -4.973 1.875 
136 1 1.284 0.386 7.476 
137 1 0.836 2.958 -0.064 
138 1 -0.446 8.102 -1.466 
139 1 -2.965 -8.442 -7.493 
140 1 0.334 8.963 7.883 
141 1 -4.995 0.313 -4.215 
142 1 -8.545 0.401 3.731 
143 1 -4.847 -5.826 -2.206 
144 1 -2.238 9.555 5.921 
145 1 -7.786 5.533 6.071 
146 1 -6.158 -3.422 -5.090 
147 1 -8.610 -2.114 -3.636 
148 1 0.713 2.667 4.311 
149 1 -5.585 -2.980 -8.180 
150 1 -2.840 -6.363 6.401 
151 1 4.191 3.387 -0.387 
152 1 -7.826 3.120 1.927 
153 1 2.238 -1.853 4.480 
154 1 -0.038 -8.907 -9.198 
155 1 -3.130 4.882 -8.569 
156 1 1.049 4.498 -2.887 
157 1 7.940 3.543 -9.000 
158 1 -2.738 -1.299 9.767 
159 1 -8.186 3.288 -6.811 
160 1 -5.077 -3.996 7.162 
161 1 -6.380 -9.064 -8.576 
162 1 4.852 -5.478 5.246 
163 1 0.194 -3.700 -3.524 
164 1 6.321 7.067 7.604 
165 1 -3.234 6.353 -3.609 
166 1 -3.432 -5.503 -9.192 
167 1 -2.166 3.626 2.653 
168 1 -1.236 5.340 -0.068 
169 1 -3.568 -1.583 1.909 
170 1 -7.652 6.480 1.560 
171 1 1.581 -1.039 -1.455 
172 1 3.282 6.333 5.110 
173 1 -2.823 3.108 -2.259 
174 1 -9.848 -3.190 9.365 
175 1 7.047 -3.888 7.281 
176 1 2.639 1.860 -9.490 
177 1 7.068 9.307 -4.448 
178 1 2.459 0.156 1.397 
179 1 -4.489 -8.423 4.102 
180 1 -2.024 -2.586 -1.435 
181 1 7.272 -7.495 7.363 
182 1 -5.216 -5.145 3.702 
183 1 5.913 1.133 1.399 
184 1 0.163 6.376 -5.287 
185 1 -9.768 -0.291 -1.522 
186 1 -1.592 9.169 -5.103 
187 1 -2.920 -8.846 8.775 
188 1 6.628 3.712 3.965 
189 1 8.793 6.079 5.511 
190 1 3.258 -7.006 2.353 
191 1 -1.451 9.325 2.137 
192 1 -2.971 0.589 -7.075 
193 1 -6.453 -7.144 -5.182 
194 1 3.144 7.431 -3.758 
195 1 8.868 -0.139 7.366 
196 1 -4.520 8.285 -9.788 
197 1 -4.105 1.557 9.458 
198 1 -0.618 1.471 -9.033 
199 1 5.913 -1.899 -1.144 
200 1 4.324 -8.945 -4.897 
ITEM: TIMESTEP
4000
ITEM: NUMBER OF ATOMS
200
ITEM: BOX BOUNDS pp pp pp
-9.855748163310864 9.855748163310864
-9.855748163310864 9.855748163310864
-9.855748163310864 9.855748163310864
ITEM: ATOMS id type x y z
1 1 3.576 3.765 2.608 
2 1 3.951 6.250 -0.049 
3 1 2.239 2.965 -6.081 
4 1 -2.125 6.215 7.454 
5 1 -7.446 -2.179 1.181 
6 1 4.352 -9.774 8.452 
7 1 3.915 -3.708 2.059 
8 1 2.755 6.446 8.616 
9 1 3.479 8.984 2.190 
10 1 -7.269 5.976 -1.334 
11 1 1.046 -5.295 4.690 
12 1 8.668 9.383 3.392 
13 1 -8.784 -6.581 -3.071 
14 1 8.477 -6.679 3.687 
15 1 5.703 0.995 -9.506 
16 1 1.207 8.837 -6.833 
17 1 -3.649 -8.360 -0.027 
18 1 0.877 -8.141 -2.780 
19 1 -4.913 0.778 3.056 
20 1 -0.943 0.046 -3.367 
21 1 0.900 -1.790 -9.553 
22 1 -0.115 -7.328 -6.046 
23 1 6.476 5.861 -5.079 
24 1 9.388 6.823 -6.048 
25 1 -7.741 8.362 8.108 
26 1 5.276 8.791 -7.309 
27 1 8.346 2.677 0.366 
28 1 -7.600 9.176 -6.284 
29 1 -1.556 3.056 -5.545 
30 1 -6.643 -1.468 5.133 
31 1 -6.206 1.156 -0.148 
32 1 0.793 6.957 1.755 
33 1 0.285 0.400 -6.181 
34 1 -9.415 5.294 8.269 
35 1 0.237 -7.280 7.797 
36 1 -8.009 2.416 9.278 
37 1 3.562 -3.314 7.830 
38 1 -0.474 -7.551 2.671 
39 1 -6.564 1.826 5.861 
40 1 0.532 4.730 -8.548 
41 1 -1.427 -5.957 -1.808 
42 1 -9.850 -8.059 -6.336 
43 1 9.240 -3.574 -1.882 
44 1 3.392 -0.031 -7.106 
45 1 3.756 9.490 -1.365 
46 1 -5.715 -9.008 6.511 
47 1 -7.979 -7.371 4.435 
48 1 3.867 -6.737 -0.824 
49 1 5.451 -0.433 7.430 
50 1 3.703 6.167 -7.527 
51 1 -2.560 6.547 3.800 
52 1 3.303 3.050 6.805 
53 1 6.766 -7.345 -6.814 
54 1 7.155 8.503 -0.908 
55 1 3.924 -3.630 -8.586 
56 1 -6.933 -0.611 8.505 
57 1 5.928 6.692 2.910 
58 1 7.759 -0.887 -4.420 
59 1 3.010 -7.293 -8.077 
60 1 -1.619 1.093 0.275 
61 1 8.541 5.612 1.600 
62 1 -9.117 -2.402 -7.258 
63 1 5.459 9.508 4.815 
64 1 -6.152 -6.573 1.589 
65 1 -5.495 4.868 8.218 
66 1 -9.692 -9.775 -2.703 
67 1 7.803 0.811 4.234 
68 1 6.472 1.804 -2.967 
69 1 0.486 -5.114 -9.552 
70 1 -4.893 7.816 5.962 
71 1 8.399 -1.360 1.331 
72 1 6.317 -8.562 0.697 
73 1 -6.966 -9.846 0.015 
74 1 -6.796 0.073 -7.940 
75 1 0.813 -5.309 1.000 
76 1 6.915 -8.911 -9.666 
77 1 -2.879 -4.689 1.255 
78 1 2.476 -6.054 -4.279 
79 1 4.599 -6.469 8.832 
80 1 9.645 -2.588 4.715 
81 1 -0.922 -2.961 -6.852 
82 1 -5.330 8.180 2.719 
83 1 -2.964 -8.478 -3.284 
84 1 -3.381 -0.715 6.877 
85 1 9.790 9.034 -8.492 
86 1 -2.948 -5.425 -5.155 
87 1 -4.230 7.376 -6.519 
88 1 3.223 1.454 -3.364 
89 1 -3.292 -2.009 -4.757 
90 1 3.817 4.955 -3.188 
91 1 9.532 -8.024 0.663 
92 1 1.772 -9.087 4.870 
93 1 -4.544 3.100 -6.135 
94 1 9.001 3.505 -4.739 
95 1 1.292 -8.471 0.280 
96 1 -8.590 2.576 -2.158 
97 1 -5.193 4.649 3.827 
98 1 -8.649 0.960 -5.281 
99 1 -5.668 8.803 -3.539 
100 1 4.440 -1.341 -4.259 
101 1 0.266 5.291 4.659 
102 1 -9.338 -4.806 1.470 
103 1 9.199 -5.007 -5.791 
104 1 -7.080 6.565 -8.286 
105 1 -6.042 -6.791 8.962 
106 1 5.792 -4.198 -5.404 
107 1 -0.123 -1.624 1.885 
108 1 7.623 6.891 -9.276 
109 1 -4.794 4.520 0.284 
110 1 0.391 4.004 8.007 
111 1 -0.597 -3.650 7.266 
112 1 8.915 8.661 7.266 
113 1 8.534 0.472 -7.841 
114 1 7.166 3.034 7.272 
115 1 -7.961 -6.001 -7.726 
116 1 4.461 -4.106 -2.086 
117 1 6.156 -2.325 4.062 
118 1 -5.075 -2.528 -2.040 
119 1 8.157 -5.437 -9.431 
120 1 -1.830 -3.607 4.181 
121 1 4.909 4.232 9.667 
122 1 -6.969 4.707 -4.262 
123 1 -3.929 7.699 -0.411 
124 1 4.377 0.936 4.468 
125 1 2.342 -2.836 -5.883 
126 1 -8.305 -5.052 6.631 
127 1 -2.600 2.692 6.132 
128 1 8.952 6.203 -2.330 
129 1 -1.608 7.763 -9.155 
130 1 6.889 -2.345 -8.773 
131 1 -0.843 -0.559 4.836 
132 1 -8.006 9.054 4.318 
133 1 5.775 2.187 -6.228 
134 1 -9.163 -7.965 9.564 
135 1 6.918 -4.365 1.377 
136 1 0.735 0.678 7.390 
137 1 1.049 3.927 0.415 
138 1 -0.021 8.321 -1.384 
139 1 -3.355 -8.635 -7.035 
140 1 0.666 9.188 7.635 
141 1 -5.339 0.745 -3.674 
142 1 -8.834 -0.074 3.314 
143 1 -4.878 -5.917 -2.548 
144 1 -2.186 9.744 5.745 
145 1 -7.808 5.939 5.434 
146 1 -6.234 -3.900 -5.406 
147 1 -8.686 -1.731 -3.984 
148 1 0.861 2.186 4.250 
149 1 -5.618 -2.993 -8.715 
150 1 -2.885 -6.548 5.749 
151 1 4.034 2.768 -0.395 
152 1 -8.544 3.436 2.342 
153 1 2.188 -1.728 4.726 
154 1 0.169 -8.357 -9.061 
155 1 -3.332 5.242 -9.038 
156 1 0.743 5.007 -3.630 
157 1 8.192 3.456 -8.927 
158 1 -2.793 -1.674 -9.667 
159 1 -8.198 3.674 -6.895 
160 1 -4.187 -3.907 7.821 
161 1 -6.487 -9.144 -8.740 
162 1 4.546 -5.721 5.601 
163 1 -0.108 -3.601 -3.718 
164 1 5.932 6.272 7.031 
165 1 -3.417 5.732 -3.799 
166 1 -3.299 -5.805 -9.227 
167 1 -1.558 3.399 2.664 
168 1 -1.460 5.655 -0.406 
169 1 -3.510 -1.408 1.018 
170 1 -8.238 6.920 2.131 
171 1 1.533 -1.070 -1.312 
172 1 3.237 5.962 5.001 
173 1 -3.344 2.805 -2.181 
174 1 -9.598 -2.908 8.323 
175 1 7.280 -4.213 6.940 
176 1 2.469 2.040 -9.583 
177 1 7.084 9.516 -4.687 
178 1 2.794 -0.013 1.538 
179 1 -4.589 -8.571 3.620 
180 1 -1.883 -2.617 -1.347 
181 1 8.065 -7.962 6.551 
182 1 -5.597 -4.543 3.842 
183 1 5.792 0.931 1.050 
184 1 -1.224 6.324 -6.111 
185 1 -9.269 -0.573 -1.044 
186 1 -1.185 8.977 -4.452 
187 1 -2.834 -9.050 8.797 
188 1 6.516 3.888 4.238 
189 1 8.758 6.539 4.753 
190 1 3.389 -6.863 2.638 
191 1 -1.487 9.314 1.420 
192 1 -2.804 0.522 -7.488 
193 1 -6.112 -7.834 -5.243 
194 1 4.039 8.056 -4.280 
195 1 8.665 0.175 8.332 
196 1 -4.949 8.056 9.647 
197 1 -3.992 1.710 9.161 
198 1 -0.867 1.767 -9.538 
199 1 5.950 -1.723 -0.844 
200 1 4.040 -8.672 -4.934 
ITEM: TIMESTEP
5000
ITEM: NUMBER OF ATOMS
200
ITEM: BOX BOUNDS pp pp pp
-9.855748163310864 9.855748163310864
-9.855748163310864 9.855748163310864
-9.855748163310864 9.855748163310864
ITEM: ATOMS id type x y z
1 1 3.860 3.918 2.683 
2 1 4.364 6.174 0.003 
3 1 2.169 3.220 -5.962 
4 1 -2.033 6.366 7.221 
5 1 -6.630 -2.751 1.136 
6 1 4.124 -9.502 7.323 
7 1 3.483 -2.761 1.627 
8 1 3.351 6.476 8.371 
9 1 3.190 8.980 1.693 
10 1 -7.750 6.575 -1.275 
11 1 1.485 -4.950 5.047 
12 1 8.935 -9.648 3.830 
13 1 -8.669 -6.360 -3.116 
14 1 7.801 -6.180 3.784 
15 1 5.999 0.987 -9.574 
16 1 1.763 8.489 -7.543 
17 1 -3.428 -8.146 -0.028 
18 1 0.792 -8.755 -3.007 
19 1 -4.634 1.199 3.107 
20 1 -0.568 0.149 -3.019 
21 1 0.888 -1.633 -9.304 
22 1 -0.149 -6.820 -5.895 
23 1 6.495 5.750 -5.435 
24 1 9.536 7.185 -5.629 
25 1 -7.527 8.176 8.231 
26 1 5.173 9.257 -7.450 
27 1 8.647 2.547 0.254 
28 1 -7.533 8.672 -5.936 
29 1 -1.218 2.417 -5.206 
30 1 -7.039 -0.882 5.311 
31 1 -6.031 0.542 -0.230 
32 1 0.528 6.901 1.711 
33 1 0.453 0.051 -6.201 
34 1 -9.853 5.279 8.507 
35 1 0.946 -7.416 7.720 
36 1 -8.290 2.355 9.687 
37 1 3.165 -2.233 7.542 
38 1 -0.977 -6.845 3.262 
39 1 -6.439 2.363 5.829 
40 1 0.726 5.321 -8.561 
41 1 -1.287 -6.089 -1.523 
42 1 -9.781 -8.239 -5.740 
43 1 9.219 -4.068 -1.919 
44 1 3.656 -0.154 -7.352 
45 1 4.102 9.058 -1.578 
46 1 -5.799 -8.796 7.302 
47 1 -7.843 -7.094 4.872 
48 1 4.042 -6.776 -0.806 
49 1 5.774 -0.408 7.294 
50 1 4.146 5.130 -7.613 
51 1 -2.559 6.735 3.587 
52 1 3.429 3.389 6.596 
53 1 6.696 -7.448 -5.967 
54 1 7.583 8.954 -0.745 
55 1 3.692 -3.795 -8.971 
56 1 -6.741 -1.213 8.700 
57 1 5.850 6.815 2.972 
58 1 7.925 -0.723 -4.419 
59 1 3.084 -7.305 -7.894 
60 1 -1.263 1.319 -0.170 
61 1 8.523 6.107 1.043 
62 1 -9.098 -2.148 -7.371 
63 1 5.741 9.634 4.613 
64 1 -6.623 -6.641 1.437 
65 1 -4.968 5.025 8.401 
66 1 -9.687 -9.493 -2.702 
67 1 8.218 0.803 4.904 
68 1 6.758 1.977 -2.684 
69 1 0.630 -5.183 -9.222 
70 1 -4.989 7.600 5.720 
71 1 8.374 -1.762 1.288 
72 1 6.465 -8.517 1.501 
73 1 -7.091 -9.834 -0.531 
74 1 -6.178 0.491 -7.531 
75 1 1.263 -5.292 0.930 
76 1 7.017 -8.962 9.683 
77 1 -3.365 -4.817 1.309 
78 1 2.815 -5.842 -4.193 
79 1 5.016 -6.482 8.829 
80 1 -9.604 -2.902 4.252 
81 1 -0.983 -2.813 -6.800 
82 1 -5.299 8.243 2.337 
83 1 -3.087 -8.419 -3.100 
84 1 -3.477 -0.842 6.620 
85 1 9.719 8.860 -8.556 
86 1 -2.535 -4.878 -4.901 
87 1 -4.384 7.341 -6.849 
88 1 2.551 1.580 -3.087 
89 1 -3.110 -1.707 -4.474 
90 1 3.843 4.927 -2.871 
91 1 -9.846 -8.080 0.078 
92 1 2.186 -8.905 4.634 
93 1 -4.429 3.598 -5.687 
94 1 9.032 3.817 -5.315 
95 1 1.276 -8.516 0.094 
96 1 -7.558 3.069 -1.605 
97 1 -5.592 5.081 3.439 
98 1 -8.580 1.253 -4.757 
99 1 -5.372 9.080 -3.497 
100 1 4.321 -1.070 -4.105 
101 1 0.011 5.135 4.588 
102 1 -9.508 -4.574 0.970 
103 1 9.166 -4.959 -5.386 
104 1 -6.733 6.114 -8.596 
105 1 -6.068 -6.369 9.176 
106 1 5.623 -3.777 -5.382 
107 1 -0.033 -1.914 1.602 
108 1 7.010 6.927 -9.820 
109 1 -4.864 4.796 -0.105 
110 1 0.292 4.224 7.727 
111 1 -0.188 -3.892 7.613 
112 1 8.888 8.720 7.967 
113 1 8.794 0.923 -7.212 
114 1 6.857 2.847 7.119 
115 1 -8.212 -5.568 -7.660 
116 1 4.421 -3.724 -2.129 
117 1 5.956 -2.446 4.308 
118 1 -5.737 -2.103 -2.086 
119 1 8.004 -5.517 -9.013 
120 1 -2.045 -3.854 4.169 
121 1 5.246 4.241 9.315 
122 1 -6.794 5.118 -4.079 
123 1 -3.501 8.155 -0.574 
124 1 4.595 0.825 4.563 
125 1 2.280 -2.819 -6.139 
126 1 -8.720 -5.094 6.960 
127 1 -2.894 3.115 6.137 
128 1 8.506 6.206 -2.608 
129 1 -1.555 7.712 -9.512 
130 1 6.730 -2.426 -8.521 
131 1 -0.918 -0.518 5.031 
132 1 -7.927 9.166 4.869 
133 1 5.714 2.045 -5.927 
134 1 -8.986 -7.897 9.540 
135 1 6.855 -4.926 0.867 
136 1 1.008 0.289 7.364 
137 1 1.248 3.851 0.724 
138 1 1.004 7.730 -1.447 
139 1 -2.891 -8.563 -6.841 
140 1 0.804 8.015 6.934 
141 1 -5.575 0.734 -3.758 
142 1 -8.746 0.286 2.769 
143 1 -5.363 -5.853 -2.347 
144 1 -1.598 9.733 5.203 
145 1 -7.983 5.903 5.926 
146 1 -5.832 -4.034 -5.323 
147 1 -8.178 -2.152 -3.881 
148 1 1.400 2.038 4.580 
149 1 -5.312 -2.790 -8.638 
150 1 -3.094 -6.484 6.669 
151 1 4.135 2.793 -0.576 
152 1 -8.516 3.683 1.871 
153 1 2.337 -1.900 4.336 
154 1 0.336 -8.672 -8.708 
155 1 -3.098 4.851 -8.647 
156 1 0.494 5.037 -3.826 
157 1 8.173 3.762 -8.698 
158 1 -2.265 -1.092 9.380 
159 1 -8.238 3.756 -7.346 
160 1 -5.071 -3.843 7.546 
161 1 -6.527 -9.265 -8.329 
162 1 4.834 -5.757 5.736 
163 1 0.276 -3.640 -3.313 
164 1 6.115 5.902 6.499 
165 1 -3.565 6.341 -3.651 
166 1 -2.788 -5.713 -8.670 
167 1 -2.021 3.272 2.088 
168 1 -1.357 5.258 -0.952 
169 1 -3.225 -1.194 1.296 
170 1 -8.238 6.920 2.131 
171 1 1.869 -1.312 -0.888 
172 1 3.200 6.776 4.545 
173 1 -3.282 3.149 -2.461 
174 1 9.577 -2.220 8.516 
175 1 6.900 -3.623 7.723 
176 1 2.691 1.936 -9.653 
177 1 7.172 9.412 -4.526 
178 1 2.561 0.479 1.911 
179 1 -4.440 -8.149 3.173 
180 1 -2.177 -2.910 -1.479 
181 1 8.350 -7.422 6.813 
182 1 -5.376 -4.676 4.207 
183 1 5.667 0.669 1.425 
184 1 -1.557 6.002 -6.092 
185 1 -9.421 -0.363 -1.644 
186 1 -0.932 8.699 -4.949 
187 1 -3.092 -9.023 9.176 
188 1 6.776 3.850 3.874 
189 1 8.705 6.852 4.767 
190 1 3.653 -6.889 2.623 
191 1 -1.849 9.328 1.964 
192 1 -2.750 0.279 -7.633 
193 1 -6.144 -7.276 -5.305 
194 1 3.246 7.459 -4.889 
195 1 8.943 0.813 8.407 
196 1 -4.670 8.006 9.819 
197 1 -4.326 1.676 9.546 
198 1 -0.577 2.098 -9.444 
199 1 5.617 -0.953 -1.232 
200 1 3.626 -9.121 -4.615 
ITEM: TIMESTEP
6000
ITEM: NUMBER OF ATOMS
200
ITEM: BOX BOUNDS pp pp pp
-9.855748163310864 9.855748163310864
-9.855748163310864 9.855748163310864
-9.855748163310864 9.855748163310864
ITEM: ATOMS id type x y z
1 1 3.716 3.779 2.842 
2 1 3.623 6.146 0.366 
3 1 2.076 3.502 -6.041 
4 1 -1.625 5.979 7.325 
5 1 -6.823 -2.903 1.698 
6 1 4.184 -9.830 7.666 
7 1 4.103 -2.318 1.404 
8 1 3.271 6.443 8.100 
9 1 3.819 9.759 1.840 
10 1 -7.329 6.293 -1.028 
11 1 1.286 -4.668 5.378 
12 1 8.744 -9.285 3.791 
13 1 -8.675 -6.132 -2.418 
14 1 7.616 -6.200 3.379 
15 1 5.677 1.253 -9.425 
16 1 1.612 8.079 -7.855 
17 1 -3.299 -7.749 0.451 
18 1 1.172 -8.032 -3.114 
19 1 -5.077 1.362 3.110 
20 1 -0.856 0.255 -2.954 
21 1 0.704 -1.519 -9.833 
22 1 0.330 -7.046 -6.055 
23 1 6.076 6.019 -5.393 
24 1 9.560 6.932 -5.998 
25 1 -8.281 8.564 8.546 
26 1 4.921 8.680 -7.412 
27 1 8.729 2.644 0.226 
28 1 -7.491 8.850 -6.155 
29 1 -1.338 2.878 -5.673 
30 1 -7.159 -0.847 4.701 
31 1 -6.139 0.185 0.124 
32 1 1.298 7.468 2.036 
33 1 0.829 0.031 -6.772 
34 1 -9.631 5.232 8.808 
35 1 1.773 -7.357 7.576 
36 1 -8.116 2.712 -9.651 
37 1 3.242 -1.964 7.756 
38 1 -0.877 -6.574 2.779 
39 1 -7.360 2.545 5.807 
40 1 0.560 5.119 -8.545 
41 1 -0.925 -6.058 -1.372 
42 1 -9.726 -8.256 -6.053 
43 1 8.844 -3.745 -1.944 
44 1 4.040 -0.673 -7.374 
45 1 4.151 9.178 -1.409 
46 1 -5.634 -9.310 7.523 
47 1 -8.058 -6.456 4.067 
48 1 4.057 -6.739 -1.343 
49 1 6.242 -0.472 7.010 
50 1 3.773 5.553 -7.910 
51 1 -2.038 7.001 3.690 
52 1 3.960 3.629 6.399 
53 1 6.501 -7.349 -6.412 
54 1 7.426 9.068 -1.015 
55 1 3.692 -3.795 -8.971 
56 1 -7.085 -0.685 8.465 
57 1 6.059 6.868 2.400 
58 1 7.708 -1.293 -4.415 
59 1 3.474 -7.653 -8.467 
60 1 -1.272 1.367 0.114 
61 1 9.074 5.702 0.915 
62 1 -8.920 -1.909 -7.336 
63 1 5.711 9.667 4.621 
64 1 -6.561 -6.047 0.523 
65 1 -5.399 4.951 8.077 
66 1 -9.217 -9.465 -3.394 
67 1 9.305 0.104 5.713 
68 1 7.658 1.833 -2.509 
69 1 0.895 -5.264 -9.491 
70 1 -4.820 7.039 5.859 
71 1 8.278 -2.091 1.202 
72 1 6.318 -7.929 0.432 
73 1 -6.909 9.636 -0.131 
74 1 -6.085 1.031 -6.961 
75 1 1.864 -5.000 0.769 
76 1 7.095 -8.911 -9.748 
77 1 -3.306 -4.434 1.096 
78 1 3.180 -5.731 -4.887 
79 1 5.186 -6.235 8.397 
80 1 9.801 -3.218 3.831 
81 1 -0.633 -3.538 -6.929 
82 1 -4.728 8.360 2.598 
83 1 -2.719 -8.312 -3.071 
84 1 -3.958 -0.459 5.879 
85 1 9.556 8.555 -8.597 
86 1 -2.623 -5.326 -4.865 
87 1 -4.577 6.936 -6.379 
88 1 1.935 1.885 -2.347 
89 1 -2.715 -1.613 -4.879 
90 1 4.239 4.503 -3.105 
91 1 -9.745 -8.077 -0.286 
92 1 1.971 -8.548 4.488 
93 1 -4.655 3.332 -5.584 
94 1 8.614 3.863 -4.814 
95 1 1.307 -8.213 0.785 
96 1 -7.644 2.939 -1.174 
97 1 -5.507 4.732 3.580 
98 1 -8.949 1.702 -4.335 
99 1 -6.048 9.037 -3.090 
100 1 4.373 -0.830 -4.063 
101 1 0.683 5.142 4.640 
102 1 -9.635 -4.887 0.613 
103 1 9.201 -5.146 -5.191 
104 1 -6.545 5.667 -8.832 
105 1 -5.783 -6.304 9.319 
106 1 6.065 -3.541 -6.090 
107 1 -0.491 -2.675 1.437 
108 1 6.755 7.189 9.812 
109 1 -4.594 5.026 0.376 
110 1 1.040 4.020 7.933 
111 1 -0.921 -3.737 8.030 
112 1 8.387 8.697 7.125 
113 1 8.828 0.790 -7.398 
114 1 7.309 3.002 6.807 
115 1 -7.994 -5.297 -7.572 
116 1 4.518 -3.868 -2.672 
117 1 6.475 -2.815 4.449 
118 1 -5.365 -2.016 -1.708 
119 1 8.211 -5.257 -8.896 
120 1 -2.115 -3.451 4.717 
121 1 5.285 4.235 9.288 
122 1 -7.189 5.222 -4.196 
123 1 -3.278 8.250 -0.627 
124 1 4.539 0.762 4.379 
125 1 2.233 -3.054 -5.929 
126 1 -8.762 -4.873 6.774 
127 1 -1.912 2.915 6.235 
128 1 8.948 5.710 -2.431 
129 1 -1.470 8.056 9.848 
130 1 6.784 -2.134 -9.258 
131 1 -1.015 -0.378 4.720 
132 1 -7.518 9.147 4.391 
133 1 5.497 2.123 -5.587 
134 1 -9.252 -7.519 9.615 
135 1 6.434 -4.451 -0.012 
136 1 1.160 0.796 7.724 
137 1 0.801 3.726 1.430 
138 1 1.103 7.435 -1.207 
139 1 -3.214 -8.545 -6.490 
140 1 0.697 8.959 7.320 
141 1 -5.763 0.389 -3.594 
142 1 -9.398 0.470 2.414 
143 1 -5.190 -6.252 -2.391 
144 1 -2.025 -9.779 5.089 
145 1 -8.180 6.103 5.839 
146 1 -5.691 -3.744 -4.912 
147 1 -8.302 -2.072 -4.118 
148 1 1.262 1.915 4.583 
149 1 -5.810 -2.510 -8.639 
150 1 -2.592 -6.797 6.726 
151 1 4.477 2.739 -0.290 
152 1 -8.056 3.187 1.991 
153 1 1.794 -1.586 4.246 
154 1 -0.050 -8.421 -9.181 
155 1 -2.849 4.943 -8.961 
156 1 0.319 4.950 -3.486 
157 1 7.933 3.968 -8.711 
158 1 -2.578 -1.084 8.921 
159 1 -8.363 3.908 -6.888 
160 1 -5.619 -3.750 7.264 
161 1 -6.469 -8.959 -8.195 
162 1 4.866 -5.303 5.573 
163 1 0.336 -4.079 -3.650 
164 1 5.931 6.424 6.287 
165 1 -3.776 6.153 -3.372 
166 1 -3.479 -5.127 -8.452 
167 1 -2.516 3.494 2.727 
168 1 -1.537 4.891 -0.372 
169 1 -3.321 -0.831 1.316 
170 1 -8.046 7.262 1.779 
171 1 1.755 -2.539 -1.559 
172 1 3.325 7.271 4.681 
173 1 -3.686 2.968 -2.323 
174 1 -9.417 -2.901 9.537 
175 1 7.533 -3.730 7.696 
176 1 2.810 2.396 -9.373 
177 1 7.436 9.259 -4.968 
178 1 2.534 0.891 1.599 
179 1 -4.705 -8.428 4.520 
180 1 -2.356 -2.746 -1.343 
181 1 8.419 -7.221 7.071 
182 1 -4.994 -4.581 4.010 
183 1 6.553 0.474 1.622 
184 1 -1.381 6.179 -6.116 
185 1 9.617 -0.332 -1.312 
186 1 -0.869 8.757 -4.461 
187 1 -3.022 -8.762 9.297 
188 1 7.172 3.176 3.056 
189 1 8.975 7.092 4.063 
190 1 4.212 -6.803 2.809 
191 1 -1.438 9.713 1.790 
192 1 -2.864 0.350 -7.540 
193 1 -5.824 -7.051 -5.279 
194 1 2.919 7.414 -4.812 
195 1 9.014 0.594 8.913 
196 1 -5.042 8.293 -9.850 
197 1 -4.196 1.750 9.384 
198 1 -0.456 2.229 -9.009 
199 1 5.709 -0.583 -1.243 
200 1 4.061 -8.947 -4.770 
ITEM: TIMESTEP
7000
ITEM: NUMBER OF ATOMS
200
ITEM: BOX BOUNDS pp pp pp
-9.855748163310864 9.855748163310864
-9.855748163310864 9.855748163310864
-9.855748163310864 9.855748163310864
ITEM: ATOMS id type x y z
1 1 3.946 3.994 3.098 
2 1 3.656 6.037 -0.248 
3 1 1.819 3.570 -6.187 
4 1 -1.643 6.331 6.835 
5 1 -7.287 -2.302 1.930 
6 1 4.888 -9.316 7.494 
7 1 4.031 -2.030 1.319 
8 1 3.402 6.946 8.872 
9 1 4.191 9.428 1.523 
10 1 -7.146 6.814 -1.214 
11 1 1.197 -4.701 4.321 
12 1 8.744 -9.285 3.791 
13 1 -8.353 -6.276 -2.034 
14 1 7.628 -6.108 3.232 
15 1 5.803 1.419 -9.678 
16 1 1.701 8.255 -7.995 
17 1 -3.499 -7.798 0.113 
18 1 1.268 -8.548 -3.281 
19 1 -5.776 1.686 3.043 
20 1 -0.171 -0.141 -2.867 
21 1 1.026 -1.363 -9.347 
22 1 -0.074 -7.163 -5.742 
23 1 6.120 6.059 -5.109 
24 1 9.279 6.950 -5.777 
25 1 -7.873 9.051 8.139 
26 1 5.007 8.973 -7.592 
27 1 9.221 2.554 0.263 
28 1 -7.633 8.748 -6.101 
29 1 -1.556 2.420 -5.325 
30 1 -6.732 -0.964 4.981 
31 1 -6.623 0.557 -0.036 
32 1 1.319 7.464 1.686 
33 1 0.486 -0.164 -6.417 
34 1 9.180 5.210 8.665 
35 1 0.622 -6.835 7.232 
36 1 -8.773 2.563 9.653 
37 1 3.458 -1.911 7.493 
38 1 -1.147 -6.828 2.734 
39 1 -7.725 2.754 5.664 
40 1 0.265 5.414 -9.110 
41 1 -1.143 -6.292 -1.351 
42 1 9.684 -8.699 -5.902 
43 1 8.581 -3.658 -2.015 
44 1 3.474 -0.132 -7.902 
45 1 3.900 8.861 -1.856 
46 1 -5.186 -9.295 7.177 
47 1 -8.143 -6.381 3.552 
48 1 3.616 -6.834 -1.669 
49 1 6.355 -0.594 7.229 
50 1 4.269 5.593 -7.888 
51 1 -2.142 6.718 3.748 
52 1 3.416 3.439 6.445 
53 1 6.650 -7.741 -6.069 
54 1 8.133 8.556 -1.432 
55 1 3.854 -3.420 -9.168 
56 1 -6.875 0.076 8.076 
57 1 5.792 6.565 2.761 
58 1 7.754 -1.239 -4.625 
59 1 3.523 -7.433 -8.269 
60 1 -1.382 0.941 0.313 
61 1 8.542 5.393 1.003 
62 1 -9.535 -2.060 -7.345 
63 1 5.763 9.291 4.744 
64 1 -6.358 -6.265 0.956 
65 1 -4.818 5.100 8.094 
66 1 -8.720 -9.352 -2.690 
67 1 8.944 -0.020 5.348 
68 1 7.201 1.890 -2.523 
69 1 0.823 -5.088 -9.572 
70 1 -4.678 7.534 5.806 
71 1 8.289 -2.078 1.162 
72 1 6.575 -8.103 -0.273 
73 1 -6.849 -9.634 0.563 
74 1 -6.611 1.112 -7.100 
75 1 1.791 -5.243 0.700 
76 1 7.270 -8.703 -9.291 
77 1 -3.497 -4.740 1.387 
78 1 3.432 -6.060 -5.197 
79 1 5.186 -6.291 8.931 
80 1 -9.738 -3.155 4.136 
81 1 -1.119 -3.463 -6.862 
82 1 -4.590 8.629 2.241 
83 1 -3.182 -8.370 -3.572 
84 1 -3.880 -0.439 6.012 
85 1 -9.760 8.482 -8.754 
86 1 -2.291 -4.898 -4.384 
87 1 -3.462 8.041 -6.515 
88 1 2.735 1.416 -2.310 
89 1 -2.487 -1.654 -4.773 
90 1 4.500 4.046 -3.339 
91 1 -9.730 -8.506 0.497 
92 1 1.711 -8.888 3.662 
93 1 -4.739 3.417 -5.742 
94 1 8.416 3.830 -4.811 
95 1 1.207 -8.937 -0.169 
96 1 -7.945 3.382 -1.603 
97 1 -5.162 4.588 4.285 
98 1 -8.810 1.292 -4.362 
99 1 -5.889 9.403 -3.395 
100 1 4.444 -0.699 -4.474 
101 1 0.566 5.299 4.625 
102 1 -9.495 -5.102 0.852 
103 1 9.391 -4.725 -5.056 
104 1 -7.189 6.023 -8.986 
105 1 -6.189 -6.341 8.863 
106 1 5.949 -4.123 -5.868 
107 1 -0.250 -2.421 1.520 
108 1 6.973 7.795 9.673 
109 1 -4.922 4.604 0.654 
110 1 0.498 3.988 7.703 
111 1 -0.767 -3.840 7.702 
112 1 8.506 8.110 6.800 
113 1 8.604 0.889 -7.539 
114 1 7.169 2.579 6.867 
115 1 -7.641 -5.068 -7.544 
116 1 4.662 -3.411 -2.599 
117 1 6.175 -2.990 3.801 
118 1 -5.654 -2.619 -0.881 
119 1 8.541 -4.919 -8.585 
120 1 -2.179 -3.688 4.394 
121 1 5.583 4.538 9.042 
122 1 -7.120 5.437 -4.234 
123 1 -3.603 8.829 -0.882 
124 1 5.180 0.891 4.701 
125 1 2.795 -2.842 -5.859 
126 1 -8.420 -5.190 6.466 
127 1 -1.568 1.954 6.618 
128 1 9.146 5.735 -2.572 
129 1 -1.178 7.806 9.843 
130 1 6.478 -1.796 -9.038 
131 1 -1.431 -0.335 3.741 
132 1 -7.922 9.517 4.336 
133 1 5.171 2.314 -5.774 
134 1 -9.499 -7.339 9.363 
135 1 6.420 -4.473 0.443 
136 1 1.195 0.434 7.461 
137 1 1.533 3.680 0.001 
138 1 0.776 7.710 -1.758 
139 1 -3.028 -8.154 -6.717 
140 1 1.300 9.248 7.849 
141 1 -5.007 0.201 -3.430 
142 1 -9.392 0.496 2.562 
143 1 -4.810 -5.732 -2.091 
144 1 -1.480 -9.386 5.103 
145 1 -8.066 6.243 6.522 
146 1 -5.560 -2.995 -5.920 
147 1 -7.839 -2.196 -3.800 
148 1 1.118 2.063 4.181 
149 1 -5.910 -2.091 -8.989 
150 1 -2.793 -6.471 7.031 
151 1 4.849 2.856 -0.153 
152 1 -8.382 3.877 2.331 
153 1 1.732 -1.159 4.281 
154 1 0.315 -8.697 -9.155 
155 1 -3.499 5.014 -8.699 
156 1 0.044 4.981 -3.476 
157 1 7.851 4.331 -8.196 
158 1 -2.708 -0.644 9.114 
159 1 -8.611 3.656 -6.858 
160 1 -5.140 -3.285 7.070 
161 1 -6.717 -8.882 -8.723 
162 1 4.952 -5.892 5.700 
163 1 0.951 -3.892 -3.449 
164 1 5.863 5.941 6.179 
165 1 -3.937 6.660 -3.150 
166 1 -3.394 -5.475 -8.297 
167 1 -2.268 3.113 3.504 
168 1 -1.732 5.547 -0.742 
169 1 -3.810 -0.941 1.540 
170 1 -7.569 7.050 2.241 
171 1 1.985 -1.865 -1.182 
172 1 2.751 7.532 5.119 
173 1 -3.179 2.875 -2.341 
174 1 -8.960 -2.833 8.916 
175 1 7.489 -4.478 7.789 
176 1 2.879 2.781 -9.353 
177 1 7.207 8.899 -4.490 
178 1 2.658 0.768 1.535 
179 1 -5.138 -8.266 4.365 
180 1 -2.292 -2.748 -1.329 
181 1 7.782 -7.683 7.031 
182 1 -5.418 -4.573 4.098 
183 1 6.658 0.379 1.936 
184 1 -0.955 6.094 -6.425 
185 1 -9.773 -0.278 -1.006 
186 1 -0.589 9.023 -4.495 
187 1 -3.024 -8.715 -9.846 
188 1 7.487 3.645 3.896 
189 1 9.332 7.194 3.954 
190 1 4.135 -7.081 1.799 
191 1 -1.476 9.405 1.654 
192 1 -3.083 0.102 -7.366 
193 1 -6.312 -7.225 -5.605 
194 1 2.537 7.264 -4.585 
195 1 8.984 0.224 8.963 
196 1 -4.777 8.274 -9.554 
197 1 -5.004 2.021 -9.752 
198 1 -0.478 2.075 -9.133 
199 1 6.633 -1.008 -1.106 
200 1 4.171 -8.970 -4.764 
ITEM: TIMESTEP
8000
ITEM: NUMBER OF ATOMS
200
ITEM: BOX BOUNDS pp pp pp
-9.855748163310864 9.855748163310864
-9.855748163310864 9.855748163310864
-9.855748163310864 9.855748163310864
ITEM: ATOMS id type x y z
1 1 3.611 3.918 2.913 
2 1 3.347 6.247 -0.650 
3 1 2.207 3.530 -6.101 
4 1 -1.839 6.068 6.873 
5 1 -7.648 -2.436 1.753 
6 1 4.636 -9.311 7.581 
7 1 3.792 -2.542 1.975 
8 1 3.738 7.690 9.081 
9 1 4.527 9.671 1.509 
10 1 -7.358 7.332 -1.528 
11 1 1.363 -4.979 3.912 
12 1 8.397 -8.874 3.141 
13 1 -8.303 -6.225 -2.259 
14 1 8.238 -5.439 4.038 
15 1 5.724 1.382 9.779 
16 1 1.603 8.447 -7.689 
17 1 -3.484 -8.051 0.218 
18 1 1.490 -8.704 -3.274 
19 1 -6.123 1.424 2.727 
20 1 -0.647 0.553 -2.445 
21 1 1.261 -0.778 -9.647 
22 1 -0.045 -7.339 -6.344 
23 1 5.956 6.531 -5.550 
24 1 9.335 6.886 -6.013 
25 1 -8.264 -9.603 7.854 
26 1 4.948 9.164 -7.586 
27 1 8.832 2.476 -0.070 
28 1 -6.952 8.603 -6.434 
29 1 -1.511 2.301 -5.264 
30 1 -7.596 -0.379 4.762 
31 1 -6.247 1.081 -0.563 
32 1 1.166 7.063 1.866 
33 1 0.689 -0.032 -6.113 
34 1 9.567 5.270 8.647 
35 1 1.306 -6.391 7.159 
36 1 -8.388 2.580 9.644 
37 1 3.325 -2.460 7.066 
38 1 -1.274 -6.639 2.981 
39 1 -7.577 2.537 6.007 
40 1 -0.050 4.630 -9.249 
41 1 -0.984 -6.616 -1.203 
42 1 9.794 -8.538 -5.861 
43 1 7.957 -4.040 -2.189 
44 1 3.855 -0.332 -7.728 
45 1 4.877 8.626 -1.982 
46 1 -4.916 -8.809 7.178 
47 1 -8.332 -6.938 3.619 
48 1 3.980 -6.827 -1.722 
49 1 6.333 -0.790 7.304 
50 1 4.163 5.443 -8.166 
51 1 -2.293 7.266 3.097 
52 1 3.974 3.436 6.533 
53 1 6.821 -7.309 -5.833 
54 1 8.457 8.600 -1.584 
55 1 4.094 -3.541 -9.379 
56 1 -6.819 -0.324 8.075 
57 1 5.771 6.696 2.680 
58 1 7.749 -1.541 -4.780 
59 1 2.919 -7.915 -7.784 
60 1 -1.434 1.034 0.692 
61 1 8.546 5.627 1.042 
62 1 -9.093 -1.584 -7.568 
63 1 6.164 9.452 4.845 
64 1 -6.234 -6.385 1.265 
65 1 -4.864 5.074 8.330 
66 1 -8.618 -9.454 -3.113 
67 1 8.923 0.131 5.082 
68 1 6.866 1.606 -2.512 
69 1 0.975 -4.935 -9.339 
70 1 -4.716 7.540 5.831 
71 1 8.520 -2.414 1.171 
72 1 6.710 -8.191 -0.327 
73 1 -7.424 9.526 0.807 
74 1 -6.912 0.706 -6.990 
75 1 1.889 -5.081 0.294 
76 1 7.111 -8.112 -9.272 
77 1 -3.268 -4.225 1.409 
78 1 3.140 -6.083 -5.071 
79 1 4.778 -6.320 9.073 
80 1 -9.510 -2.824 4.356 
81 1 -0.603 -3.114 -7.079 
82 1 -4.585 9.115 2.276 
83 1 -2.338 -9.346 -2.895 
84 1 -3.805 -0.336 5.637 
85 1 -9.440 8.741 -8.883 
86 1 -2.312 -5.476 -4.764 
87 1 -3.749 7.761 -6.276 
88 1 2.430 1.736 -2.360 
89 1 -2.110 -1.742 -4.468 
90 1 4.545 4.208 -3.004 
91 1 9.826 -8.337 0.174 
92 1 2.201 -8.794 3.876 
93 1 -4.917 3.249 -5.704 
94 1 8.313 3.522 -4.793 
95 1 1.486 -8.577 0.119 
96 1 -8.081 3.572 -1.090 
97 1 -5.564 4.476 3.899 
98 1 -8.612 1.048 -4.047 
99 1 -5.482 9.345 -3.454 
100 1 4.518 -0.637 -4.285 
101 1 -0.087 5.065 4.574 
102 1 -9.508 -5.074 1.057 
103 1 9.572 -4.766 -4.908 
104 1 -6.894 5.870 -8.784 
105 1 -6.007 -6.026 8.313 
106 1 6.146 -4.114 -6.022 
107 1 -0.185 -2.557 1.224 
108 1 7.201 7.844 -9.213 
109 1 -5.442 4.484 0.448 
110 1 1.113 4.478 7.574 
111 1 -1.133 -3.620 7.672 
112 1 8.387 8.368 7.229 
113 1 8.637 1.285 -7.932 
114 1 7.496 2.655 7.224 
115 1 -7.591 -5.099 -7.495 
116 1 4.560 -3.876 -2.784 
117 1 6.321 -2.437 4.469 
118 1 -5.414 -2.621 -1.140 
119 1 8.411 -4.502 -8.723 
120 1 -2.324 -3.263 4.397 
121 1 5.881 4.543 8.964 
122 1 -6.799 5.709 -4.849 
123 1 -3.549 8.452 -0.614 
124 1 4.603 0.442 4.943 
125 1 2.547 -3.037 -5.973 
126 1 -8.875 -4.858 6.750 
127 1 -2.375 2.428 6.700 
128 1 9.219 5.575 -2.245 
129 1 -1.029 8.015 9.849 
130 1 6.647 -1.571 -9.222 
131 1 -1.236 0.056 3.664 
132 1 -7.296 9.323 4.439 
133 1 5.163 2.000 -5.703 
134 1 -9.555 -7.100 9.044 
135 1 6.084 -4.279 0.422 
136 1 1.274 0.847 7.224 
137 1 0.732 3.770 0.762 
138 1 0.734 8.168 -1.370 
139 1 -3.722 -8.456 -6.468 
140 1 1.126 8.878 7.515 
141 1 -4.628 0.546 -3.617 
142 1 -9.667 0.432 2.245 
143 1 -4.638 -5.417 -2.595 
144 1 -1.859 -9.759 6.026 
145 1 -7.897 6.113 6.796 
146 1 -4.899 -2.765 -5.487 
147 1 -8.034 -2.856 -2.966 
148 1 1.069 2.029 4.338 
149 1 -5.571 -2.306 -8.786 
150 1 -2.807 -6.563 6.797 
151 1 5.009 2.827 -0.263 
152 1 -9.089 3.368 2.784 
153 1 1.903 -0.919 4.640 
154 1 0.268 -8.475 -9.764 
155 1 -3.284 4.817 -8.536 
156 1 -0.013 4.426 -3.519 
157 1 7.827 4.673 -8.193 
158 1 -2.999 -1.211 9.133 
159 1 -8.779 3.750 -6.873 
160 1 -5.592 -3.074 7.035 
161 1 -6.827 -8.522 -8.756 
162 1 4.901 -6.278 5.495 
163 1 0.630 -4.173 -3.400 
164 1 5.970 5.938 6.000 
165 1 -3.310 5.995 -3.387 
166 1 -3.592 -5.701 -8.427 
167 1 -2.331 3.148 3.237 
168 1 -1.507 5.678 0.045 
169 1 -4.033 -0.979 1.746 
170 1 -7.960 6.240 1.719 
171 1 1.973 -1.776 -1.309 
172 1 2.531 7.421 4.809 
173 1 -3.077 3.171 -1.778 
174 1 -8.709 -3.448 9.385 
175 1 7.551 -3.903 7.392 
176 1 2.380 2.583 -9.375 
177 1 7.152 9.323 -4.679 
178 1 1.964 0.644 1.242 
179 1 -5.232 -8.155 4.058 
180 1 -2.229 -2.927 -1.316 
181 1 7.707 -7.721 6.328 
182 1 -5.428 -4.849 3.981 
183 1 6.643 0.860 1.997 
184 1 -0.994 6.049 -6.254 
185 1 -9.449 -0.433 -1.263 
186 1 -0.655 9.050 -5.092 
187 1 -2.695 -8.375 9.345 
188 1 7.858 3.692 3.958 
189 1 9.415 7.245 4.281 
190 1 4.447 -6.741 1.952 
191 1 -1.248 -9.807 1.813 
192 1 -3.317 0.096 -7.424 
193 1 -6.504 -7.149 -5.185 
194 1 2.194 7.028 -4.421 
195 1 9.396 -0.677 8.520 
196 1 -4.837 8.451 -9.736 
197 1 -4.894 1.747 -9.816 
198 1 -0.970 1.623 -8.798 
199 1 6.121 -1.215 -0.877 
200 1 4.140 -9.085 -4.539 
ITEM: TIMESTEP
9000
ITEM: NUMBER OF ATOMS
200
ITEM: BOX BOUNDS pp pp pp
-9.855748163310864 9.855748163310864
-9.855748163310864 9.855748163310864
-9.855748163310864 9.855748163310864
ITEM: ATOMS id type x y z
1 1 3.540 4.506 3.276 
2 1 2.281 5.711 -1.260 
3 1 2.168 3.541 -5.512 
4 1 -2.068 5.925 7.109 
5 1 -6.987 -2.033 1.855 
6 1 3.922 -9.211 7.354 
7 1 4.191 -1.942 2.045 
8 1 3.803 7.998 9.400 
9 1 4.188 9.545 2.109 
10 1 -7.817 7.534 -1.487 
11 1 1.561 -5.178 4.008 
12 1 8.073 -8.386 2.987 
13 1 -7.972 -6.171 -2.542 
14 1 8.012 -5.411 4.179 
15 1 6.193 1.426 -9.476 
16 1 1.684 8.637 -7.883 
17 1 -3.513 -7.757 0.531 
18 1 0.946 -8.453 -3.120 
19 1 -6.238 1.713 2.325 
20 1 -0.329 -0.016 -2.517 
21 1 1.019 -1.291 -9.462 
22 1 -0.449 -7.249 -6.765 
23 1 5.664 6.116 -5.665 
24 1 -9.227 6.825 -6.034 
25 1 -8.489 -9.515 8.364 
26 1 5.125 9.721 -7.758 
27 1 8.843 2.617 -0.169 
28 1 -6.737 8.968 -6.258 
29 1 -1.528 2.219 -4.969 
30 1 -7.724 -0.640 4.815 
31 1 -5.740 0.670 -0.764 
32 1 1.532 7.541 1.795 
33 1 1.119 0.336 -5.807 
34 1 9.300 5.027 8.747 
35 1 1.535 -6.591 7.113 
36 1 -8.562 2.352 9.311 
37 1 3.783 -2.801 7.360 
38 1 -1.270 -6.395 3.334 
39 1 -7.539 2.459 5.795 
40 1 0.199 5.113 -9.012 
41 1 -0.708 -6.428 -0.695 
42 1 -9.230 -8.248 -6.360 
43 1 8.626 -4.379 -2.201 
44 1 4.614 -0.529 -6.967 
45 1 4.962 8.375 -2.149 
46 1 -4.974 -9.081 7.350 
47 1 -8.300 -7.043 3.474 
48 1 3.687 -7.396 -1.886 
49 1 6.087 -0.530 7.313 
50 1 3.755 5.215 -7.904 
51 1 -2.072 6.836 3.021 
52 1 3.974 3.436 6.533 
53 1 6.772 -6.785 -4.077 
54 1 8.314 9.175 -1.552 
55 1 4.017 -3.175 -8.995 
56 1 -6.721 -0.062 8.041 
57 1 5.725 6.712 2.542 
58 1 7.754 -1.241 -4.929 
59 1 2.847 -7.454 -8.368 
60 1 -1.704 1.271 0.031 
61 1 8.050 6.217 0.716 
62 1 -9.410 -2.171 -6.625 
63 1 5.981 9.478 4.719 
64 1 -6.104 -6.173 1.085 
65 1 -5.269 4.981 7.847 
66 1 -8.296 -9.398 -2.991 
67 1 8.803 0.576 5.377 
68 1 6.134 1.937 -2.199 
69 1 0.648 -4.615 -9.163 
70 1 -4.673 7.953 6.100 
71 1 8.365 -2.416 1.215 
72 1 6.391 -8.074 -0.016 
73 1 -7.354 -9.782 0.761 
74 1 -7.166 0.197 -7.046 
75 1 2.119 -4.764 0.568 
76 1 7.850 -8.236 -8.694 
77 1 -3.037 -4.478 1.462 
78 1 3.589 -6.010 -5.392 
79 1 4.948 -6.070 9.297 
80 1 9.788 -2.717 4.284 
81 1 -0.851 -2.635 -7.180 
82 1 -4.813 8.372 2.290 
83 1 -2.301 -8.470 -3.365 
84 1 -4.251 -0.274 5.826 
85 1 -9.372 8.421 -8.927 
86 1 -2.321 -5.334 -4.301 
87 1 -3.657 7.585 -6.739 
88 1 2.491 1.735 -1.907 
89 1 -2.032 -1.952 -4.271 
90 1 4.613 4.463 -3.030 
91 1 9.834 -7.987 -0.003 
92 1 1.986 -8.337 4.483 
93 1 -4.953 2.771 -6.319 
94 1 8.600 2.840 -4.893 
95 1 1.572 -8.575 0.938 
96 1 -8.127 3.977 -0.839 
97 1 -5.275 4.575 4.418 
98 1 -8.239 1.361 -3.666 
99 1 -5.060 9.161 -3.563 
100 1 4.000 -0.181 -3.709 
101 1 -0.056 4.974 4.500 
102 1 -8.915 -4.691 1.389 
103 1 9.769 -5.064 -4.998 
104 1 -6.539 6.031 -8.875 
105 1 -5.703 -5.842 9.076 
106 1 5.972 -3.665 -6.015 
107 1 -0.230 -2.165 1.566 
108 1 7.073 7.490 -9.215 
109 1 -4.880 4.958 0.754 
110 1 1.354 4.975 7.484 
111 1 -2.205 -3.708 7.935 
112 1 8.138 8.570 7.530 
113 1 8.981 0.913 -8.083 
114 1 7.397 2.976 7.119 
115 1 -7.642 -4.467 -7.313 
116 1 4.821 -3.757 -2.802 
117 1 6.230 -2.349 4.432 
118 1 -5.216 -2.309 -1.351 
119 1 8.411 -5.334 -8.191 
120 1 -2.112 -3.445 4.516 
121 1 5.868 4.946 9.056 
122 1 -6.065 5.606 -4.873 
123 1 -3.449 9.012 -0.605 
124 1 3.966 0.700 4.561 
125 1 2.378 -3.087 -5.948 
126 1 -8.515 -4.681 6.436 
127 1 -2.556 2.419 7.024 
128 1 9.719 5.370 -3.152 
129 1 -1.575 8.227 -9.559 
130 1 7.055 -2.055 -8.942 
131 1 -1.469 -0.099 3.823 
132 1 -7.866 9.630 5.207 
133 1 5.777 2.248 -5.925 
134 1 -9.418 -6.391 8.893 
135 1 6.017 -4.671 -0.195 
136 1 1.091 0.579 7.486 
137 1 0.813 3.687 0.957 
138 1 0.427 8.649 -1.228 
139 1 -3.123 -9.042 -6.687 
140 1 0.776 8.733 7.343 
141 1 -4.489 0.529 -3.754 
142 1 -9.341 0.240 2.227 
143 1 -4.828 -6.211 -2.134 
144 1 -1.607 9.625 5.653 
145 1 -8.397 6.075 5.633 
146 1 -5.492 -2.577 -5.434 
147 1 -8.332 -2.722 -3.537 
148 1 0.937 2.100 4.064 
149 1 -5.004 -2.151 -9.084 
150 1 -2.922 -6.563 6.565 
151 1 5.025 3.473 0.530 
152 1 -9.308 4.139 3.211 
153 1 1.590 -1.782 5.032 
154 1 0.263 -8.364 9.517 
155 1 -3.075 4.532 -8.666 
156 1 0.167 4.534 -3.228 
157 1 7.865 4.764 -7.484 
158 1 -2.767 -0.776 8.780 
159 1 -8.457 3.946 -6.900 
160 1 -5.600 -3.100 7.063 
161 1 -6.134 -8.254 -8.566 
162 1 4.622 -5.827 5.783 
163 1 0.466 -3.962 -3.339 
164 1 6.114 6.582 6.090 
165 1 -2.653 6.865 -3.505 
166 1 -3.424 -4.801 -7.966 
167 1 -2.449 3.099 2.764 
168 1 -1.772 6.110 -0.408 
169 1 -3.822 -1.045 1.680 
170 1 -7.608 6.511 1.489 
171 1 2.354 -1.901 -1.424 
172 1 2.487 7.022 4.988 
173 1 -3.027 3.512 -2.584 
174 1 -8.428 -3.344 9.463 
175 1 7.890 -3.690 7.182 
176 1 2.245 2.634 -9.257 
177 1 7.297 8.969 -4.977 
178 1 1.951 0.534 1.306 
179 1 -4.781 -8.138 4.178 
180 1 -1.942 -2.950 -1.221 
181 1 7.377 -8.044 6.660 
182 1 -6.114 -4.150 4.069 
183 1 6.790 0.866 1.718 
184 1 -0.864 6.032 -6.371 
185 1 -9.812 -1.094 -1.275 
186 1 -0.523 8.984 -5.225 
187 1 -3.027 -7.749 9.833 
188 1 6.906 3.887 3.814 
189 1 9.108 8.173 4.138 
190 1 4.748 -6.536 2.741 
191 1 -1.429 -9.691 1.782 
192 1 -3.505 0.042 -7.045 
193 1 -6.233 -7.554 -4.955 
194 1 2.151 7.077 -4.300 
195 1 9.737 -0.818 8.121 
196 1 -5.144 8.864 -9.839 
197 1 -5.143 1.753 -9.659 
198 1 -1.282 1.728 -9.214 
199 1 5.823 -1.314 -0.862 
200 1 3.948 -9.390 -4.810 
ITEM: TIMESTEP
10000
ITEM: NUMBER OF ATOMS
200
ITEM: BOX BOUNDS pp pp pp
-9.855748163310864 9.855748163310864
-9.855748163310864 9.855748163310864
-9.855748163310864 9.855748163310864
ITEM: ATOMS id type x y z
1 1 3.075 4.207 3.590 
2 1 2.444 5.919 -0.944 
3 1 1.989 3.181 -5.558 
4 1 -2.139 6.003 7.588 
5 1 -6.674 -1.817 1.856 
6 1 4.147 -9.001 7.228 
7 1 3.866 -2.361 2.044 
8 1 4.015 7.932 8.991 
9 1 4.092 9.623 1.116 
10 1 -7.497 6.805 -1.986 
11 1 1.907 -5.425 3.421 
12 1 7.870 -8.828 2.598 
13 1 -7.753 -6.306 -2.631 
14 1 7.911 -5.558 4.069 
15 1 6.036 1.162 -9.585 
16 1 1.516 9.069 -8.007 
17 1 -3.270 -7.792 0.414 
18 1 0.967 -8.685 -3.303 
19 1 -5.558 1.862 2.406 
20 1 -0.454 0.641 -2.711 
21 1 1.494 -1.305 -9.764 
22 1 0.488 -6.537 -6.194 
23 1 6.067 6.382 -5.984 
24 1 9.427 7.223 -6.274 
25 1 -8.409 -9.407 8.221 
26 1 5.193 9.722 -8.222 
27 1 8.774 2.370 -0.594 
28 1 -6.966 8.326 -6.180 
29 1 -1.909 2.664 -5.469 
30 1 -7.715 -0.382 4.922 
31 1 -6.175 0.958 -0.830 
32 1 1.375 7.717 1.811 
33 1 0.680 0.458 -6.046 
34 1 9.715 5.192 8.677 
35 1 1.117 -6.489 6.922 
36 1 -8.438 2.236 9.547 
37 1 3.654 -3.018 7.541 
38 1 -1.277 -6.726 3.271 
39 1 -8.530 3.096 5.338 
40 1 0.343 4.864 -9.064 
41 1 -0.794 -6.616 -0.953 
42 1 -9.177 -8.060 -6.536 
43 1 8.418 -4.244 -1.573 
44 1 3.805 -0.492 -7.063 
45 1 4.990 8.466 -1.738 
46 1 -5.372 -9.183 7.343 
47 1 -8.705 -7.005 4.600 
48 1 3.546 -7.316 -1.528 
49 1 5.802 -0.338 7.275 
50 1 3.246 5.533 -7.643 
51 1 -2.885 6.885 3.569 
52 1 3.814 3.108 7.080 
53 1 6.944 -7.102 -3.354 
54 1 8.236 9.332 -2.081 
55 1 3.881 -3.501 -9.020 
56 1 -6.888 -0.044 8.359 
57 1 5.796 6.417 2.588 
58 1 7.949 -1.057 -4.409 
59 1 2.923 -7.533 -8.241 
60 1 -1.591 1.377 0.479 
61 1 8.250 6.862 0.746 
62 1 -8.969 -1.925 -5.947 
63 1 6.038 9.432 4.844 
64 1 -6.062 -6.513 1.043 
65 1 -5.004 4.508 7.638 
66 1 -8.470 -9.708 -3.250 
67 1 8.548 0.498 5.190 
68 1 6.134 1.937 -2.199 
69 1 0.695 -4.520 -9.343 
70 1 -4.921 7.599 6.189 
71 1 8.534 -2.216 1.035 
72 1 6.676 -8.129 -0.173 
73 1 -7.428 -9.363 0.072 
74 1 -7.296 0.564 -7.529 
75 1 1.751 -5.058 -0.062 
76 1 7.939 -8.897 -8.543 
77 1 -3.731 -4.425 1.274 
78 1 3.825 -6.290 -4.913 
79 1 5.427 -6.662 9.278 
80 1 -9.318 -2.732 3.639 
81 1 -1.105 -2.396 -7.571 
82 1 -5.502 8.375 2.580 
83 1 -2.267 -8.834 -3.057 
84 1 -4.577 0.154 5.328 
85 1 -8.978 7.904 -9.783 
86 1 -2.518 -5.885 -4.925 
87 1 -3.888 7.716 -6.537 
88 1 2.288 1.954 -1.950 
89 1 -1.927 -2.395 -4.243 
90 1 4.043 4.657 -3.415 
91 1 9.646 -7.393 0.114 
92 1 2.696 -8.713 4.338 
93 1 -4.697 3.108 -6.683 
94 1 8.974 3.049 -4.986 
95 1 1.486 -8.364 1.045 
96 1 -7.692 4.011 -0.446 
97 1 -5.574 4.786 4.136 
98 1 -7.584 1.693 -3.916 
99 1 -5.040 9.317 -3.204 
100 1 4.690 -0.553 -4.060 
101 1 -0.371 5.364 4.659 
102 1 -8.262 -4.153 0.199 
103 1 9.821 -5.340 -4.783 
104 1 -6.606 5.225 -9.001 
105 1 -5.476 -5.216 9.090 
106 1 6.018 -3.942 -5.656 
107 1 0.337 -1.648 1.446 
108 1 6.847 7.202 -9.101 
109 1 -5.045 5.192 1.218 
110 1 1.626 5.651 7.598 
111 1 -1.796 -4.465 8.172 
112 1 8.247 8.352 7.333 
113 1 8.746 1.069 -7.911 
114 1 7.691 2.743 7.533 
115 1 -6.993 -5.371 -7.081 
116 1 4.834 -3.983 -2.610 
117 1 6.565 -1.932 3.838 
118 1 -5.092 -2.544 -1.841 
119 1 7.797 -5.625 -8.046 
120 1 -1.757 -3.679 4.356 
121 1 5.480 4.657 9.420 
122 1 -6.731 4.943 -4.440 
123 1 -3.568 8.346 -0.239 
124 1 4.146 0.529 4.768 
125 1 2.404 -3.400 -6.055 
126 1 -9.032 -4.393 6.610 
127 1 -2.447 2.420 6.932 
128 1 9.803 5.608 -3.355 
129 1 -1.801 8.055 -9.228 
130 1 7.297 -2.485 -9.108 
131 1 -1.141 -0.532 4.226 
132 1 -7.749 9.749 4.908 
133 1 5.746 1.770 -5.871 
134 1 -8.550 -6.658 9.672 
135 1 6.159 -4.842 0.605 
136 1 1.277 1.426 7.720 
137 1 0.541 3.709 0.950 
138 1 0.258 8.226 -1.453 
139 1 -2.895 -8.579 -6.999 
140 1 0.797 9.204 7.418 
141 1 -4.413 0.651 -3.841 
142 1 -9.231 0.273 1.658 
143 1 -4.629 -6.308 -2.242 
144 1 -2.097 9.347 6.020 
145 1 -8.409 6.569 5.734 
146 1 -4.777 -3.025 -5.667 
147 1 -8.029 -3.031 -3.088 
148 1 0.772 2.111 4.269 
149 1 -5.005 -2.037 -9.262 
150 1 -2.450 -7.331 6.503 
151 1 4.972 3.796 0.720 
152 1 9.446 4.035 2.179 
153 1 1.864 -2.465 4.879 
154 1 0.019 -8.653 -9.843 
155 1 -3.039 5.043 -9.094 
156 1 0.028 4.305 -2.775 
157 1 7.847 4.436 -8.047 
158 1 -2.048 -1.038 8.977 
159 1 -8.498 3.465 -7.130 
160 1 -5.699 -2.674 6.488 
161 1 -6.209 -8.455 -8.461 
162 1 4.373 -5.830 5.672 
163 1 0.789 -4.522 -3.242 
164 1 5.460 6.124 6.459 
165 1 -2.750 6.890 -3.203 
166 1 -3.565 -5.035 -8.059 
167 1 -2.364 3.272 3.084 
168 1 -1.574 5.899 -0.460 
169 1 -3.571 -1.282 1.275 
170 1 -8.258 6.691 1.305 
171 1 2.177 -1.931 -1.253 
172 1 2.609 7.506 5.167 
173 1 -3.400 3.087 -1.867 
174 1 -8.711 -3.009 -8.965 
175 1 7.302 -3.894 7.268 
176 1 2.276 2.135 -8.701 
177 1 7.387 9.372 -5.351 
178 1 2.982 0.979 1.735 
179 1 -4.498 -8.048 3.510 
180 1 -1.748 -3.376 -1.247 
181 1 8.221 -7.630 7.642 
182 1 -5.473 -4.646 3.909 
183 1 6.790 1.306 1.567 
184 1 -1.218 5.804 -6.047 
185 1 -9.676 -0.367 -1.697 
186 1 -0.591 8.973 -5.409 
187 1 -3.213 -7.887 9.605 
188 1 6.226 3.488 4.311 
189 1 9.207 8.091 3.792 
190 1 4.849 -7.040 2.343 
191 1 -1.367 9.325 2.087 
192 1 -3.772 -0.134 -6.933 
193 1 -5.846 -7.922 -4.966 
194 1 2.395 7.249 -4.510 
195 1 9.391 -0.334 8.153 
196 1 -5.150 8.359 -9.765 
197 1 -4.538 1.454 9.555 
198 1 -1.191 1.366 -8.680 
199 1 6.328 -1.280 -1.078 
200 1 4.188 -9.595 -4.959 
ITEM: TIMESTEP
11000
ITEM: NUMBER OF ATOMS
200
ITEM: BOX BOUNDS pp pp pp
-9.855748163310864 9.855748163310864
-9.855748163310864 9.855748163310864
-9.855748163310864 9.855748163310864
ITEM: ATOMS id type x y z
1 1 3.161 4.327 3.716 
2 1 2.505 5.971 -0.756 
3 1 2.421 3.465 -5.466 
4 1 -1.979 6.598 7.674 
5 1 -6.661 -2.116 2.335 
6 1 4.647 -9.240 7.288 
7 1 3.615 -2.516 2.152 
8 1 4.190 7.812 9.343 
9 1 4.715 9.743 1.281 
10 1 -7.510 7.052 -2.133 
11 1 1.273 -5.041 3.074 
12 1 8.171 -9.224 2.203 
13 1 -7.903 -6.301 -2.334 
14 1 7.841 -5.694 4.418 
15 1 6.107 1.305 -9.537 
16 1 1.524 8.671 -8.397 
17 1 -2.830 -8.163 0.884 
18 1 0.953 -8.438 -3.752 
19 1 -5.814 2.057 2.521 
20 1 -0.465 0.850 -2.670 
21 1 1.579 -1.240 -9.663 
22 1 0.095 -6.597 -6.551 
23 1 5.831 6.311 -5.286 
24 1 9.609 7.170 -6.033 
25 1 -8.524 -9.569 7.889 
26 1 4.771 -9.832 -7.842 
27 1 8.577 2.699 -0.416 
28 1 -7.144 8.612 -6.165 
29 1 -1.730 2.407 -5.729 
30 1 -7.943 0.015 4.601 
31 1 -5.857 0.852 -0.533 
32 1 2.092 7.958 1.577 
33 1 1.454 0.051 -5.790 
34 1 9.687 5.404 8.873 
35 1 1.472 -6.494 6.958 
36 1 -8.997 2.146 9.523 
37 1 3.449 -3.072 7.378 
38 1 -0.869 -7.371 3.454 
39 1 -8.536 2.979 6.437 
40 1 0.388 4.635 -9.089 
41 1 -0.463 -6.568 -0.830 
42 1 -9.414 -8.234 -6.139 
43 1 8.574 -4.021 -1.984 
44 1 4.058 -1.137 -7.070 
45 1 4.945 8.563 -2.288 
46 1 -4.988 -8.429 7.013 
47 1 -8.277 -6.643 4.091 
48 1 3.007 -7.652 -1.892 
49 1 5.608 -0.591 6.956 
50 1 3.403 5.484 -7.789 
51 1 -3.155 6.740 3.862 
52 1 3.967 2.558 7.188 
53 1 6.764 -7.070 -3.481 
54 1 7.889 9.219 -2.128 
55 1 4.160 -4.256 -8.695 
56 1 -6.636 0.094 7.711 
57 1 4.993 7.101 2.964 
58 1 7.976 -0.543 -4.645 
59 1 2.739 -7.496 -8.751 
60 1 -1.409 1.509 0.550 
61 1 7.615 6.370 0.504 
62 1 -8.702 -1.821 -6.345 
63 1 5.856 -9.849 4.564 
64 1 -6.395 -6.843 1.179 
65 1 -4.424 4.170 7.162 
66 1 -8.730 -9.772 -2.761 
67 1 8.574 1.061 4.906 
68 1 6.247 1.900 -2.301 
69 1 1.034 -4.818 -9.760 
70 1 -5.285 7.543 6.065 
71 1 8.810 -2.102 1.028 
72 1 6.032 -7.088 -0.014 
73 1 -7.445 9.533 0.148 
74 1 -7.038 0.876 -7.692 
75 1 2.025 -5.011 -0.079 
76 1 7.741 -9.073 -8.803 
77 1 -3.873 -4.604 1.311 
78 1 3.540 -5.955 -5.146 
79 1 5.096 -6.518 9.144 
80 1 -9.189 -3.553 3.308 
81 1 -1.272 -2.329 -7.785 
82 1 -5.682 8.324 2.492 
83 1 -2.373 -8.690 -2.626 
84 1 -4.376 0.056 5.156 
85 1 -8.660 8.221 -9.214 
86 1 -2.328 -5.713 -4.785 
87 1 -4.048 7.449 -7.127 
88 1 2.630 1.724 -2.114 
89 1 -1.462 -2.626 -4.533 
90 1 4.310 4.550 -2.965 
91 1 -9.299 -7.612 -0.013 
92 1 2.504 -8.555 4.199 
93 1 -4.661 3.366 -6.345 
94 1 9.125 2.429 -4.326 
95 1 1.467 -8.306 0.963 
96 1 -7.956 3.680 -0.691 
97 1 -6.000 4.785 4.223 
98 1 -6.966 2.037 -4.095 
99 1 -5.604 9.372 -2.896 
100 1 4.446 -0.628 -3.753 
101 1 -0.191 5.945 4.471 
102 1 -8.123 -3.915 0.269 
103 1 9.453 -5.032 -5.602 
104 1 -6.822 5.281 -8.621 
105 1 -5.341 -5.184 8.830 
106 1 5.939 -3.806 -5.373 
107 1 -0.077 -1.535 1.046 
108 1 7.397 7.239 -8.709 
109 1 -4.458 5.218 0.767 
110 1 1.225 5.391 7.396 
111 1 -1.810 -4.043 8.121 
112 1 8.474 8.059 7.626 
113 1 8.734 0.885 -7.924 
114 1 7.893 2.587 7.983 
115 1 -6.653 -5.457 -7.250 
116 1 4.662 -4.778 -2.137 
117 1 6.333 -1.952 3.933 
118 1 -5.194 -2.204 -1.909 
119 1 7.540 -5.435 -8.502 
120 1 -2.002 -4.001 4.849 
121 1 5.513 4.345 9.531 
122 1 -6.729 5.668 -5.413 
123 1 -3.593 8.465 -0.581 
124 1 3.820 0.189 4.217 
125 1 1.727 -3.583 -6.383 
126 1 -9.454 -3.946 6.519 
127 1 -1.972 1.606 6.462 
128 1 9.723 5.404 -3.224 
129 1 -1.597 8.354 -9.021 
130 1 7.332 -2.528 -9.521 
131 1 -1.336 -0.766 4.240 
132 1 -7.961 9.821 4.227 
133 1 5.692 2.051 -5.784 
134 1 -8.562 -6.231 9.569 
135 1 6.266 -4.109 0.809 
136 1 1.157 0.906 7.720 
137 1 0.489 4.097 1.177 
138 1 0.681 8.504 -1.435 
139 1 -2.483 -8.656 -6.918 
140 1 0.718 8.870 7.544 
141 1 -3.571 0.379 -3.462 
142 1 -9.477 0.449 1.667 
143 1 -4.471 -5.786 -2.049 
144 1 -1.767 9.137 5.463 
145 1 -8.392 6.390 5.949 
146 1 -5.086 -3.171 -4.827 
147 1 -7.994 -3.271 -3.470 
148 1 0.753 1.997 3.762 
149 1 -5.447 -2.371 -8.729 
150 1 -2.193 -6.984 6.475 
151 1 4.793 4.103 0.772 
152 1 9.618 4.046 2.974 
153 1 0.952 -2.142 5.584 
154 1 -0.242 -8.425 -9.817 
155 1 -3.469 4.662 -9.247 
156 1 -0.071 4.053 -3.035 
157 1 7.879 4.181 -7.852 
158 1 -2.162 -1.064 9.008 
159 1 -8.780 3.684 -6.981 
160 1 -5.963 -2.829 6.185 
161 1 -6.103 -8.683 -8.492 
162 1 4.773 -5.668 5.913 
163 1 1.062 -5.040 -3.550 
164 1 5.839 6.245 6.662 
165 1 -3.375 7.166 -3.868 
166 1 -3.161 -4.764 -8.293 
167 1 -2.687 3.277 3.418 
168 1 -1.337 5.851 -0.602 
169 1 -3.503 -0.870 1.595 
170 1 -7.818 6.327 1.781 
171 1 2.111 -2.172 -2.049 
172 1 2.660 7.689 5.311 
173 1 -3.851 3.438 -2.368 
174 1 -8.665 -3.218 -9.274 
175 1 7.085 -3.628 6.948 
176 1 2.549 1.608 -8.578 
177 1 7.142 9.481 -5.474 
178 1 2.883 1.193 1.180 
179 1 -4.339 -8.647 3.564 
180 1 -1.990 -3.107 -1.082 
181 1 8.587 -7.391 7.335 
182 1 -5.159 -5.391 4.331 
183 1 6.770 0.933 1.512 
184 1 -1.528 5.445 -6.449 
185 1 -9.368 -0.480 -2.076 
186 1 -0.853 8.621 -4.981 
187 1 -3.277 -7.626 -9.849 
188 1 6.381 3.574 4.801 
189 1 8.447 7.212 4.460 
190 1 4.501 -6.161 2.468 
191 1 -1.339 9.142 2.106 
192 1 -3.468 -0.113 -6.995 
193 1 -5.387 -7.646 -4.976 
194 1 2.459 7.063 -4.452 
195 1 9.474 -0.595 7.912 
196 1 -4.720 8.288 9.479 
197 1 -4.313 1.371 9.611 
198 1 -0.701 0.957 -8.589 
199 1 6.524 -1.429 -1.546 
200 1 3.959 -9.111 -4.857 
ITEM: TIMESTEP
12000
ITEM: NUMBER OF ATOMS
200
ITEM: BOX BOUNDS pp pp pp
-9.855748163310864 9.855748163310864
-9.855748163310864 9.855748163310864
-9.855748163310864 9.855748163310864
ITEM: ATOMS id type x y z
1 1 3.297 4.592 3.800 
2 1 2.268 6.230 -0.903 
3 1 2.259 3.083 -6.004 
4 1 -2.038 6.433 7.725 
5 1 -6.197 -1.877 2.554 
6 1 5.174 -9.411 7.296 
7 1 3.962 -2.341 2.422 
8 1 4.066 7.792 9.064 
9 1 4.773 9.243 0.636 
10 1 -7.642 7.331 -1.455 
11 1 1.743 -5.394 3.558 
12 1 8.165 -9.260 2.109 
13 1 -8.424 -6.441 -2.761 
14 1 7.929 -5.703 3.920 
15 1 5.764 0.601 -9.775 
16 1 1.806 8.467 -7.747 
17 1 -3.559 -8.410 0.495 
18 1 0.392 -8.414 -3.825 
19 1 -5.932 1.985 2.941 
20 1 -0.510 0.886 -2.547 
21 1 2.644 -1.541 -9.726 
22 1 0.220 -7.107 -6.465 
23 1 5.837 5.864 -5.852 
24 1 9.281 6.632 -6.617 
25 1 -8.489 -9.515 7.724 
26 1 5.042 -9.741 -7.948 
27 1 8.416 3.663 -0.178 
28 1 -7.044 8.645 -5.996 
29 1 -1.593 2.607 -5.333 
30 1 -7.994 -0.288 4.822 
31 1 -6.306 0.331 -0.755 
32 1 2.114 7.621 2.099 
33 1 1.354 0.125 -5.402 
34 1 9.750 5.693 8.869 
35 1 1.671 -6.394 7.233 
36 1 -8.837 2.373 9.416 
37 1 3.967 -3.348 7.500 
38 1 -1.094 -7.379 2.969 
39 1 -8.521 2.881 6.257 
40 1 0.500 4.619 -9.091 
41 1 -0.624 -6.688 -0.882 
42 1 -9.440 -7.912 -6.512 
43 1 8.623 -4.615 -2.468 
44 1 4.552 -0.863 -7.298 
45 1 4.686 8.286 -2.260 
46 1 -5.586 -8.626 7.094 
47 1 -8.771 -7.024 4.686 
48 1 3.111 -8.431 -1.807 
49 1 5.537 -0.410 6.836 
50 1 3.300 5.364 -7.819 
51 1 -2.939 6.305 3.775 
52 1 3.912 2.920 7.070 
53 1 6.916 -7.369 -4.291 
54 1 7.602 9.490 -2.602 
55 1 4.164 -4.118 -8.313 
56 1 -6.565 -0.532 8.886 
57 1 5.485 6.245 1.949 
58 1 7.753 -0.413 -5.123 
59 1 2.608 -7.786 -9.354 
60 1 -0.447 1.440 1.031 
61 1 8.213 7.234 0.402 
62 1 -8.688 -1.173 -6.375 
63 1 5.326 -9.729 3.703 
64 1 -6.273 -7.022 1.490 
65 1 -4.982 4.224 6.568 
66 1 -9.045 -9.748 -3.121 
67 1 8.396 1.023 5.171 
68 1 6.081 1.843 -2.483 
69 1 0.971 -4.586 -9.283 
70 1 -5.505 8.158 5.824 
71 1 9.318 -2.267 0.487 
72 1 6.522 -7.262 -0.521 
73 1 -6.942 -9.828 0.370 
74 1 -6.752 1.102 -8.150 
75 1 1.943 -4.748 0.210 
76 1 8.355 -8.865 -9.033 
77 1 -3.618 -4.916 1.462 
78 1 3.451 -6.570 -6.210 
79 1 5.559 -6.286 9.322 
80 1 -8.972 -3.356 3.536 
81 1 -1.342 -2.137 -8.234 
82 1 -5.246 8.646 2.510 
83 1 -2.598 -9.102 -2.479 
84 1 -4.394 0.205 5.166 
85 1 -8.646 8.228 -8.916 
86 1 -2.456 -5.770 -5.021 
87 1 -4.165 7.060 -6.659 
88 1 2.518 2.125 -2.150 
89 1 -1.049 -2.420 -4.095 
90 1 4.605 4.997 -3.077 
91 1 -9.571 -7.021 0.252 
92 1 1.840 -8.621 4.573 
93 1 -4.805 3.333 -6.840 
94 1 9.386 2.401 -4.040 
95 1 1.607 -8.263 1.280 
96 1 -8.166 3.302 -0.285 
97 1 -6.326 5.408 3.954 
98 1 -7.249 1.851 -4.374 
99 1 -5.249 8.963 -3.213 
100 1 4.559 -0.520 -3.986 
101 1 -0.195 5.752 4.856 
102 1 -7.347 -3.824 0.131 
103 1 9.795 -4.580 -5.257 
104 1 -6.450 5.345 -9.189 
105 1 -5.101 -5.236 8.720 
106 1 6.343 -4.476 -5.443 
107 1 0.421 -2.186 1.492 
108 1 7.676 7.754 -9.304 
109 1 -4.356 4.827 1.058 
110 1 1.287 4.876 7.459 
111 1 -1.929 -4.249 8.205 
112 1 8.441 8.509 7.198 
113 1 8.820 0.800 -8.341 
114 1 7.453 2.955 7.876 
115 1 -6.971 -5.264 -7.683 
116 1 4.631 -4.363 -2.474 
117 1 6.643 -2.329 3.889 
118 1 -5.077 -2.762 -2.075 
119 1 7.531 -5.481 -8.025 
120 1 -2.241 -3.871 4.646 
121 1 5.330 4.837 9.332 
122 1 -6.807 5.517 -5.033 
123 1 -4.064 7.717 -0.600 
124 1 2.988 -0.258 4.744 
125 1 1.598 -3.367 -6.177 
126 1 -9.306 -4.238 6.941 
127 1 -2.103 1.950 7.029 
128 1 -9.783 5.760 -3.349 
129 1 -1.622 8.550 -8.810 
130 1 7.327 -2.347 -8.722 
131 1 -0.988 -0.348 3.864 
132 1 -8.343 9.653 3.922 
133 1 5.399 2.072 -6.121 
134 1 -8.880 -6.503 -9.544 
135 1 6.251 -4.198 0.950 
136 1 0.840 0.386 7.120 
137 1 0.500 4.729 1.661 
138 1 0.888 9.078 -1.136 
139 1 -2.851 -8.320 -7.132 
140 1 0.684 8.436 8.345 
141 1 -3.668 0.066 -2.846 
142 1 -9.543 0.844 1.744 
143 1 -4.447 -6.088 -2.173 
144 1 -2.025 9.443 6.355 
145 1 -8.563 6.187 5.931 
146 1 -4.890 -3.170 -5.386 
147 1 -8.195 -2.739 -3.267 
148 1 1.005 2.291 3.975 
149 1 -5.766 -2.594 -8.357 
150 1 -1.727 -6.991 6.351 
151 1 4.561 3.659 0.114 
152 1 9.851 4.056 3.412 
153 1 1.062 -2.611 5.518 
154 1 -0.499 -7.987 -9.838 
155 1 -2.916 4.282 -9.193 
156 1 0.247 4.283 -3.243 
157 1 7.526 3.853 -7.968 
158 1 -2.807 -1.032 8.130 
159 1 -8.997 3.589 -7.042 
160 1 -5.536 -2.739 6.558 
161 1 -6.075 -8.643 -8.544 
162 1 4.563 -6.186 5.839 
163 1 1.062 -5.040 -3.550 
164 1 5.362 5.951 6.316 
165 1 -3.344 6.284 -3.572 
166 1 -3.076 -4.736 -8.241 
167 1 -2.151 3.272 3.567 
168 1 -1.157 6.062 -0.758 
169 1 -3.217 -1.206 1.810 
170 1 -8.407 6.581 1.703 
171 1 1.311 -1.925 -1.805 
172 1 2.544 7.791 5.428 
173 1 -3.267 3.117 -2.625 
174 1 -8.872 -3.163 -9.759 
175 1 6.938 -3.823 6.887 
176 1 2.679 1.818 -9.089 
177 1 7.770 9.558 -5.761 
178 1 2.844 0.657 0.745 
179 1 -4.210 -8.360 3.873 
180 1 -1.896 -3.269 -0.902 
181 1 7.953 -7.693 7.182 
182 1 -5.978 -5.198 4.130 
183 1 6.537 0.254 1.646 
184 1 -1.403 5.356 -6.512 
185 1 -9.292 0.162 -1.822 
186 1 -1.050 8.635 -5.547 
187 1 -3.568 -7.909 9.597 
188 1 6.475 3.055 3.948 
189 1 8.372 7.481 4.033 
190 1 4.858 -6.642 2.305 
191 1 -1.581 8.725 2.268 
192 1 -3.886 -0.096 -6.389 
193 1 -5.454 -7.931 -4.984 
194 1 2.511 6.916 -4.576 
195 1 8.586 -1.183 8.543 
196 1 -4.968 8.317 9.767 
197 1 -4.450 1.745 9.480 
198 1 -0.948 1.132 -8.026 
199 1 6.753 -1.626 -1.662 
200 1 3.629 -9.748 -4.986 
ITEM: TIMESTEP
13000
ITEM: NUMBER OF ATOMS
200
ITEM: BOX BOUNDS pp pp pp
-9.855748163310864 9.855748163310864
-9.855748163310864 9.855748163310864
-9.855748163310864 9.855748163310864
ITEM: ATOMS id type x y z
1 1 3.003 4.516 3.765 
2 1 2.436 6.074 -1.146 
3 1 1.936 2.843 -5.648 
4 1 -2.749 5.817 7.179 
5 1 -6.094 -2.100 3.088 
6 1 4.407 -8.905 7.725 
7 1 4.043 -2.484 2.522 
8 1 4.096 7.774 9.181 
9 1 5.046 9.586 0.545 
10 1 -7.226 7.180 -2.005 
11 1 1.807 -4.877 3.370 
12 1 8.819 -9.006 2.249 
13 1 -8.273 -6.097 -2.600 
14 1 7.929 -6.115 4.130 
15 1 5.872 0.603 -9.707 
16 1 1.294 8.392 -8.004 
17 1 -3.384 -8.512 0.845 
18 1 0.837 -8.846 -3.739 
19 1 -6.046 2.034 2.194 
20 1 -0.272 1.094 -2.612 
21 1 1.944 -1.430 9.788 
22 1 -0.463 -7.321 -7.138 
23 1 5.648 6.178 -6.126 
24 1 9.640 7.092 -6.512 
25 1 -8.705 -9.170 7.869 
26 1 4.977 9.584 -7.910 
27 1 8.568 3.883 -0.214 
28 1 -7.025 8.184 -6.072 
29 1 -1.389 2.277 -5.261 
30 1 -8.299 -0.474 5.511 
31 1 -5.859 -0.127 -0.631 
32 1 2.414 7.592 1.774 
33 1 1.018 -0.494 -5.478 
34 1 8.804 5.723 8.917 
35 1 2.119 -6.229 7.602 
36 1 -9.043 2.967 9.535 
37 1 4.210 -3.410 8.208 
38 1 -1.148 -6.381 2.347 
39 1 -8.494 2.700 5.635 
40 1 0.508 4.276 -9.654 
41 1 -0.576 -7.130 -1.079 
42 1 -8.847 -8.200 -5.839 
43 1 8.261 -4.398 -2.071 
44 1 4.201 -0.824 -6.104 
45 1 4.224 8.396 -2.654 
46 1 -5.731 -8.435 6.876 
47 1 -8.751 -6.210 4.077 
48 1 3.586 -8.156 -1.816 
49 1 6.050 -0.606 6.389 
50 1 3.090 5.146 -7.946 
51 1 -2.908 6.595 4.091 
52 1 4.089 2.946 6.930 
53 1 6.946 -7.108 -4.313 
54 1 7.335 9.546 -2.261 
55 1 4.103 -4.020 -8.427 
56 1 -7.134 0.717 8.399 
57 1 5.795 6.275 2.177 
58 1 7.464 -0.936 -5.148 
59 1 2.830 -7.890 -9.071 
60 1 -1.085 0.361 0.204 
61 1 8.504 7.970 0.272 
62 1 -8.289 -1.634 -6.296 
63 1 5.890 -9.738 3.800 
64 1 -6.186 -7.066 2.071 
65 1 -5.629 4.049 7.401 
66 1 -9.080 -9.640 -2.881 
67 1 8.548 0.359 4.560 
68 1 6.906 1.698 -2.018 
69 1 0.789 -4.629 -9.375 
70 1 -5.259 7.986 6.284 
71 1 9.501 -2.534 0.472 
72 1 7.366 -7.286 -0.871 
73 1 -6.962 -9.500 0.348 
74 1 -7.026 1.142 -8.074 
75 1 2.480 -4.472 -0.239 
76 1 8.609 -8.454 -9.268 
77 1 -3.750 -4.555 1.670 
78 1 3.788 -6.179 -6.115 
79 1 5.479 -6.218 9.260 
80 1 -9.147 -2.887 3.633 
81 1 -1.727 -2.029 -8.489 
82 1 -5.217 9.003 3.036 
83 1 -2.398 -9.318 -2.518 
84 1 -5.390 1.013 5.168 
85 1 -8.235 8.227 -9.313 
86 1 -2.655 -5.901 -4.243 
87 1 -3.767 6.938 -7.107 
88 1 2.225 2.796 -1.742 
89 1 -1.248 -2.751 -4.612 
90 1 4.754 4.860 -2.912 
91 1 -9.839 -6.047 0.534 
92 1 1.848 -8.296 4.676 
93 1 -4.611 3.173 -6.741 
94 1 8.537 2.467 -4.959 
95 1 1.689 -7.747 0.913 
96 1 -6.784 3.374 -1.065 
97 1 -6.467 5.473 3.886 
98 1 -7.172 1.697 -3.703 
99 1 -5.247 9.459 -3.408 
100 1 4.182 0.060 -3.006 
101 1 0.081 6.139 4.121 
102 1 -7.188 -4.014 0.402 
103 1 9.838 -4.641 -5.028 
104 1 -6.728 5.128 -8.928 
105 1 -5.701 -5.164 8.744 
106 1 6.724 -4.036 -5.307 
107 1 0.747 -2.151 1.975 
108 1 7.530 8.061 -9.271 
109 1 -4.730 5.480 1.004 
110 1 1.604 5.034 7.125 
111 1 -1.940 -4.197 8.770 
112 1 8.229 8.862 7.056 
113 1 9.362 0.543 -7.884 
114 1 7.892 2.787 7.296 
115 1 -6.166 -5.590 -7.633 
116 1 4.903 -4.334 -2.332 
117 1 7.240 -2.356 3.620 
118 1 -4.532 -3.751 -1.787 
119 1 7.768 -5.711 -8.140 
120 1 -2.415 -3.672 5.065 
121 1 5.532 4.278 9.454 
122 1 -6.023 5.225 -4.581 
123 1 -3.884 8.248 -0.297 
124 1 3.122 0.013 4.635 
125 1 1.681 -3.460 -6.205 
126 1 -9.294 -4.020 6.797 
127 1 -2.450 2.162 6.467 
128 1 9.281 6.654 -2.819 
129 1 -1.746 8.581 -9.195 
130 1 7.106 -2.183 -8.546 
131 1 -1.241 -0.498 4.691 
132 1 -8.174 8.750 4.257 
133 1 5.259 2.497 -6.334 
134 1 -8.770 -6.184 9.316 
135 1 6.323 -4.030 0.783 
136 1 0.648 0.845 7.223 
137 1 0.202 4.319 1.347 
138 1 0.739 9.089 -1.190 
139 1 -3.368 -9.289 -6.729 
140 1 1.106 8.379 8.333 
141 1 -3.580 -0.592 -2.808 
142 1 -9.372 1.172 1.954 
143 1 -5.162 -6.865 -1.583 
144 1 -1.965 9.042 6.518 
145 1 -8.490 6.597 6.941 
146 1 -4.634 -3.149 -5.332 
147 1 -7.621 -2.155 -2.763 
148 1 0.379 2.343 3.719 
149 1 -5.655 -2.123 -8.779 
150 1 -1.404 -7.013 6.600 
151 1 5.177 3.420 0.114 
152 1 9.631 4.632 3.757 
153 1 1.699 -2.732 5.890 
154 1 -0.543 -8.047 9.433 
155 1 -2.904 5.057 -9.465 
156 1 0.470 4.993 -3.571 
157 1 7.963 4.149 -8.034 
158 1 -2.541 -1.268 7.735 
159 1 -8.388 3.854 -6.272 
160 1 -5.659 -2.337 6.497 
161 1 -6.850 -8.739 -8.481 
162 1 4.584 -6.523 5.483 
163 1 1.165 -5.205 -3.377 
164 1 6.109 5.945 6.272 
165 1 -2.900 6.022 -3.685 
166 1 -2.700 -5.031 -7.518 
167 1 -2.818 2.385 2.793 
168 1 -1.260 6.402 -0.710 
169 1 -3.577 -1.367 1.295 
170 1 -8.375 6.623 1.404 
171 1 1.320 -1.504 -1.366 
172 1 2.643 7.988 5.245 
173 1 -2.633 2.882 -1.285 
174 1 -9.232 -3.347 -9.056 
175 1 6.920 -4.249 6.881 
176 1 2.802 1.337 -9.053 
177 1 7.368 9.233 -5.730 
178 1 2.816 0.770 1.099 
179 1 -3.516 -8.003 4.132 
180 1 -1.274 -3.938 -1.350 
181 1 8.069 -7.412 7.383 
182 1 -5.630 -5.420 4.871 
183 1 6.911 0.639 1.921 
184 1 -0.477 5.597 -6.682 
185 1 -9.661 0.901 -1.760 
186 1 -1.265 8.610 -5.284 
187 1 -4.181 -7.607 -9.750 
188 1 6.510 3.010 4.231 
189 1 8.690 7.766 3.953 
190 1 5.076 -6.447 2.307 
191 1 -1.658 8.471 2.003 
192 1 -3.769 -0.367 -6.454 
193 1 -5.626 -7.157 -4.777 
194 1 2.421 6.985 -5.071 
195 1 8.884 -1.127 8.391 
196 1 -4.916 8.357 9.753 
197 1 -3.898 1.707 9.285 
198 1 -0.509 0.911 -8.282 
199 1 6.690 -1.423 -1.075 
200 1 3.787 -9.427 -5.195 
ITEM: TIMESTEP
14000
ITEM: NUMBER OF ATOMS
200
ITEM: BOX BOUNDS pp pp pp
-9.855748163310864 9.855748163310864
-9.855748163310864 9.855748163310864
-9.855748163310864 9.855748163310864
ITEM: ATOMS id type x y z
1 1 3.082 4.302 3.846 
2 1 2.199 5.421 -1.479 
3 1 2.083 3.278 -5.896 
4 1 -2.749 6.412 7.412 
5 1 -6.023 -1.410 3.253 
6 1 4.308 -9.297 7.399 
7 1 3.720 -2.762 2.523 
8 1 4.419 7.713 9.156 
9 1 5.385 9.358 0.694 
10 1 -6.637 7.334 -1.677 
11 1 1.679 -5.262 3.622 
12 1 9.129 -9.170 1.809 
13 1 -7.474 -5.142 -2.430 
14 1 8.027 -6.483 3.787 
15 1 4.791 -0.376 -9.660 
16 1 1.687 9.048 -8.094 
17 1 -3.421 -8.375 0.898 
18 1 0.458 -8.942 -4.173 
19 1 -6.167 2.072 2.426 
20 1 -0.831 0.447 -2.503 
21 1 1.409 -1.525 9.523 
22 1 -0.666 -8.106 -6.954 
23 1 5.745 5.892 -5.863 
24 1 9.492 6.652 -5.852 
25 1 -9.270 -8.837 8.474 
26 1 4.914 9.565 -7.621 
27 1 8.363 4.082 -0.474 
28 1 -7.383 8.285 -6.642 
29 1 -0.867 2.361 -5.448 
30 1 -8.487 -0.425 5.600 
31 1 -5.790 0.553 -0.357 
32 1 2.491 7.295 1.547 
33 1 0.817 -0.547 -5.475 
34 1 8.905 5.740 8.937 
35 1 2.139 -6.438 7.627 
36 1 -9.527 3.128 9.659 
37 1 4.498 -3.200 8.359 
38 1 -1.275 -6.352 2.507 
39 1 -8.255 2.721 5.461 
40 1 0.200 4.869 9.411 
41 1 -0.980 -6.964 -0.971 
42 1 -8.923 -8.362 -6.197 
43 1 8.640 -4.351 -1.742 
44 1 4.164 -1.049 -6.211 
45 1 4.130 8.222 -2.341 
46 1 -5.868 -8.109 6.971 
47 1 -8.591 -6.531 4.431 
48 1 3.389 -8.051 -1.403 
49 1 6.011 -0.659 6.844 
50 1 3.377 5.404 -8.387 
51 1 -3.030 6.619 4.145 
52 1 4.349 2.030 7.009 
53 1 6.686 -7.433 -4.361 
54 1 7.279 9.735 -2.384 
55 1 4.321 -3.923 -8.131 
56 1 -6.855 0.370 8.228 
57 1 5.554 6.736 3.234 
58 1 7.720 -1.287 -4.629 
59 1 2.573 -7.614 -9.218 
60 1 -0.956 0.602 0.652 
61 1 8.154 7.955 0.216 
62 1 -8.382 -1.811 -5.853 
63 1 6.367 -9.658 4.567 
64 1 -6.683 -6.956 1.834 
65 1 -5.880 3.907 7.728 
66 1 -8.734 9.290 -3.528 
67 1 8.273 0.500 4.575 
68 1 6.697 1.574 -2.057 
69 1 1.241 -4.614 -9.259 
70 1 -5.277 8.326 6.442 
71 1 9.814 -2.375 0.692 
72 1 7.026 -7.212 -0.785 
73 1 -7.552 -9.269 -0.042 
74 1 -7.273 1.014 -8.294 
75 1 2.221 -5.133 0.035 
76 1 7.854 -8.592 -8.971 
77 1 -3.883 -4.475 1.939 
78 1 3.984 -6.048 -5.837 
79 1 5.338 -6.447 9.383 
80 1 -8.486 -3.286 3.531 
81 1 -1.473 -2.107 -8.441 
82 1 -5.126 8.284 2.265 
83 1 -2.199 -9.372 -2.908 
84 1 -5.089 0.766 5.633 
85 1 -8.967 8.041 -9.627 
86 1 -2.015 -5.963 -4.214 
87 1 -4.126 6.962 -7.207 
88 1 2.166 2.381 -2.789 
89 1 -1.019 -2.597 -3.810 
90 1 5.133 4.426 -3.009 
91 1 -9.852 -6.114 0.489 
92 1 1.622 -8.878 4.756 
93 1 -4.962 3.282 -6.576 
94 1 8.659 3.067 -4.837 
95 1 1.020 -8.337 1.400 
96 1 -6.617 3.606 -0.844 
97 1 -6.536 5.245 4.016 
98 1 -7.052 0.968 -4.522 
99 1 -5.405 9.601 -3.409 
100 1 3.889 -0.548 -3.036 
101 1 0.355 6.275 3.981 
102 1 -7.016 -3.655 0.659 
103 1 -9.785 -5.127 -5.734 
104 1 -6.905 5.435 -9.525 
105 1 -5.297 -4.862 8.691 
106 1 6.390 -4.021 -5.403 
107 1 0.381 -2.455 2.169 
108 1 7.494 7.870 -9.086 
109 1 -4.129 5.203 1.200 
110 1 1.900 4.834 6.533 
111 1 -1.916 -4.508 8.907 
112 1 7.592 8.821 7.428 
113 1 9.108 0.585 -7.841 
114 1 7.891 2.342 7.305 
115 1 -6.146 -5.407 -7.362 
116 1 4.658 -4.697 -2.225 
117 1 7.179 -2.781 3.412 
118 1 -4.631 -3.372 -1.638 
119 1 7.297 -5.477 -7.982 
120 1 -2.637 -4.143 5.483 
121 1 5.566 4.164 9.343 
122 1 -6.419 5.068 -4.287 
123 1 -3.666 8.486 -0.637 
124 1 2.771 0.307 3.810 
125 1 1.359 -3.871 -5.959 
126 1 -9.014 -4.159 6.966 
127 1 -2.434 2.698 6.336 
128 1 -9.759 6.184 -2.500 
129 1 -1.732 8.380 -9.152 
130 1 7.064 -1.967 -8.125 
131 1 -1.898 -0.334 4.239 
132 1 -7.899 9.200 4.427 
133 1 5.992 1.718 -6.781 
134 1 -8.379 -6.180 9.629 
135 1 6.069 -3.975 0.707 
136 1 0.686 0.880 6.826 
137 1 0.408 3.474 0.770 
138 1 0.640 8.998 -0.807 
139 1 -3.540 -9.116 -6.781 
140 1 0.777 8.108 7.508 
141 1 -4.137 -0.089 -3.273 
142 1 -9.003 0.713 2.182 
143 1 -4.619 -6.961 -1.612 
144 1 -1.935 9.567 6.636 
145 1 -8.983 6.712 6.103 
146 1 -4.993 -3.389 -4.743 
147 1 -7.874 -1.922 -2.356 
148 1 0.090 2.693 4.126 
149 1 -5.367 -2.072 -8.340 
150 1 -0.930 -7.062 6.231 
151 1 4.504 3.771 0.436 
152 1 9.550 4.258 2.898 
153 1 1.940 -2.285 6.050 
154 1 -0.809 -8.477 9.124 
155 1 -3.039 4.764 -9.548 
156 1 -0.374 5.027 -3.759 
157 1 7.741 4.308 -7.928 
158 1 -2.295 -1.052 7.448 
159 1 -8.367 4.294 -6.792 
160 1 -5.907 -2.350 6.188 
161 1 -6.749 -8.762 -8.679 
162 1 4.654 -6.688 5.163 
163 1 1.523 -5.778 -3.472 
164 1 5.781 6.101 6.477 
165 1 -3.718 6.783 -4.047 
166 1 -2.782 -4.917 -7.324 
167 1 -2.753 2.229 2.960 
168 1 -1.408 5.932 -0.771 
169 1 -3.433 -1.200 1.207 
170 1 -8.331 7.013 1.317 
171 1 1.446 -2.434 -1.483 
172 1 3.078 7.806 5.149 
173 1 -3.205 2.908 -1.461 
174 1 -9.688 -3.535 -8.738 
175 1 7.264 -3.840 6.453 
176 1 2.587 2.138 -9.331 
177 1 7.270 8.948 -5.630 
178 1 3.309 0.006 0.613 
179 1 -3.496 -8.513 4.633 
180 1 -1.692 -3.560 -0.450 
181 1 8.016 -7.173 7.292 
182 1 -5.573 -5.320 4.829 
183 1 6.787 0.751 1.692 
184 1 -0.598 5.587 -7.064 
185 1 -9.559 1.123 -1.155 
186 1 -1.362 8.407 -5.942 
187 1 -3.591 -7.392 -9.527 
188 1 6.487 3.364 4.176 
189 1 8.778 7.778 3.790 
190 1 5.072 -6.769 2.042 
191 1 -1.142 9.021 2.614 
192 1 -3.765 0.223 -6.963 
193 1 -5.666 -6.755 -4.603 
194 1 2.295 6.844 -4.758 
195 1 9.649 -0.765 8.707 
196 1 -5.317 8.463 9.636 
197 1 -4.270 1.774 9.745 
198 1 -0.597 0.817 -8.405 
199 1 7.078 -1.254 -0.794 
200 1 3.860 -8.932 -4.593 
ITEM: TIMESTEP
15000
ITEM: NUMBER OF ATOMS
200
ITEM: BOX BOUNDS pp pp pp
-9.855748163310864 9.855748163310864
-9.855748163310864 9.855748163310864
-9.855748163310864 9.855748163310864
ITEM: ATOMS id type x y z
1 1 2.888 3.673 3.378 
2 1 2.438 5.451 -1.962 
3 1 2.491 2.843 -5.874 
4 1 -3.040 5.906 7.128 
5 1 -5.912 -1.136 2.873 
6 1 4.121 -9.212 7.373 
7 1 4.103 -3.274 2.998 
8 1 4.216 7.072 8.580 
9 1 5.524 9.504 0.816 
10 1 -6.959 6.881 -1.154 
11 1 1.462 -5.416 4.052 
12 1 -9.761 -9.212 1.953 
13 1 -7.802 -5.321 -2.475 
14 1 8.083 -6.665 3.523 
15 1 4.593 -0.425 9.568 
16 1 1.343 8.689 -8.567 
17 1 -3.669 -8.475 0.908 
18 1 0.775 -9.681 -4.081 
19 1 -6.017 2.210 3.002 
20 1 -0.730 0.584 -2.289 
21 1 1.547 -1.557 9.155 
22 1 -0.495 -7.718 -7.264 
23 1 5.317 5.538 -5.619 
24 1 9.738 6.626 -5.902 
25 1 -9.330 -8.930 8.709 
26 1 4.753 -9.717 -7.640 
27 1 8.659 3.916 -0.141 
28 1 -6.757 8.566 -6.424 
29 1 -0.909 2.474 -5.030 
30 1 -8.152 -0.354 5.506 
31 1 -6.302 0.360 -0.672 
32 1 3.214 7.166 1.379 
33 1 0.833 -0.162 -5.797 
34 1 8.680 5.334 9.004 
35 1 2.286 -6.533 7.537 
36 1 -9.607 2.874 9.540 
37 1 4.019 -3.454 7.907 
38 1 -1.455 -6.333 2.565 
39 1 -8.496 2.947 5.676 
40 1 0.075 4.612 8.958 
41 1 -0.974 -7.171 -1.278 
42 1 -9.548 -8.526 -6.750 
43 1 8.365 -4.095 -2.368 
44 1 4.008 -0.494 -6.395 
45 1 4.480 8.406 -2.097 
46 1 -6.056 -8.045 7.697 
47 1 -8.618 -7.019 5.554 
48 1 3.688 -7.663 -1.756 
49 1 6.027 -1.214 6.479 
50 1 3.243 5.537 -8.101 
51 1 -2.741 6.269 3.827 
52 1 4.425 2.181 6.768 
53 1 7.363 -7.021 -4.311 
54 1 7.601 9.706 -2.538 
55 1 3.731 -3.680 -7.763 
56 1 -6.696 -0.716 8.576 
57 1 6.165 6.596 3.387 
58 1 7.929 -0.937 -4.368 
59 1 2.489 -7.687 -8.860 
60 1 -0.665 0.653 1.203 
61 1 7.604 7.368 -0.264 
62 1 -8.063 -1.884 -5.886 
63 1 6.497 -9.496 3.924 
64 1 -7.116 -7.122 2.292 
65 1 -5.661 3.756 8.024 
66 1 -8.961 9.540 -3.724 
67 1 8.999 0.892 4.697 
68 1 5.923 1.723 -3.327 
69 1 1.096 -4.767 -9.729 
70 1 -5.537 8.045 6.141 
71 1 9.705 -2.274 0.213 
72 1 7.626 -7.908 -0.146 
73 1 -6.896 -8.983 -0.340 
74 1 -7.631 0.775 -8.566 
75 1 2.843 -5.054 0.048 
76 1 7.611 -8.851 -9.546 
77 1 -4.119 -4.621 2.177 
78 1 3.782 -6.215 -5.640 
79 1 5.283 -6.214 9.691 
80 1 -8.869 -3.795 3.338 
81 1 -1.703 -2.230 -8.568 
82 1 -4.870 8.494 2.566 
83 1 -2.423 -9.529 -3.269 
84 1 -4.526 1.035 5.433 
85 1 -9.106 8.073 -9.319 
86 1 -2.126 -5.816 -4.141 
87 1 -3.921 6.586 -6.983 
88 1 2.042 2.023 -2.764 
89 1 -1.210 -2.937 -3.916 
90 1 5.930 5.309 -2.239 
91 1 -9.482 -6.008 0.334 
92 1 1.477 -8.811 4.713 
93 1 -4.624 2.935 -7.151 
94 1 8.819 2.890 -4.516 
95 1 1.258 -8.316 0.863 
96 1 -6.959 3.648 -1.095 
97 1 -6.505 5.634 3.859 
98 1 -6.810 1.377 -4.912 
99 1 -5.582 -9.791 -3.055 
100 1 3.828 -0.668 -2.894 
101 1 0.502 6.480 3.568 
102 1 -6.844 -3.410 0.787 
103 1 -9.081 -4.971 -5.519 
104 1 -6.718 5.598 -9.058 
105 1 -5.266 -5.097 8.537 
106 1 6.408 -3.826 -5.511 
107 1 0.322 -2.640 2.121 
108 1 6.969 7.575 -8.665 
109 1 -4.284 5.499 0.836 
110 1 2.424 4.932 6.772 
111 1 -1.586 -4.140 8.535 
112 1 7.978 8.933 7.404 
113 1 9.041 0.753 -7.282 
114 1 7.750 2.023 7.623 
115 1 -6.292 -5.021 -7.827 
116 1 4.284 -4.240 -3.004 
117 1 7.607 -2.705 3.625 
118 1 -4.847 -2.828 -1.712 
119 1 7.470 -6.071 -7.870 
120 1 -2.384 -3.979 4.942 
121 1 5.728 4.217 9.249 
122 1 -6.659 5.207 -4.172 
123 1 -3.597 8.188 -0.658 
124 1 2.370 0.151 3.437 
125 1 0.933 -3.502 -6.220 
126 1 -9.068 -3.988 6.479 
127 1 -2.427 2.787 7.080 
128 1 -9.755 5.867 -2.330 
129 1 -1.668 8.139 9.541 
130 1 7.210 -1.834 -7.853 
131 1 -2.008 -0.842 4.302 
132 1 -7.674 9.507 4.011 
133 1 6.005 2.165 -6.493 
134 1 -8.551 -6.006 9.751 
135 1 6.229 -4.273 0.549 
136 1 1.129 0.915 7.202 
137 1 0.849 3.312 0.340 
138 1 0.422 8.945 -1.180 
139 1 -3.395 -8.709 -6.490 
140 1 1.020 7.841 7.837 
141 1 -3.762 -0.300 -3.395 
142 1 -9.334 0.674 1.520 
143 1 -4.517 -6.370 -1.357 
144 1 -1.777 8.588 5.922 
145 1 -8.549 6.234 7.294 
146 1 -4.425 -2.883 -4.993 
147 1 -8.207 -1.532 -2.310 
148 1 -0.081 2.471 4.561 
149 1 -5.181 -2.204 -8.563 
150 1 -0.943 -6.748 6.215 
151 1 5.213 2.998 0.265 
152 1 -9.698 4.043 2.981 
153 1 1.757 -2.511 5.678 
154 1 -0.672 -8.433 9.287 
155 1 -3.294 4.561 -9.359 
156 1 -0.925 5.700 -3.543 
157 1 8.143 4.503 -7.723 
158 1 -1.873 -1.028 7.711 
159 1 -8.117 3.735 -6.881 
160 1 -5.486 -2.255 6.408 
161 1 -6.657 -8.556 -8.757 
162 1 5.212 -6.309 5.883 
163 1 1.085 -5.173 -3.205 
164 1 6.719 6.166 6.600 
165 1 -3.905 6.829 -3.649 
166 1 -2.963 -5.322 -7.283 
167 1 -2.935 2.783 3.043 
168 1 -1.337 6.162 -0.219 
169 1 -3.591 -1.188 0.585 
170 1 -9.023 7.030 1.308 
171 1 1.382 -2.086 -1.570 
172 1 3.286 8.034 5.182 
173 1 -3.466 2.947 -2.003 
174 1 -9.475 -3.391 -8.475 
175 1 7.006 -4.047 6.901 
176 1 2.323 2.668 -9.275 
177 1 6.897 8.822 -5.379 
178 1 3.304 0.124 0.228 
179 1 -4.346 -8.917 4.858 
180 1 -1.333 -3.474 -0.820 
181 1 8.327 -6.872 6.795 
182 1 -5.378 -5.783 5.388 
183 1 6.761 0.571 1.688 
184 1 -0.906 5.338 -7.593 
185 1 9.296 0.949 -1.689 
186 1 -1.270 8.133 -5.831 
187 1 -3.473 -7.306 -9.719 
188 1 6.381 2.995 4.182 
189 1 9.263 7.969 4.207 
190 1 4.998 -6.879 1.782 
191 1 -1.346 9.661 2.823 
192 1 -3.159 -0.021 -6.636 
193 1 -5.510 -6.539 -5.065 
194 1 2.425 7.225 -5.257 
195 1 9.189 -1.149 8.513 
196 1 -4.833 8.245 9.397 
197 1 -4.021 0.967 9.125 
198 1 -1.088 1.879 -8.312 
199 1 6.965 -1.219 -1.014 
200 1 4.152 -9.196 -4.507 
ITEM: TIMESTEP
16000
ITEM: NUMBER OF ATOMS
200
ITEM: BOX BOUNDS pp pp pp
-9.855748163310864 9.855748163310864
-9.855748163310864 9.855748163310864
-9.855748163310864 9.855748163310864
ITEM: ATOMS id type x y z
1 1 3.346 3.033 3.199 
2 1 2.463 5.006 -2.390 
3 1 2.745 3.300 -5.387 
4 1 -3.585 5.792 7.088 
5 1 -5.546 -1.084 3.059 
6 1 4.568 -9.296 7.649 
7 1 4.645 -3.330 3.917 
8 1 4.648 7.286 8.788 
9 1 4.736 9.529 1.357 
10 1 -6.723 7.076 -1.371 
11 1 1.857 -4.992 4.384 
12 1 9.215 -9.394 2.021 
13 1 -8.333 -5.999 -2.856 
14 1 7.865 -6.253 3.560 
15 1 4.934 -0.193 -9.650 
16 1 1.466 8.532 -8.322 
17 1 -3.859 -8.313 0.956 
18 1 0.861 -8.876 -4.522 
19 1 -6.155 2.224 3.020 
20 1 -0.889 0.720 -2.182 
21 1 1.874 -1.554 9.786 
22 1 -0.230 -7.806 -7.252 
23 1 5.403 5.446 -5.715 
24 1 -9.658 7.194 -6.124 
25 1 -8.971 -9.173 8.070 
26 1 4.914 -9.841 -8.237 
27 1 8.721 3.200 -0.077 
28 1 -6.267 8.575 -6.615 
29 1 -1.992 2.648 -4.937 
30 1 -8.377 -0.438 5.645 
31 1 -6.032 0.543 -0.378 
32 1 2.364 6.708 1.235 
33 1 0.803 0.413 -5.700 
34 1 8.296 5.409 9.165 
35 1 2.575 -6.914 7.400 
36 1 -9.037 3.154 -9.704 
37 1 4.130 -3.292 7.914 
38 1 -1.632 -7.063 2.845 
39 1 -8.818 2.931 6.338 
40 1 -0.039 4.624 8.466 
41 1 -1.106 -6.900 -0.913 
42 1 -9.542 -8.600 -6.714 
43 1 8.517 -4.775 -2.670 
44 1 4.127 -0.948 -6.360 
45 1 3.951 8.164 -1.674 
46 1 -5.852 -8.085 7.585 
47 1 -8.387 -6.702 5.095 
48 1 4.128 -7.496 -1.684 
49 1 5.892 -0.677 6.518 
50 1 2.995 5.631 -8.244 
51 1 -2.895 6.483 3.927 
52 1 4.464 2.125 7.067 
53 1 6.632 -7.758 -4.313 
54 1 7.983 9.692 -2.018 
55 1 3.918 -4.034 -8.462 
56 1 -6.673 -0.992 8.637 
57 1 5.621 6.151 3.220 
58 1 8.113 -0.754 -4.574 
59 1 2.895 -7.331 -8.795 
60 1 -0.724 0.232 1.322 
61 1 7.690 6.922 0.295 
62 1 -7.679 -1.155 -6.088 
63 1 6.490 -9.361 4.714 
64 1 -6.619 -7.270 2.197 
65 1 -5.719 3.477 8.362 
66 1 -8.901 9.446 -3.916 
67 1 8.442 0.516 4.489 
68 1 5.854 1.436 -3.202 
69 1 0.618 -5.418 -9.835 
70 1 -5.478 8.415 6.559 
71 1 9.616 -2.700 0.343 
72 1 7.187 -7.183 -0.095 
73 1 -7.923 -9.405 0.195 
74 1 -7.420 0.786 -8.608 
75 1 2.277 -4.347 -0.031 
76 1 7.592 -8.743 9.560 
77 1 -4.063 -4.533 2.323 
78 1 3.294 -6.318 -5.405 
79 1 5.805 -5.786 9.131 
80 1 -8.903 -4.129 3.308 
81 1 -1.576 -2.020 -9.138 
82 1 -5.401 8.091 2.225 
83 1 -2.351 -9.677 -2.801 
84 1 -5.805 1.323 6.155 
85 1 -9.130 7.911 -9.530 
86 1 -2.041 -5.654 -4.006 
87 1 -3.847 6.667 -6.653 
88 1 2.441 1.738 -2.339 
89 1 -1.290 -2.239 -4.073 
90 1 6.174 5.214 -2.313 
91 1 -9.464 -6.189 0.957 
92 1 1.401 -8.913 4.471 
93 1 -4.701 3.157 -6.747 
94 1 8.786 2.905 -4.278 
95 1 1.424 -8.208 0.680 
96 1 -7.524 3.633 -0.965 
97 1 -6.459 5.318 4.515 
98 1 -7.125 1.384 -3.869 
99 1 -5.686 -9.353 -3.329 
100 1 3.862 -1.510 -3.301 
101 1 0.719 6.330 4.311 
102 1 -6.780 -3.363 0.928 
103 1 -9.463 -4.871 -5.828 
104 1 -6.908 5.422 -8.630 
105 1 -5.685 -4.985 8.884 
106 1 6.745 -3.745 -5.562 
107 1 0.311 -2.718 2.271 
108 1 7.406 7.859 -8.572 
109 1 -4.777 5.096 1.016 
110 1 3.022 5.091 6.737 
111 1 -2.163 -4.328 8.238 
112 1 8.240 8.798 7.290 
113 1 9.031 0.936 -7.550 
114 1 7.874 2.172 7.787 
115 1 -6.456 -5.150 -7.815 
116 1 4.692 -4.208 -2.328 
117 1 7.894 -2.380 3.040 
118 1 -4.839 -2.776 -1.619 
119 1 7.717 -6.109 -7.734 
120 1 -1.475 -3.780 4.816 
121 1 5.559 4.273 9.746 
122 1 -6.932 5.740 -4.511 
123 1 -3.725 8.380 -0.613 
124 1 2.139 -0.041 3.580 
125 1 1.028 -3.947 -6.876 
126 1 -8.840 -3.120 7.043 
127 1 -2.649 2.792 6.911 
128 1 -9.606 5.887 -2.649 
129 1 -1.285 7.563 9.519 
130 1 7.404 -1.915 -8.430 
131 1 -2.255 -0.767 4.044 
132 1 -8.024 9.573 3.866 
133 1 5.796 2.167 -7.639 
134 1 -8.698 -5.891 9.383 
135 1 5.876 -4.038 0.938 
136 1 0.784 0.996 7.488 
137 1 1.233 3.099 0.879 
138 1 0.310 8.710 -1.361 
139 1 -3.338 -9.174 -6.692 
140 1 1.656 8.150 7.395 
141 1 -4.088 0.340 -3.686 
142 1 -8.840 0.705 1.603 
143 1 -4.452 -6.587 -1.863 
144 1 -1.750 8.571 6.198 
145 1 -8.534 6.271 7.378 
146 1 -4.480 -2.720 -5.046 
147 1 -8.088 -2.483 -2.158 
148 1 0.232 2.868 4.904 
149 1 -5.148 -2.195 -8.206 
150 1 -0.721 -6.789 6.191 
151 1 4.980 2.931 -0.183 
152 1 -9.676 3.648 3.446 
153 1 0.950 -2.339 6.332 
154 1 0.005 -9.041 8.873 
155 1 -3.285 4.752 -9.426 
156 1 -0.924 5.696 -3.365 
157 1 8.091 4.356 -7.274 
158 1 -2.191 -0.841 7.446 
159 1 -8.382 3.093 -6.347 
160 1 -5.484 -2.287 6.107 
161 1 -6.735 -9.043 -9.084 
162 1 4.969 -6.180 5.735 
163 1 1.117 -4.978 -3.244 
164 1 6.325 5.893 6.507 
165 1 -3.919 6.717 -3.327 
166 1 -2.722 -4.944 -7.711 
167 1 -2.774 2.640 2.670 
168 1 -1.413 6.210 0.601 
169 1 -3.362 -1.110 0.719 
170 1 -8.675 6.884 1.356 
171 1 1.321 -1.668 -1.427 
172 1 3.893 8.059 5.009 
173 1 -3.116 3.047 -1.338 
174 1 -8.800 -2.727 -8.774 
175 1 7.543 -3.758 6.137 
176 1 2.486 2.192 -9.702 
177 1 7.340 9.017 -5.303 
178 1 3.591 -0.285 0.553 
179 1 -4.550 -9.042 4.818 
180 1 -1.762 -3.618 -0.662 
181 1 8.255 -6.935 6.919 
182 1 -4.812 -5.409 5.579 
183 1 6.621 0.695 1.762 
184 1 -0.361 5.423 -7.491 
185 1 8.960 0.437 -1.596 
186 1 -0.693 8.569 -6.301 
187 1 -3.132 -7.354 9.529 
188 1 6.875 3.393 4.114 
189 1 8.753 7.652 4.012 
190 1 4.407 -6.876 1.848 
191 1 -0.700 9.436 2.602 
192 1 -3.187 -0.033 -6.891 
193 1 -5.265 -6.201 -4.938 
194 1 2.323 7.390 -5.465 
195 1 9.076 -0.667 8.675 
196 1 -4.850 7.973 -9.796 
197 1 -4.261 0.702 9.827 
198 1 -0.599 2.333 -8.923 
199 1 6.656 -1.439 -1.229 
200 1 4.004 9.823 -4.286 
ITEM: TIMESTEP
17000
ITEM: NUMBER OF ATOMS
200
ITEM: BOX BOUNDS pp pp pp
-9.855748163310864 9.855748163310864
-9.855748163310864 9.855748163310864
-9.855748163310864 9.855748163310864
ITEM: ATOMS id type x y z
1 1 4.239 2.929 3.799 
2 1 2.655 4.517 -2.188 
3 1 2.828 3.530 -5.665 
4 1 -3.359 5.690 7.005 
5 1 -5.738 -1.044 3.029 
6 1 4.548 -9.647 7.672 
7 1 4.755 -2.923 4.012 
8 1 4.543 7.313 9.134 
9 1 5.128 9.374 1.099 
10 1 -6.367 7.326 -1.360 
11 1 1.371 -5.412 4.329 
12 1 9.272 -9.199 2.718 
13 1 -7.823 -6.655 -2.134 
14 1 7.419 -6.294 3.343 
15 1 4.888 -0.094 9.579 
16 1 1.369 8.535 -8.750 
17 1 -3.452 -8.591 1.267 
18 1 0.538 -8.971 -3.809 
19 1 -6.287 3.239 2.566 
20 1 -0.844 0.571 -2.607 
21 1 1.764 -1.574 9.691 
22 1 -0.267 -7.759 -7.410 
23 1 5.899 5.192 -5.541 
24 1 -9.850 6.927 -6.300 
25 1 -8.468 -9.445 7.804 
26 1 4.460 9.359 -7.504 
27 1 8.549 4.165 0.227 
28 1 -6.158 8.936 -6.222 
29 1 -2.194 3.003 -4.653 
30 1 -8.232 -0.268 5.502 
31 1 -5.901 0.763 -0.828 
32 1 1.931 7.869 0.927 
33 1 0.710 0.737 -5.591 
34 1 8.625 5.397 8.714 
35 1 2.237 -6.518 7.387 
36 1 -8.770 2.784 9.607 
37 1 4.541 -3.440 7.648 
38 1 -1.869 -6.219 2.656 
39 1 -9.096 3.645 5.973 
40 1 -0.321 5.249 8.712 
41 1 -1.292 -7.077 -0.840 
42 1 -9.746 -8.586 -6.765 
43 1 8.021 -5.216 -2.556 
44 1 3.834 -0.690 -6.785 
45 1 4.054 8.126 -1.782 
46 1 -5.589 -7.973 7.274 
47 1 -8.377 -6.792 5.235 
48 1 3.458 -7.743 -1.540 
49 1 5.938 -0.849 6.649 
50 1 2.823 5.625 -8.199 
51 1 -2.547 5.919 3.892 
52 1 4.086 1.827 6.913 
53 1 6.866 -7.574 -4.433 
54 1 7.676 9.814 -1.972 
55 1 4.007 -3.506 -8.572 
56 1 -6.697 -1.131 8.815 
57 1 4.677 6.353 1.975 
58 1 8.366 -1.062 -4.766 
59 1 2.990 -7.710 -8.941 
60 1 -0.082 0.402 1.046 
61 1 8.010 7.061 0.415 
62 1 -7.722 -1.326 -5.943 
63 1 6.602 -9.220 4.594 
64 1 -6.355 -6.706 2.236 
65 1 -5.451 3.751 8.103 
66 1 -8.731 9.405 -3.602 
67 1 8.132 0.456 4.869 
68 1 6.525 1.798 -2.971 
69 1 0.838 -4.697 9.785 
70 1 -4.908 8.687 6.678 
71 1 9.582 -2.804 -0.376 
72 1 6.859 -6.903 -0.310 
73 1 -8.469 -9.330 0.175 
74 1 -7.131 0.585 -8.480 
75 1 2.312 -4.339 0.435 
76 1 6.981 -8.797 -9.655 
77 1 -3.350 -3.485 2.314 
78 1 3.905 -5.826 -5.679 
79 1 5.864 -5.748 9.270 
80 1 -9.051 -3.613 3.550 
81 1 -1.425 -1.459 -8.627 
82 1 -5.385 7.987 2.522 
83 1 -2.351 -9.642 -2.811 
84 1 -5.196 1.730 5.761 
85 1 -9.081 8.323 -9.273 
86 1 -1.769 -6.344 -3.980 
87 1 -3.744 6.018 -6.690 
88 1 2.522 1.542 -2.158 
89 1 -0.923 -2.612 -4.938 
90 1 6.042 4.788 -2.084 
91 1 -9.462 -5.858 0.418 
92 1 1.527 -8.657 4.312 
93 1 -4.634 2.935 -6.714 
94 1 8.958 3.463 -3.794 
95 1 1.355 -8.512 0.593 
96 1 -8.188 4.107 -1.273 
97 1 -5.887 5.741 4.930 
98 1 -7.280 1.296 -3.966 
99 1 -5.604 -9.751 -3.144 
100 1 3.923 -1.067 -3.367 
101 1 0.744 6.483 4.107 
102 1 -6.838 -3.289 0.553 
103 1 -9.396 -5.028 -5.559 
104 1 -7.319 5.736 -8.590 
105 1 -5.630 -4.615 8.469 
106 1 6.367 -3.558 -5.785 
107 1 0.720 -2.372 2.846 
108 1 7.584 7.569 -8.558 
109 1 -4.730 5.110 0.486 
110 1 2.786 4.994 6.747 
111 1 -2.235 -4.492 8.410 
112 1 8.221 8.648 7.605 
113 1 9.061 0.844 -7.843 
114 1 7.521 2.336 7.524 
115 1 -6.132 -5.478 -7.692 
116 1 4.446 -4.505 -2.110 
117 1 7.764 -2.336 2.664 
118 1 -4.488 -2.876 -1.641 
119 1 8.075 -6.028 -7.484 
120 1 -1.411 -3.863 5.513 
121 1 5.557 4.033 9.531 
122 1 -6.926 5.877 -4.523 
123 1 -3.302 8.012 -0.238 
124 1 2.816 -0.131 4.025 
125 1 1.009 -4.624 -6.627 
126 1 -8.234 -3.371 6.866 
127 1 -1.882 2.710 6.599 
128 1 9.570 6.332 -2.639 
129 1 -1.968 8.137 -9.629 
130 1 7.336 -1.885 -8.838 
131 1 -2.331 -0.902 3.888 
132 1 -7.421 9.473 4.480 
133 1 5.298 2.377 -7.581 
134 1 -9.117 -5.921 9.583 
135 1 5.739 -4.114 0.962 
136 1 0.347 0.372 7.217 
137 1 1.353 3.105 1.589 
138 1 0.179 8.327 -1.609 
139 1 -3.338 -8.885 -6.637 
140 1 1.541 8.379 7.402 
141 1 -4.102 -0.083 -3.627 
142 1 -9.187 0.288 1.436 
143 1 -4.665 -6.773 -1.194 
144 1 -1.701 8.670 6.269 
145 1 -8.059 6.838 7.505 
146 1 -4.035 -3.242 -5.065 
147 1 -8.363 -3.005 -3.278 
148 1 0.981 3.072 4.681 
149 1 -4.831 -2.239 -8.133 
150 1 -2.054 -6.884 6.059 
151 1 4.729 3.471 0.578 
152 1 -9.207 4.302 2.667 
153 1 1.584 -2.420 6.012 
154 1 -0.362 -8.819 8.722 
155 1 -3.087 4.668 -9.372 
156 1 -0.247 5.403 -3.516 
157 1 8.479 4.369 -7.309 
158 1 -2.622 -1.030 7.230 
159 1 -8.207 3.181 -6.425 
160 1 -5.198 -2.126 6.088 
161 1 -7.207 -8.541 -8.673 
162 1 5.035 -6.442 5.813 
163 1 1.465 -5.298 -3.320 
164 1 6.049 5.669 6.349 
165 1 -3.903 6.412 -3.752 
166 1 -2.824 -4.871 -7.706 
167 1 -3.103 2.634 2.461 
168 1 -0.838 5.827 0.595 
169 1 -3.261 -0.361 0.585 
170 1 -8.200 6.898 1.128 
171 1 1.321 -1.668 -1.427 
172 1 3.720 8.366 4.533 
173 1 -3.259 2.750 -1.531 
174 1 -8.166 -3.040 -8.684 
175 1 7.993 -4.107 5.839 
176 1 2.203 1.783 -8.596 
177 1 7.237 8.910 -5.098 
178 1 3.988 -0.032 0.779 
179 1 -4.358 -8.936 4.391 
180 1 -0.992 -3.620 -0.686 
181 1 8.580 -7.193 6.947 
182 1 -5.441 -5.228 4.887 
183 1 7.373 0.763 0.897 
184 1 -0.316 5.298 -6.938 
185 1 9.428 0.976 -1.794 
186 1 -0.541 8.404 -5.829 
187 1 -3.605 -7.706 -9.840 
188 1 7.559 3.752 2.932 
189 1 9.508 7.306 4.365 
190 1 4.038 -6.725 2.549 
191 1 -0.695 9.336 2.692 
192 1 -3.017 0.238 -6.660 
193 1 -5.534 -6.715 -4.849 
194 1 2.832 6.982 -5.076 
195 1 9.584 -0.610 8.177 
196 1 -5.385 8.025 -9.607 
197 1 -3.895 1.216 9.826 
198 1 -0.676 1.857 -9.469 
199 1 6.616 -1.622 -1.039 
200 1 3.746 -9.258 -4.528 
ITEM: TIMESTEP
18000
ITEM: NUMBER OF ATOMS
200
ITEM: BOX BOUNDS pp pp pp
-9.855748163310864 9.855748163310864
-9.855748163310864 9.855748163310864
-9.855748163310864 9.855748163310864
ITEM: ATOMS id type x y z
1 1 4.434 3.365 4.283 
2 1 2.499 4.981 -1.980 
3 1 2.741 3.727 -5.825 
4 1 -3.126 5.644 7.060 
5 1 -5.223 -1.286 3.021 
6 1 4.258 -9.349 7.202 
7 1 4.828 -3.296 4.009 
8 1 4.158 7.764 9.047 
9 1 5.325 9.251 0.951 
10 1 -6.838 7.564 -1.694 
11 1 1.161 -5.590 3.850 
12 1 9.365 -9.065 2.775 
13 1 -7.645 -5.353 -2.111 
14 1 7.570 -5.776 3.135 
15 1 5.064 -0.149 9.414 
16 1 1.312 8.574 -8.457 
17 1 -3.833 -8.857 0.892 
18 1 1.184 -8.420 -2.782 
19 1 -6.502 2.434 2.831 
20 1 -0.511 0.980 -2.271 
21 1 1.572 -1.252 -9.554 
22 1 0.635 -7.777 -7.764 
23 1 5.759 5.548 -5.947 
24 1 9.729 6.416 -6.236 
25 1 -8.558 -8.674 8.282 
26 1 4.671 9.178 -7.671 
27 1 8.638 3.486 -0.242 
28 1 -6.174 8.884 -5.871 
29 1 -2.092 2.612 -4.798 
30 1 -8.230 0.130 5.225 
31 1 -6.290 0.568 -0.020 
32 1 2.002 7.596 1.357 
33 1 0.730 1.463 -6.480 
34 1 8.095 5.406 8.773 
35 1 1.912 -6.496 7.105 
36 1 -8.927 3.289 9.686 
37 1 4.161 -3.676 8.003 
38 1 -1.804 -6.313 2.833 
39 1 -9.345 4.034 5.920 
40 1 -0.027 4.810 8.392 
41 1 -1.158 -6.916 -0.393 
42 1 -9.613 -9.317 -6.730 
43 1 8.077 -5.718 -2.890 
44 1 3.998 -0.979 -7.314 
45 1 4.086 7.958 -1.788 
46 1 -5.750 -8.194 7.091 
47 1 -8.364 -6.660 4.583 
48 1 3.764 -7.288 -1.297 
49 1 5.854 -0.874 6.239 
50 1 2.183 5.573 -8.880 
51 1 -2.605 6.235 3.705 
52 1 3.917 1.808 6.922 
53 1 6.918 -7.975 -5.389 
54 1 8.114 9.538 -2.086 
55 1 4.414 -3.944 -8.612 
56 1 -6.966 -0.438 8.092 
57 1 5.582 6.479 2.860 
58 1 8.521 -1.009 -4.891 
59 1 3.774 -7.427 -8.773 
60 1 0.209 0.326 1.062 
61 1 8.588 7.526 0.738 
62 1 -7.653 -1.077 -5.823 
63 1 6.261 -9.705 4.597 
64 1 -6.249 -6.526 2.188 
65 1 -6.162 3.696 8.140 
66 1 -8.571 8.952 -3.992 
67 1 8.381 0.851 5.168 
68 1 6.159 1.338 -2.830 
69 1 1.157 -4.706 9.560 
70 1 -4.687 8.327 6.625 
71 1 9.594 -2.848 -0.562 
72 1 6.858 -7.058 -0.004 
73 1 -7.542 -9.108 -0.153 
74 1 -7.067 0.447 -8.433 
75 1 1.919 -4.877 0.596 
76 1 6.239 -9.358 9.622 
77 1 -3.794 -3.998 1.581 
78 1 3.887 -6.049 -5.939 
79 1 6.131 -5.954 9.314 
80 1 -8.407 -3.590 3.124 
81 1 -1.728 -1.392 -8.689 
82 1 -5.311 8.323 2.835 
83 1 -2.084 -9.260 -2.917 
84 1 -4.610 1.425 5.223 
85 1 -9.655 7.952 -9.450 
86 1 -2.099 -5.503 -3.815 
87 1 -3.839 6.490 -6.778 
88 1 2.621 1.667 -2.619 
89 1 -0.441 -1.400 -4.638 
90 1 5.837 5.234 -2.337 
91 1 -9.438 -6.115 0.817 
92 1 1.351 -8.963 4.321 
93 1 -4.627 3.094 -6.721 
94 1 8.271 3.941 -4.247 
95 1 1.801 -8.586 0.927 
96 1 -7.982 3.421 -2.061 
97 1 -5.861 5.373 4.590 
98 1 -6.457 0.766 -3.590 
99 1 -5.373 -9.587 -2.961 
100 1 3.880 -1.027 -4.059 
101 1 1.548 5.733 4.466 
102 1 -6.961 -2.411 0.571 
103 1 -8.687 -5.623 -5.258 
104 1 -7.013 5.521 -7.976 
105 1 -5.807 -4.544 8.313 
106 1 6.364 -3.161 -5.433 
107 1 1.236 -2.455 2.872 
108 1 6.939 7.260 -8.821 
109 1 -4.854 4.659 0.842 
110 1 3.055 5.127 7.342 
111 1 -2.303 -4.176 8.476 
112 1 8.194 8.549 7.464 
113 1 9.187 0.801 -7.653 
114 1 7.167 2.560 7.576 
115 1 -6.410 -4.997 -7.921 
116 1 4.136 -4.326 -2.322 
117 1 7.936 -2.090 2.649 
118 1 -4.697 -3.334 -2.006 
119 1 7.890 -5.352 -7.343 
120 1 -1.721 -3.783 4.617 
121 1 5.178 4.243 9.820 
122 1 -7.079 5.769 -4.372 
123 1 -3.593 7.723 -0.042 
124 1 3.199 0.208 4.090 
125 1 1.324 -3.875 -6.529 
126 1 -8.447 -3.505 6.407 
127 1 -1.970 2.274 6.625 
128 1 9.555 5.902 -2.186 
129 1 -1.669 8.436 9.771 
130 1 7.525 -2.552 -8.814 
131 1 -1.661 -0.304 3.770 
132 1 -7.835 9.741 5.027 
133 1 5.469 2.141 -7.310 
134 1 -8.992 -5.710 9.221 
135 1 5.420 -4.096 0.571 
136 1 0.952 1.019 7.575 
137 1 1.548 3.250 1.462 
138 1 0.111 8.131 -1.664 
139 1 -3.586 -9.085 -6.660 
140 1 1.405 8.337 7.592 
141 1 -3.434 -0.486 -3.133 
142 1 -9.239 -0.056 1.737 
143 1 -4.418 -6.852 -1.928 
144 1 -1.570 9.191 6.041 
145 1 -7.999 6.905 7.351 
146 1 -4.557 -3.067 -5.226 
147 1 -8.245 -2.345 -3.171 
148 1 0.869 2.483 4.638 
149 1 -5.000 -2.091 -8.380 
150 1 -2.111 -7.123 6.443 
151 1 4.830 3.772 0.474 
152 1 -9.182 4.503 2.804 
153 1 1.716 -2.025 6.580 
154 1 -0.178 -8.658 8.646 
155 1 -3.249 4.272 9.848 
156 1 -0.867 5.385 -3.177 
157 1 8.336 4.106 -7.918 
158 1 -2.217 -1.300 7.114 
159 1 -8.273 2.987 -5.343 
160 1 -5.161 -2.193 6.088 
161 1 -7.029 -8.605 -8.564 
162 1 5.244 -6.301 5.890 
163 1 1.013 -4.970 -3.181 
164 1 6.591 5.121 5.757 
165 1 -4.095 5.734 -3.502 
166 1 -2.505 -5.063 -7.977 
167 1 -2.302 3.101 2.286 
168 1 -0.978 5.774 0.258 
169 1 -2.929 -0.265 0.223 
170 1 -7.860 6.901 1.280 
171 1 1.624 -1.671 -1.669 
172 1 3.573 8.169 4.662 
173 1 -3.705 2.761 -1.919 
174 1 -8.558 -2.554 -8.858 
175 1 7.841 -3.797 6.438 
176 1 2.532 2.243 -9.233 
177 1 7.111 8.755 -5.480 
178 1 3.616 -0.307 0.470 
179 1 -4.296 -8.370 4.170 
180 1 -1.370 -3.290 -0.153 
181 1 8.452 -7.386 6.669 
182 1 -5.089 -5.399 4.949 
183 1 7.023 0.754 1.170 
184 1 -0.518 5.396 -6.977 
185 1 -9.684 0.739 -2.220 
186 1 -0.944 8.633 -5.616 
187 1 -4.083 -7.413 -9.799 
188 1 7.637 3.538 3.229 
189 1 9.636 7.505 4.329 
190 1 4.191 -6.764 2.482 
191 1 -0.978 9.264 2.437 
192 1 -3.680 -0.157 -6.206 
193 1 -5.367 -6.803 -4.918 
194 1 2.635 7.115 -5.056 
195 1 9.168 -0.737 8.240 
196 1 -5.892 7.998 -9.619 
197 1 -3.970 0.526 9.525 
198 1 -0.966 2.006 9.791 
199 1 6.454 -1.648 -1.447 
200 1 4.016 -9.782 -4.604 
ITEM: TIMESTEP
19000
ITEM: NUMBER OF ATOMS
200
ITEM: BOX BOUNDS pp pp pp
-9.855748163310864 9.855748163310864
-9.855748163310864 9.855748163310864
-9.855748163310864 9.855748163310864
ITEM: ATOMS id type x y z
1 1 4.206 3.638 4.364 
2 1 2.563 5.508 -2.152 
3 1 2.751 3.762 -5.727 
4 1 -3.068 5.671 6.878 
5 1 -5.708 -1.256 2.874 
6 1 3.770 -8.777 7.527 
7 1 3.989 -3.036 3.747 
8 1 4.464 7.840 9.241 
9 1 4.954 -9.760 1.186 
10 1 -6.426 7.352 -1.657 
11 1 1.446 -5.756 3.850 
12 1 9.784 -9.219 2.185 
13 1 -7.445 -6.367 -2.235 
14 1 7.264 -6.320 3.481 
15 1 5.180 -1.058 9.497 
16 1 1.195 8.655 -8.617 
17 1 -3.674 -8.907 0.733 
18 1 1.034 -7.664 -3.247 
19 1 -6.487 2.294 2.962 
20 1 -0.466 0.932 -2.360 
21 1 1.904 -1.254 9.800 
22 1 0.408 -7.501 -6.983 
23 1 5.955 5.053 -5.799 
24 1 9.770 6.709 -6.802 
25 1 -9.138 -9.028 7.854 
26 1 4.227 9.501 -7.190 
27 1 8.471 3.640 -0.181 
28 1 -6.630 9.012 -5.618 
29 1 -1.901 2.470 -4.798 
30 1 -8.041 -0.271 5.023 
31 1 -6.457 0.532 -0.702 
32 1 1.806 7.845 1.394 
33 1 0.825 1.343 -6.488 
34 1 8.446 4.945 8.396 
35 1 1.683 -5.666 6.918 
36 1 -9.049 3.100 -9.599 
37 1 3.909 -3.503 7.892 
38 1 -1.976 -6.887 3.000 
39 1 -9.470 3.679 5.839 
40 1 -0.284 4.944 8.481 
41 1 -1.271 -6.685 -0.452 
42 1 -9.748 -9.322 -7.244 
43 1 8.286 -4.892 -2.287 
44 1 4.023 -1.197 -7.350 
45 1 4.071 8.497 -1.882 
46 1 -5.907 -7.702 7.278 
47 1 -8.841 -6.911 4.799 
48 1 3.958 -7.377 -1.127 
49 1 5.944 -1.238 6.055 
50 1 2.545 5.672 -8.791 
51 1 -2.669 6.129 3.638 
52 1 4.161 1.803 7.093 
53 1 7.047 -7.954 -4.735 
54 1 8.278 9.754 -1.860 
55 1 4.578 -4.374 -8.456 
56 1 -6.876 -0.338 8.249 
57 1 5.215 6.800 2.298 
58 1 8.819 -1.943 -4.451 
59 1 3.148 -7.357 -9.116 
60 1 -0.031 0.441 0.823 
61 1 7.788 7.602 0.524 
62 1 -7.821 -1.260 -5.708 
63 1 7.056 -9.635 4.200 
64 1 -6.512 -6.934 1.460 
65 1 -6.060 3.673 7.850 
66 1 -9.374 8.895 -4.186 
67 1 7.904 1.387 4.819 
68 1 6.309 1.747 -2.126 
69 1 0.709 -4.186 9.802 
70 1 -4.906 8.461 6.310 
71 1 9.594 -2.375 -0.505 
72 1 7.159 -6.981 -0.166 
73 1 -7.964 -9.449 -0.396 
74 1 -7.641 0.708 -8.011 
75 1 2.243 -4.885 0.187 
76 1 6.592 -8.878 -9.220 
77 1 -4.111 -3.847 1.968 
78 1 3.752 -6.348 -5.639 
79 1 6.723 -5.859 9.397 
80 1 -8.487 -3.333 3.732 
81 1 -0.976 -1.744 -8.968 
82 1 -5.090 8.334 2.784 
83 1 -1.905 -8.849 -2.888 
84 1 -4.802 1.370 5.600 
85 1 -9.035 8.313 -9.694 
86 1 -2.154 -5.102 -3.872 
87 1 -3.857 7.257 -7.045 
88 1 2.740 1.877 -2.561 
89 1 -0.760 -1.521 -5.001 
90 1 6.267 5.324 -2.421 
91 1 -9.515 -5.646 0.668 
92 1 2.094 -8.933 4.432 
93 1 -5.195 3.500 -6.052 
94 1 8.562 3.771 -4.194 
95 1 1.328 -8.469 0.707 
96 1 -7.392 3.649 -2.031 
97 1 -5.630 5.200 4.236 
98 1 -5.917 1.053 -3.937 
99 1 -5.005 -9.780 -2.727 
100 1 3.705 -1.172 -4.114 
101 1 0.369 5.135 4.217 
102 1 -7.201 -2.509 0.333 
103 1 -8.487 -5.198 -5.427 
104 1 -6.734 5.412 -7.846 
105 1 -6.213 -5.158 8.692 
106 1 6.081 -3.334 -5.396 
107 1 1.121 -2.359 2.225 
108 1 6.843 7.400 -8.404 
109 1 -5.038 5.134 0.452 
110 1 2.794 4.732 7.444 
111 1 -2.649 -4.595 7.880 
112 1 8.196 7.928 7.568 
113 1 8.753 0.386 -7.437 
114 1 7.218 1.875 8.221 
115 1 -6.351 -4.814 -7.707 
116 1 4.525 -4.234 -2.781 
117 1 8.059 -2.923 2.763 
118 1 -4.795 -3.044 -1.632 
119 1 8.366 -6.022 -7.447 
120 1 -1.683 -3.676 4.800 
121 1 5.440 4.378 -9.716 
122 1 -7.405 6.010 -4.667 
123 1 -3.326 7.989 -0.533 
124 1 3.514 0.114 3.872 
125 1 1.889 -3.338 -6.727 
126 1 -8.128 -3.173 6.960 
127 1 -1.884 2.254 6.511 
128 1 9.371 6.139 -2.178 
129 1 -2.438 8.634 -9.547 
130 1 7.820 -2.762 -8.238 
131 1 -2.039 -0.207 3.938 
132 1 -7.775 9.379 4.607 
133 1 5.504 1.834 -7.583 
134 1 -9.645 -5.532 9.289 
135 1 5.509 -4.302 0.952 
136 1 1.027 1.152 7.610 
137 1 1.359 3.859 1.183 
138 1 0.446 8.448 -1.754 
139 1 -2.894 -9.222 -6.251 
140 1 1.404 7.785 7.689 
141 1 -3.248 -0.531 -2.743 
142 1 -8.793 0.107 1.703 
143 1 -4.153 -6.639 -1.683 
144 1 -1.452 8.580 6.232 
145 1 -7.750 7.049 6.535 
146 1 -4.764 -2.767 -5.024 
147 1 -7.718 -2.453 -2.772 
148 1 0.587 2.142 3.721 
149 1 -4.532 -2.137 -8.909 
150 1 -1.576 -7.419 6.214 
151 1 5.251 3.660 0.732 
152 1 -8.627 4.553 2.469 
153 1 1.252 -2.392 5.979 
154 1 -0.181 -8.877 8.757 
155 1 -3.921 4.570 -9.562 
156 1 -0.848 5.156 -3.054 
157 1 8.261 4.095 -7.787 
158 1 -1.645 -0.923 7.351 
159 1 -8.383 2.679 -5.438 
160 1 -4.838 -2.324 6.147 
161 1 -6.877 -8.148 -8.981 
162 1 5.486 -6.222 5.823 
163 1 1.209 -4.350 -3.602 
164 1 6.313 6.003 5.476 
165 1 -4.174 6.075 -3.972 
166 1 -2.210 -5.591 -7.548 
167 1 -2.881 2.969 2.760 
168 1 -1.010 5.774 0.122 
169 1 -3.239 -0.500 0.558 
170 1 -7.795 7.418 1.217 
171 1 1.529 -1.878 -1.297 
172 1 2.898 7.010 5.027 
173 1 -3.513 2.961 -1.930 
174 1 -8.520 -1.917 -9.168 
175 1 8.018 -4.055 6.184 
176 1 2.768 2.241 -9.320 
177 1 7.256 8.837 -5.482 
178 1 3.541 0.288 0.390 
179 1 -3.978 -8.823 4.586 
180 1 -1.174 -3.234 -0.397 
181 1 8.222 -7.482 6.585 
182 1 -5.201 -5.562 4.572 
183 1 6.554 0.690 1.405 
184 1 -0.494 5.307 -7.196 
185 1 -9.003 0.854 -2.587 
186 1 -0.389 8.466 -5.165 
187 1 -3.070 -7.792 9.381 
188 1 7.707 4.185 3.121 
189 1 9.261 7.239 4.219 
190 1 4.051 -6.698 2.566 
191 1 -1.616 8.937 2.288 
192 1 -3.824 -0.010 -6.726 
193 1 -5.718 -7.577 -4.744 
194 1 2.395 7.022 -5.346 
195 1 9.137 -0.639 7.934 
196 1 -5.854 7.426 9.305 
197 1 -4.047 0.961 -9.832 
198 1 -1.077 2.053 -9.418 
199 1 6.519 -1.750 -0.780 
200 1 3.596 -9.297 -4.273 
ITEM: TIMESTEP
20000
ITEM: NUMBER OF ATOMS
200
ITEM: BOX BOUNDS pp pp pp
-9.855748163310864 9.855748163310864
-9.855748163310864 9.855748163310864
-9.855748163310864 9.855748163310864
ITEM: ATOMS id type x y z
1 1 4.258 3.694 4.859 
2 1 2.154 5.511 -1.727 
3 1 2.392 3.657 -5.412 
4 1 -2.837 5.639 7.307 
5 1 -5.568 -0.667 2.713 
6 1 3.804 -9.005 6.873 
7 1 3.740 -3.710 3.686 
8 1 4.084 7.318 8.629 
9 1 4.858 9.712 1.354 
10 1 -6.272 7.155 -1.587 
11 1 1.355 -5.878 3.773 
12 1 9.411 -9.277 1.987 
13 1 -7.635 -5.909 -1.974 
14 1 7.568 -6.664 3.229 
15 1 5.393 -0.916 9.308 
16 1 1.200 8.747 -7.787 
17 1 -3.694 -8.686 1.057 
18 1 1.191 -8.003 -2.683 
19 1 -6.244 2.329 2.631 
20 1 0.014 1.434 -2.078 
21 1 2.021 -0.972 -9.496 
22 1 0.653 -6.987 -6.248 
23 1 6.170 5.253 -5.612 
24 1 9.817 6.389 -6.321 
25 1 -8.947 -9.528 7.210 
26 1 4.243 9.782 -7.338 
27 1 9.390 3.441 0.011 
28 1 -6.603 8.667 -6.374 
29 1 -2.058 2.805 -5.012 
30 1 -8.562 0.254 4.932 
31 1 -6.059 0.241 -0.645 
32 1 1.574 7.959 1.120 
33 1 1.093 1.008 -6.443 
34 1 8.491 5.484 8.602 
35 1 1.813 -5.927 7.335 
36 1 -8.361 3.068 9.505 
37 1 3.807 -3.572 8.044 
38 1 -1.733 -6.529 2.846 
39 1 -9.088 3.991 5.959 
40 1 -0.625 4.610 9.224 
41 1 -1.412 -6.468 -0.319 
42 1 9.700 -9.337 -6.667 
43 1 7.709 -4.482 -2.814 
44 1 4.345 -1.584 -7.308 
45 1 4.780 8.560 -2.081 
46 1 -6.360 -7.745 7.069 
47 1 -8.817 -6.889 4.824 
48 1 4.226 -7.392 -0.801 
49 1 5.616 -1.483 5.777 
50 1 2.030 5.751 -9.089 
51 1 -3.057 5.899 3.430 
52 1 3.993 1.073 6.527 
53 1 6.950 -7.838 -4.194 
54 1 8.115 9.685 -2.166 
55 1 4.234 -4.769 -8.514 
56 1 -7.322 0.066 8.383 
57 1 5.046 6.332 2.063 
58 1 8.627 -1.940 -5.106 
59 1 3.838 -7.651 -9.643 
60 1 0.018 0.646 1.265 
61 1 7.789 7.830 0.826 
62 1 -7.932 -1.892 -6.030 
63 1 6.183 9.453 4.677 
64 1 -6.410 -6.985 1.741 
65 1 -5.844 4.125 7.512 
66 1 -8.705 8.928 -4.255 
67 1 7.401 1.788 5.149 
68 1 7.111 1.880 -2.294 
69 1 0.732 -4.188 -9.845 
70 1 -5.056 7.887 5.533 
71 1 8.850 -2.111 -0.010 
72 1 7.379 -7.691 -0.299 
73 1 -8.040 -9.526 -1.158 
74 1 -7.219 0.786 -8.040 
75 1 1.741 -4.804 0.286 
76 1 6.893 -9.283 -9.118 
77 1 -4.060 -4.028 2.281 
78 1 4.003 -6.451 -5.440 
79 1 6.637 -6.114 9.733 
80 1 -8.455 -3.369 3.543 
81 1 -1.306 -1.450 -9.018 
82 1 -5.039 8.077 2.170 
83 1 -1.927 -8.757 -3.846 
84 1 -4.838 1.197 6.122 
85 1 -9.036 8.285 -9.308 
86 1 -2.371 -5.300 -4.028 
87 1 -3.851 7.139 -7.490 
88 1 3.421 1.812 -3.075 
89 1 -0.608 -1.780 -5.195 
90 1 5.909 4.797 -2.251 
91 1 -9.252 -5.372 0.692 
92 1 2.046 -9.494 3.936 
93 1 -5.142 3.504 -6.011 
94 1 9.160 4.394 -3.825 
95 1 1.109 -8.296 0.712 
96 1 -7.139 3.426 -2.068 
97 1 -6.092 5.293 3.975 
98 1 -5.912 0.767 -3.741 
99 1 -5.017 9.742 -3.219 
100 1 3.570 -1.266 -3.746 
101 1 0.254 5.088 4.080 
102 1 -6.926 -2.974 0.513 
103 1 -8.974 -5.387 -4.857 
104 1 -7.144 5.385 -8.105 
105 1 -5.818 -5.016 8.729 
106 1 5.957 -3.884 -5.669 
107 1 0.867 -2.024 2.504 
108 1 6.013 6.699 -8.527 
109 1 -4.753 4.844 0.580 
110 1 2.158 4.593 7.257 
111 1 -2.597 -3.921 8.738 
112 1 7.437 8.834 7.646 
113 1 8.490 0.260 -7.699 
114 1 7.103 1.575 8.235 
115 1 -6.926 -4.775 -7.772 
116 1 4.347 -4.228 -2.688 
117 1 7.818 -2.280 3.333 
118 1 -4.693 -3.134 -1.780 
119 1 8.127 -6.311 -6.688 
120 1 -1.371 -4.057 5.197 
121 1 5.155 4.035 9.070 
122 1 -7.274 5.553 -4.744 
123 1 -2.881 8.648 -0.720 
124 1 3.506 -0.245 3.488 
125 1 1.889 -3.338 -6.727 
126 1 -8.099 -3.321 7.045 
127 1 -1.575 2.822 6.539 
128 1 -9.625 6.117 -1.200 
129 1 -1.746 8.441 -9.766 
130 1 7.284 -2.983 -8.404 
131 1 -1.318 -0.137 4.366 
132 1 -7.655 9.491 3.853 
133 1 5.040 1.535 -6.545 
134 1 -9.588 -5.748 8.547 
135 1 5.471 -4.245 0.931 
136 1 0.829 0.738 7.449 
137 1 1.404 3.801 1.293 
138 1 0.137 8.664 -1.982 
139 1 -3.285 -9.177 -6.835 
140 1 1.200 8.272 7.868 
141 1 -2.890 -0.248 -2.847 
142 1 -9.471 0.616 1.845 
143 1 -4.460 -6.395 -1.451 
144 1 -1.859 8.784 6.777 
145 1 -8.091 7.218 7.088 
146 1 -4.187 -2.634 -4.912 
147 1 -7.947 -2.520 -2.482 
148 1 1.394 2.148 3.926 
149 1 -4.478 -2.320 -8.873 
150 1 -1.769 -7.839 6.081 
151 1 4.667 3.220 0.419 
152 1 -8.798 4.244 2.694 
153 1 1.241 -2.269 6.289 
154 1 0.269 -8.216 9.572 
155 1 -4.251 4.316 -9.258 
156 1 -1.125 5.614 -3.348 
157 1 8.198 3.456 -8.072 
158 1 -2.046 -0.517 7.705 
159 1 -8.735 2.630 -5.991 
160 1 -3.900 -2.350 5.687 
161 1 -6.299 -7.969 -8.160 
162 1 5.172 -5.635 5.821 
163 1 1.085 -4.630 -3.770 
164 1 5.888 6.306 6.261 
165 1 -4.139 5.976 -4.101 
166 1 -2.604 -5.484 -7.454 
167 1 -2.789 2.804 2.665 
168 1 -1.609 5.416 -0.138 
169 1 -3.061 -0.251 0.454 
170 1 -8.271 7.933 1.036 
171 1 1.529 -1.878 -1.297 
172 1 2.698 7.041 5.131 
173 1 -3.497 3.203 -1.967 
174 1 -8.542 -2.180 -9.525 
175 1 8.259 -3.849 6.179 
176 1 2.716 2.557 -9.137 
177 1 6.941 8.783 -5.563 
178 1 3.716 0.260 0.418 
179 1 -4.710 -8.389 4.068 
180 1 -1.595 -3.262 -0.543 
181 1 7.941 -7.728 6.565 
182 1 -5.821 -5.451 4.634 
183 1 6.637 0.709 1.555 
184 1 -1.043 5.464 -6.825 
185 1 -9.447 0.885 -2.214 
186 1 -0.613 8.071 -5.192 
187 1 -3.948 -8.275 9.578 
188 1 7.840 3.859 2.893 
189 1 8.702 7.162 4.386 
190 1 4.337 -6.885 2.855 
191 1 -1.369 8.813 2.268 
192 1 -3.448 0.189 -6.717 
193 1 -5.499 -6.725 -4.409 
194 1 2.770 6.993 -5.400 
195 1 9.419 -0.974 7.838 
196 1 -5.358 7.756 9.473 
197 1 -4.104 0.915 9.677 
198 1 -0.700 1.883 -9.094 
199 1 5.818 -1.689 -1.232 
200 1 3.274 -9.626 -4.396 
