ITEM: TIMESTEP
0
ITEM: NUMBER OF ATOMS
200
ITEM: BOX BOUNDS pp pp pp
-9.855748163310864 9.855748163310864
-9.855748163310864 9.855748163310864
-9.855748163310864 9.855748163310864
ITEM: ATOMS id type x y z
1 1 2.743 2.592 2.026 
2 1 2.971 8.123 0.916 
3 1 2.154 1.164 -7.465 
4 1 -1.461 4.714 5.362 
5 1 -6.835 -2.243 2.554 
6 1 2.419 8.778 6.154 
7 1 3.038 -2.181 3.606 
8 1 1.281 7.487 7.857 
9 1 3.089 8.535 2.665 
10 1 -4.931 4.972 -1.192 
11 1 -0.728 -7.624 3.231 
12 1 7.522 8.573 5.131 
13 1 -5.362 -4.395 -1.378 
14 1 -9.652 -5.869 4.404 
15 1 4.751 1.119 7.840 
16 1 -0.144 9.382 -6.430 
17 1 -2.147 -6.946 0.795 
18 1 -0.055 -7.378 -3.227 
19 1 -4.583 1.338 3.833 
20 1 -0.857 0.727 -3.030 
21 1 0.540 -2.868 -8.958 
22 1 -1.330 -5.401 -6.128 
23 1 6.197 6.174 -6.652 
24 1 8.598 6.669 -5.047 
25 1 -6.623 7.248 7.118 
26 1 4.060 -7.961 -8.863 
27 1 -9.663 1.058 2.677 
28 1 -8.288 7.452 -4.936 
29 1 -0.350 3.530 -3.796 
30 1 -6.513 -2.596 4.654 
31 1 -5.224 1.388 2.799 
32 1 0.305 7.670 4.102 
33 1 0.359 -0.603 -6.415 
34 1 -8.575 4.969 7.863 
35 1 -2.492 -7.653 5.106 
36 1 -7.655 1.476 8.105 
37 1 2.734 -5.547 9.260 
38 1 -2.040 -7.144 2.389 
39 1 -5.403 3.117 4.819 
40 1 0.058 2.886 -8.483 
41 1 -0.742 -5.252 -2.655 
42 1 9.731 -9.664 -6.827 
43 1 -9.727 -2.034 1.547 
44 1 1.660 -1.301 -6.625 
45 1 3.572 -9.243 -2.739 
46 1 -4.294 9.474 5.263 
47 1 -6.634 -5.680 5.344 
48 1 1.809 -9.353 1.954 
49 1 3.709 0.853 6.999 
50 1 3.320 6.285 -7.151 
51 1 -4.152 7.066 3.658 
52 1 1.560 4.424 6.556 
53 1 4.191 -7.633 -6.337 
54 1 7.439 8.383 0.833 
55 1 2.586 -3.125 -7.744 
56 1 -6.691 0.656 8.860 
57 1 3.945 6.283 4.329 
58 1 9.345 -1.602 -5.728 
59 1 3.568 -7.223 -7.420 
60 1 -0.080 1.630 -0.553 
61 1 8.564 7.531 2.567 
62 1 -7.522 -3.940 -7.313 
63 1 3.993 9.313 5.896 
64 1 -5.672 -6.770 1.934 
65 1 -4.981 4.155 6.144 
66 1 -6.177 8.456 -2.538 
67 1 7.589 1.806 3.719 
68 1 8.227 2.980 -4.363 
69 1 1.277 -4.912 -9.771 
70 1 -4.556 6.836 4.705 
71 1 9.696 0.815 2.654 
72 1 6.272 -8.745 1.455 
73 1 -5.762 -9.447 0.991 
74 1 -6.570 0.665 -8.477 
75 1 0.420 -7.045 0.509 
76 1 6.497 9.150 8.779 
77 1 -2.460 -5.358 0.951 
78 1 1.863 -6.391 -6.985 
79 1 3.676 -6.976 -9.640 
80 1 -9.526 -1.654 3.073 
81 1 -1.187 -3.308 -6.282 
82 1 -4.550 8.672 4.271 
83 1 -3.205 -7.897 -2.312 
84 1 -3.855 0.924 5.850 
85 1 -9.253 6.803 -8.397 
86 1 -2.139 -6.372 -4.577 
87 1 -3.415 6.609 -5.675 
88 1 -0.253 2.340 -3.173 
89 1 -1.930 -1.716 -3.960 
90 1 2.812 2.484 -1.331 
91 1 8.749 -7.179 1.754 
92 1 0.048 8.717 3.996 
93 1 -5.406 2.798 -5.397 
94 1 8.116 3.819 -4.930 
95 1 0.648 9.253 3.137 
96 1 -6.248 3.796 -2.819 
97 1 -2.876 3.466 5.013 
98 1 -8.341 1.835 -5.440 
99 1 -3.829 6.834 -1.751 
100 1 2.285 -1.384 -3.511 
101 1 -0.436 7.944 4.181 
102 1 -6.953 -5.586 2.159 
103 1 9.799 -2.886 -5.785 
104 1 -6.177 6.955 -8.114 
105 1 -3.833 -7.980 6.368 
106 1 4.874 -4.029 -7.443 
107 1 -0.441 -1.467 0.830 
108 1 5.558 7.467 -8.357 
109 1 -5.070 5.634 3.150 
110 1 -0.988 3.312 6.747 
111 1 0.934 -2.898 6.968 
112 1 6.147 9.212 6.381 
113 1 -8.568 2.823 -7.639 
114 1 5.686 3.582 6.003 
115 1 -5.927 -6.200 -8.139 
116 1 0.505 -1.978 -0.674 
117 1 6.392 -2.794 3.060 
118 1 -5.150 -2.687 -1.994 
119 1 7.044 -7.277 -7.237 
120 1 -2.594 -1.470 5.728 
121 1 3.357 2.083 -9.472 
122 1 -5.048 6.260 -3.776 
123 1 -3.740 7.232 2.073 
124 1 2.636 2.014 4.083 
125 1 0.518 -1.980 -6.362 
126 1 -6.715 -5.189 5.559 
127 1 -3.084 1.642 5.525 
128 1 9.135 8.207 -2.802 
129 1 0.451 7.588 9.276 
130 1 6.894 -2.546 -7.222 
131 1 -3.172 0.103 2.889 
132 1 -7.137 7.496 4.556 
133 1 5.269 -1.240 -6.958 
134 1 8.585 -9.604 8.307 
135 1 8.171 -3.450 3.089 
136 1 -1.908 -1.275 7.171 
137 1 0.830 3.902 0.936 
138 1 -0.832 8.929 -2.034 
139 1 -3.557 -7.588 -7.700 
140 1 -1.532 9.582 6.577 
141 1 -3.926 0.152 -3.436 
142 1 -6.839 0.897 4.423 
143 1 -3.833 -4.513 -1.903 
144 1 -1.938 9.535 6.026 
145 1 -5.083 5.741 4.163 
146 1 -4.482 -2.889 -5.475 
147 1 -8.589 -3.234 -4.292 
148 1 0.107 5.257 4.611 
149 1 -4.307 -2.330 -8.037 
150 1 -2.788 -7.410 4.157 
151 1 3.784 1.283 -0.276 
152 1 -5.368 2.248 3.722 
153 1 1.894 -1.760 5.573 
154 1 -2.492 -8.074 -9.722 
155 1 -3.361 5.500 9.266 
156 1 -0.665 4.879 -0.877 
157 1 8.075 6.160 -9.341 
158 1 -2.211 -1.824 8.293 
159 1 -8.651 5.198 -7.523 
160 1 -5.334 -2.603 7.559 
161 1 -4.072 -8.335 -9.756 
162 1 3.267 -6.496 3.821 
163 1 -0.432 -4.116 -4.422 
164 1 3.608 8.308 6.101 
165 1 -3.636 6.951 -4.378 
166 1 -3.599 -3.138 -7.711 
167 1 -2.366 2.467 2.789 
168 1 -0.520 4.709 0.120 
169 1 -3.320 -0.199 2.623 
170 1 -4.910 6.395 3.629 
171 1 2.606 0.991 -0.982 
172 1 2.431 7.194 4.294 
173 1 -2.098 5.242 -0.696 
174 1 -9.671 -2.927 -8.637 
175 1 7.023 -2.599 7.992 
176 1 3.048 1.477 8.685 
177 1 7.553 8.967 -6.611 
178 1 2.267 1.896 3.255 
179 1 -4.170 -8.950 5.024 
180 1 -2.637 -3.938 -1.976 
181 1 7.399 -7.671 6.154 
182 1 -4.832 -3.434 2.596 
183 1 3.545 1.937 2.363 
184 1 -1.826 6.194 -5.841 
185 1 8.432 0.161 -0.297 
186 1 -1.021 8.994 -5.513 
187 1 -2.667 -8.801 8.332 
188 1 5.148 4.281 4.396 
189 1 7.947 6.203 6.408 
190 1 2.860 -7.627 3.726 
191 1 -2.044 -9.345 2.979 
192 1 -3.722 -2.959 -7.198 
193 1 -5.280 -7.455 -7.196 
194 1 3.291 7.433 -3.050 
195 1 -8.397 1.269 5.912 
196 1 -3.552 5.994 8.454 
197 1 -3.352 1.318 7.370 
198 1 -0.999 0.612 9.215 
199 1 6.432 0.233 0.301 
200 1 4.237 -8.183 -5.085 
ITEM: TIMESTEP
10
ITEM: NUMBER OF ATOMS
200
ITEM: BOX BOUNDS pp pp pp
-9.855748163310864 9.855748163310864
-9.855748163310864 9.855748163310864
-9.855748163310864 9.855748163310864
ITEM: ATOMS id type x y z
1 1 2.576 2.869 1.813 
2 1 2.970 8.120 0.902 
3 1 2.154 1.164 -7.465 
4 1 -1.467 4.717 5.366 
5 1 -6.836 -2.242 2.552 
6 1 2.227 8.872 6.160 
7 1 3.038 -2.181 3.605 
8 1 1.302 7.484 7.822 
9 1 3.091 8.538 2.678 
10 1 -4.931 4.972 -1.192 
11 1 -0.688 -7.637 3.255 
12 1 7.525 8.571 5.128 
13 1 -5.442 -4.397 -1.346 
14 1 -9.652 -5.869 4.404 
15 1 4.896 1.154 7.951 
16 1 -0.011 9.442 -6.570 
17 1 -2.142 -6.986 0.735 
18 1 -0.055 -7.378 -3.227 
19 1 -4.355 1.176 4.020 
20 1 -0.870 0.693 -3.027 
21 1 0.539 -2.867 -8.958 
22 1 -1.329 -5.401 -6.131 
23 1 6.197 6.173 -6.651 
24 1 8.598 6.669 -5.047 
25 1 -6.623 7.248 7.118 
26 1 4.135 -8.140 -8.771 
27 1 -9.132 1.425 2.712 
28 1 -8.288 7.452 -4.936 
29 1 -0.364 3.704 -3.887 
30 1 -6.513 -2.596 4.655 
31 1 -5.298 1.251 2.486 
32 1 0.698 7.404 4.062 
33 1 0.281 -0.430 -6.411 
34 1 -8.575 4.969 7.863 
35 1 -2.376 -7.732 5.422 
36 1 -7.735 1.544 8.043 
37 1 2.747 -5.545 9.245 
38 1 -2.066 -7.134 2.403 
39 1 -5.403 3.271 5.043 
40 1 0.058 2.886 -8.483 
41 1 -0.742 -5.253 -2.653 
42 1 9.731 -9.664 -6.827 
43 1 -9.735 -2.049 1.487 
44 1 1.859 -1.251 -6.667 
45 1 3.572 -9.243 -2.739 
46 1 -4.266 9.379 5.525 
47 1 -6.546 -6.215 5.110 
48 1 1.823 -9.339 1.941 
49 1 3.570 0.815 6.881 
50 1 3.320 6.285 -7.151 
51 1 -3.660 7.322 3.637 
52 1 1.560 4.424 6.556 
53 1 4.330 -7.602 -6.370 
54 1 7.439 8.383 0.832 
55 1 2.587 -3.126 -7.745 
56 1 -6.612 0.588 8.922 
57 1 3.960 6.274 4.330 
58 1 9.284 -1.427 -5.720 
59 1 3.419 -7.118 -7.623 
60 1 -0.080 1.630 -0.553 
61 1 8.565 7.530 2.568 
62 1 -7.522 -3.940 -7.313 
63 1 4.096 9.596 5.838 
64 1 -5.659 -6.783 1.931 
65 1 -4.971 4.178 6.176 
66 1 -6.177 8.456 -2.538 
67 1 7.589 1.806 3.719 
68 1 8.265 2.691 -4.167 
69 1 1.258 -4.904 -9.762 
70 1 -4.528 6.902 5.021 
71 1 9.165 0.449 2.619 
72 1 6.272 -8.745 1.455 
73 1 -5.762 -9.447 0.991 
74 1 -6.570 0.665 -8.477 
75 1 0.420 -7.045 0.509 
76 1 6.497 9.149 8.779 
77 1 -2.470 -5.311 0.955 
78 1 1.858 -6.388 -6.983 
79 1 3.622 -6.828 -9.760 
80 1 -9.518 -1.640 3.133 
81 1 -1.189 -3.307 -6.284 
82 1 -4.623 8.567 4.081 
83 1 -3.205 -7.897 -2.312 
84 1 -4.083 0.712 5.915 
85 1 -9.255 6.808 -8.400 
86 1 -2.141 -6.374 -4.575 
87 1 -3.430 6.572 -5.856 
88 1 -0.225 2.200 -3.084 
89 1 -1.930 -1.716 -3.960 
90 1 2.820 2.559 -1.351 
91 1 8.749 -7.179 1.754 
92 1 0.060 9.061 4.259 
93 1 -5.406 2.798 -5.397 
94 1 8.078 4.108 -5.126 
95 1 0.833 9.380 2.827 
96 1 -6.249 3.796 -2.820 
97 1 -2.880 3.481 5.007 
98 1 -8.341 1.835 -5.440 
99 1 -3.829 6.835 -1.751 
100 1 2.285 -1.384 -3.511 
101 1 -1.050 7.727 4.281 
102 1 -6.967 -5.573 2.162 
103 1 -9.853 -3.061 -5.795 
104 1 -6.177 6.955 -8.114 
105 1 -3.838 -7.961 6.411 
106 1 4.875 -4.029 -7.443 
107 1 -0.446 -1.465 0.838 
108 1 5.558 7.468 -8.358 
109 1 -5.080 5.159 2.745 
110 1 -0.987 3.310 6.750 
111 1 0.932 -2.899 6.970 
112 1 6.145 9.213 6.383 
113 1 -8.568 2.823 -7.639 
114 1 5.690 3.578 6.012 
115 1 -5.938 -6.179 -8.155 
116 1 0.510 -1.981 -0.682 
117 1 6.386 -2.791 3.060 
118 1 -5.149 -2.676 -1.998 
119 1 7.044 -7.277 -7.237 
120 1 -2.634 -1.483 5.652 
121 1 3.363 2.094 -9.445 
122 1 -5.080 6.244 -3.764 
123 1 -3.737 7.227 1.969 
124 1 2.809 2.072 4.463 
125 1 0.398 -2.200 -6.325 
126 1 -6.804 -4.655 5.793 
127 1 -2.867 1.826 5.437 
128 1 9.135 8.207 -2.802 
129 1 0.430 7.591 9.311 
130 1 6.896 -2.547 -7.222 
131 1 -2.936 0.550 3.285 
132 1 -7.137 7.496 4.557 
133 1 5.268 -1.239 -6.958 
134 1 8.586 -9.604 8.307 
135 1 8.177 -3.453 3.089 
136 1 -1.814 -1.164 7.049 
137 1 0.869 3.880 0.953 
138 1 -0.832 8.929 -2.034 
139 1 -3.543 -7.589 -7.703 
140 1 -1.226 9.617 6.993 
141 1 -3.926 0.152 -3.436 
142 1 -6.839 0.896 4.423 
143 1 -3.943 -4.614 -1.920 
144 1 -2.243 9.500 5.610 
145 1 -5.164 5.369 4.549 
146 1 -4.568 -2.897 -5.313 
147 1 -8.586 -3.234 -4.290 
148 1 0.117 5.260 4.606 
149 1 -4.485 -2.128 -8.126 
150 1 -2.899 -7.328 3.849 
151 1 3.921 1.314 -0.193 
152 1 -5.544 2.376 3.595 
153 1 1.895 -1.759 5.571 
154 1 -2.436 -8.060 -9.710 
155 1 -3.287 5.308 9.581 
156 1 -0.612 4.913 -1.249 
157 1 8.075 6.160 -9.341 
158 1 -2.265 -1.921 8.491 
159 1 -8.649 5.193 -7.520 
160 1 -5.334 -2.603 7.559 
161 1 -4.128 -8.344 -9.757 
162 1 3.354 -6.254 3.841 
163 1 -0.431 -4.115 -4.422 
164 1 3.695 7.931 6.154 
165 1 -3.634 7.016 -4.208 
166 1 -3.337 -3.481 -8.211 
167 1 -2.366 2.469 2.788 
168 1 -0.509 4.672 0.448 
169 1 -3.544 -0.654 2.221 
170 1 -5.319 6.880 3.441 
171 1 2.460 0.885 -1.046 
172 1 2.425 7.201 4.295 
173 1 -2.200 5.266 -0.669 
174 1 -9.671 -2.927 -8.637 
175 1 7.023 -2.599 7.992 
176 1 3.037 1.469 8.665 
177 1 7.553 8.967 -6.611 
178 1 2.008 1.743 3.008 
179 1 -4.159 -8.728 4.932 
180 1 -2.449 -3.847 -1.987 
181 1 7.399 -7.671 6.154 
182 1 -4.831 -3.434 2.596 
183 1 3.798 1.755 2.444 
184 1 -1.781 6.182 -5.844 
185 1 8.434 0.160 -0.298 
186 1 -1.154 8.935 -5.373 
187 1 -2.667 -8.806 8.321 
188 1 5.145 4.284 4.387 
189 1 7.947 6.203 6.408 
190 1 2.773 -7.869 3.706 
191 1 -2.045 -9.346 2.979 
192 1 -3.720 -2.810 -6.771 
193 1 -5.283 -7.476 -7.176 
194 1 3.291 7.433 -3.050 
195 1 -8.398 1.269 5.913 
196 1 -3.626 6.186 8.139 
197 1 -3.340 1.328 7.402 
198 1 -0.999 0.612 9.215 
199 1 6.430 0.233 0.302 
200 1 4.239 -8.302 -4.818 
ITEM: TIMESTEP
20
ITEM: NUMBER OF ATOMS
200
ITEM: BOX BOUNDS pp pp pp
-9.855748163310864 9.855748163310864
-9.855748163310864 9.855748163310864
-9.855748163310864 9.855748163310864
ITEM: ATOMS id type x y z
1 1 3.079 3.228 1.688 
2 1 2.936 8.001 0.483 
3 1 2.099 1.249 -7.416 
4 1 -1.606 5.173 5.630 
5 1 -6.956 -2.150 2.310 
6 1 1.924 9.211 6.195 
7 1 3.132 -2.226 3.437 
8 1 1.458 7.256 7.601 
9 1 3.344 8.826 2.821 
10 1 -5.037 4.863 -1.068 
11 1 -0.111 -7.761 3.587 
12 1 7.771 8.482 4.892 
13 1 -6.084 -4.546 -0.984 
14 1 -9.652 -5.871 4.407 
15 1 5.314 1.199 8.132 
16 1 0.271 9.567 -6.865 
17 1 -2.147 -7.335 -0.186 
18 1 0.032 -7.575 -3.276 
19 1 -4.413 1.258 3.944 
20 1 -1.106 0.222 -2.984 
21 1 0.394 -2.597 -8.950 
22 1 -1.233 -5.892 -6.443 
23 1 6.232 6.078 -6.531 
24 1 8.625 6.765 -5.042 
25 1 -6.650 7.250 7.196 
26 1 4.514 -8.956 -8.710 
27 1 -8.799 1.680 2.719 
28 1 -8.277 7.454 -4.937 
29 1 -0.457 4.208 -4.249 
30 1 -6.440 -2.422 4.757 
31 1 -5.344 0.665 1.682 
32 1 0.577 7.145 3.460 
33 1 -0.028 0.024 -6.379 
34 1 -8.578 4.967 7.864 
35 1 -1.777 -7.730 5.748 
36 1 -7.981 1.893 8.102 
37 1 2.806 -5.035 8.590 
38 1 -1.877 -6.875 2.173 
39 1 -5.973 2.588 5.436 
40 1 0.049 2.895 -8.486 
41 1 -0.693 -5.384 -2.379 
42 1 9.809 -9.625 -6.835 
43 1 -9.780 -2.153 1.065 
44 1 2.553 -0.974 -6.701 
45 1 3.431 -9.412 -2.349 
46 1 -4.545 9.299 6.428 
47 1 -6.481 -6.623 4.929 
48 1 2.186 -8.910 1.433 
49 1 3.461 0.515 6.417 
50 1 3.299 6.279 -7.146 
51 1 -3.379 6.925 3.595 
52 1 1.615 4.405 6.626 
53 1 4.933 -7.515 -6.450 
54 1 7.357 8.437 0.696 
55 1 2.624 -3.281 -7.818 
56 1 -6.269 0.279 8.950 
57 1 4.544 6.205 4.243 
58 1 9.153 -1.008 -5.683 
59 1 3.182 -6.785 -7.888 
60 1 -0.139 1.607 -0.433 
61 1 8.662 7.453 2.674 
62 1 -7.502 -3.930 -7.298 
63 1 4.086 -9.619 5.632 
64 1 -5.373 -7.014 1.885 
65 1 -4.630 4.657 7.428 
66 1 -6.192 8.480 -2.531 
67 1 7.502 1.905 3.795 
68 1 8.313 2.326 -3.917 
69 1 0.843 -5.028 -9.562 
70 1 -4.533 6.936 5.752 
71 1 8.836 0.193 2.493 
72 1 6.259 -8.739 1.458 
73 1 -5.767 -9.481 0.976 
74 1 -6.581 0.686 -8.269 
75 1 0.463 -7.028 0.501 
76 1 6.420 9.094 8.988 
77 1 -2.573 -4.843 0.932 
78 1 1.249 -6.147 -6.632 
79 1 3.971 -6.988 9.522 
80 1 -9.402 -1.603 3.592 
81 1 -1.269 -3.352 -6.513 
82 1 -4.888 9.002 3.645 
83 1 -3.239 -7.933 -2.338 
84 1 -4.571 0.136 6.199 
85 1 -9.331 7.122 -8.552 
86 1 -2.321 -6.517 -4.358 
87 1 -3.868 6.532 -6.325 
88 1 0.180 2.287 -2.855 
89 1 -1.980 -1.820 -4.038 
90 1 2.828 2.980 -1.493 
91 1 8.755 -7.175 1.753 
92 1 0.045 9.616 4.795 
93 1 -5.397 2.796 -5.410 
94 1 8.012 4.347 -5.382 
95 1 0.614 9.231 2.382 
96 1 -6.335 3.703 -2.880 
97 1 -3.367 3.716 4.723 
98 1 -8.335 1.794 -5.345 
99 1 -3.877 7.120 -1.682 
100 1 2.287 -1.386 -3.514 
101 1 -1.419 7.541 4.646 
102 1 -7.258 -5.311 2.207 
103 1 9.770 -3.482 -6.048 
104 1 -6.175 6.958 -8.118 
105 1 -4.236 -7.646 6.828 
106 1 4.932 -4.111 -7.433 
107 1 -0.626 -1.368 1.126 
108 1 5.510 7.571 -8.492 
109 1 -4.858 4.809 2.081 
110 1 -0.889 3.110 6.963 
111 1 0.795 -3.071 7.171 
112 1 6.168 9.262 6.553 
113 1 -8.583 2.654 -7.756 
114 1 5.807 3.441 6.386 
115 1 -6.054 -5.880 -8.421 
116 1 0.689 -2.084 -0.967 
117 1 6.073 -2.674 3.054 
118 1 -5.086 -2.391 -2.093 
119 1 7.166 -7.261 -7.282 
120 1 -2.899 -1.672 5.219 
121 1 3.583 2.360 -9.050 
122 1 -5.459 6.046 -3.745 
123 1 -3.783 7.266 1.216 
124 1 2.980 2.296 4.762 
125 1 0.742 -2.417 -6.121 
126 1 -6.923 -4.457 6.108 
127 1 -2.345 1.563 5.504 
128 1 9.138 8.220 -2.781 
129 1 0.192 7.626 9.719 
130 1 7.118 -2.659 -7.250 
131 1 -2.228 0.312 3.352 
132 1 -7.404 7.587 4.705 
133 1 5.107 -1.086 -6.929 
134 1 8.695 -9.557 8.285 
135 1 8.465 -3.594 3.099 
136 1 -1.342 -0.797 7.035 
137 1 0.956 3.726 0.810 
138 1 -0.831 8.929 -2.030 
139 1 -3.238 -7.511 -7.549 
140 1 -0.777 9.514 7.326 
141 1 -3.949 0.167 -3.435 
142 1 -6.908 0.535 4.207 
143 1 -3.900 -5.080 -2.177 
144 1 -2.405 9.595 5.327 
145 1 -5.507 5.058 4.519 
146 1 -5.063 -3.017 -4.597 
147 1 -8.381 -3.231 -4.030 
148 1 0.555 4.947 4.406 
149 1 -4.931 -1.747 -8.667 
150 1 -3.383 -6.699 3.992 
151 1 4.200 1.366 -0.025 
152 1 -6.126 2.825 2.723 
153 1 1.930 -1.552 5.534 
154 1 -1.841 -7.866 -9.554 
155 1 -3.214 5.075 -9.787 
156 1 -0.280 4.904 -1.709 
157 1 8.040 6.142 -9.359 
158 1 -2.439 -2.175 8.895 
159 1 -8.540 5.105 -7.329 
160 1 -5.328 -2.597 7.570 
161 1 -4.565 -8.419 -9.790 
162 1 3.506 -5.829 3.873 
163 1 -0.231 -4.038 -4.312 
164 1 4.058 7.502 6.524 
165 1 -3.229 7.371 -4.024 
166 1 -3.117 -3.896 -8.710 
167 1 -2.284 2.768 2.607 
168 1 -0.996 5.019 0.959 
169 1 -3.641 -1.129 1.903 
170 1 -5.859 6.938 2.896 
171 1 2.130 0.440 -1.170 
172 1 2.515 7.382 4.652 
173 1 -2.635 5.281 -0.706 
174 1 -9.687 -2.913 -8.679 
175 1 7.022 -2.599 7.992 
176 1 2.628 1.424 8.573 
177 1 7.476 8.941 -6.605 
178 1 1.476 1.378 2.906 
179 1 -4.604 -8.693 4.624 
180 1 -2.062 -3.359 -1.892 
181 1 7.399 -7.665 6.150 
182 1 -4.732 -3.510 2.600 
183 1 4.334 1.348 2.631 
184 1 -1.358 6.088 -5.832 
185 1 8.674 0.156 -0.385 
186 1 -1.414 8.844 -5.090 
187 1 -2.723 -9.008 8.193 
188 1 5.270 3.918 3.974 
189 1 7.950 6.181 6.422 
190 1 2.669 -8.211 3.830 
191 1 -2.108 -9.462 2.878 
192 1 -3.861 -2.390 -6.566 
193 1 -5.575 -7.804 -6.772 
194 1 3.290 7.427 -3.052 
195 1 -8.688 1.259 5.804 
196 1 -3.313 6.994 8.203 
197 1 -3.218 1.494 7.895 
198 1 -0.977 0.628 9.254 
199 1 6.295 0.183 0.394 
200 1 4.216 -8.484 -4.431 
ITEM: TIMESTEP
30
ITEM: NUMBER OF ATOMS
200
ITEM: BOX BOUNDS pp pp pp
-9.855748163310864 9.855748163310864
-9.855748163310864 9.855748163310864
-9.855748163310864 9.855748163310864
ITEM: ATOMS id type x y z
1 1 3.482 3.697 1.778 
2 1 2.869 7.755 0.168 
3 1 1.929 1.966 -7.257 
4 1 -1.664 5.101 6.357 
5 1 -6.999 -2.030 1.838 
6 1 2.234 9.715 6.943 
7 1 3.062 -2.315 3.035 
8 1 1.392 6.905 7.753 
9 1 3.753 8.881 2.837 
10 1 -5.642 4.887 -0.890 
11 1 0.230 -7.092 3.760 
12 1 8.202 8.632 4.578 
13 1 -6.498 -4.665 -0.735 
14 1 -9.780 -5.943 4.536 
15 1 5.660 1.103 8.469 
16 1 0.640 9.717 -7.240 
17 1 -2.231 -7.656 -0.447 
18 1 0.267 -7.980 -3.441 
19 1 -4.288 1.120 3.633 
20 1 -1.193 0.086 -2.740 
21 1 0.128 -2.174 -9.153 
22 1 -1.156 -6.067 -6.939 
23 1 6.042 5.944 -6.284 
24 1 8.684 6.907 -5.074 
25 1 -6.866 7.230 7.706 
26 1 4.449 -9.304 -8.564 
27 1 -9.097 1.924 2.530 
28 1 -8.111 7.546 -4.962 
29 1 -0.575 4.192 -4.579 
30 1 -6.250 -2.403 4.856 
31 1 -5.658 0.648 0.977 
32 1 0.688 6.862 2.539 
33 1 -0.432 0.177 -6.309 
34 1 -8.725 4.985 7.861 
35 1 -1.505 -7.294 6.158 
36 1 -8.162 2.168 8.450 
37 1 2.983 -4.686 8.281 
38 1 -2.023 -6.711 2.121 
39 1 -6.247 2.497 5.952 
40 1 -0.269 3.235 -8.624 
41 1 -0.645 -5.537 -1.702 
42 1 -9.628 -9.495 -6.842 
43 1 -9.779 -2.341 0.734 
44 1 2.942 -0.719 -6.621 
45 1 3.183 -9.595 -1.737 
46 1 -5.333 9.582 6.977 
47 1 -7.140 -6.612 4.602 
48 1 2.821 -8.647 0.898 
49 1 3.860 0.204 6.262 
50 1 3.002 6.179 -7.055 
51 1 -3.018 6.192 3.409 
52 1 2.009 4.255 7.001 
53 1 5.193 -7.255 -6.406 
54 1 7.226 8.421 0.384 
55 1 2.622 -3.434 -8.104 
56 1 -6.182 0.144 8.805 
57 1 5.058 6.551 4.067 
58 1 9.147 -0.721 -5.607 
59 1 2.978 -6.672 -8.338 
60 1 -0.630 1.356 -0.129 
61 1 9.075 6.994 2.392 
62 1 -7.335 -3.745 -7.150 
63 1 4.565 -9.203 5.495 
64 1 -5.127 -6.963 1.808 
65 1 -4.720 4.489 7.610 
66 1 -6.557 8.804 -2.574 
67 1 7.649 1.975 4.126 
68 1 8.352 1.925 -3.572 
69 1 0.539 -5.297 -9.513 
70 1 -4.393 6.995 5.898 
71 1 8.594 -0.122 2.346 
72 1 6.091 -8.636 1.511 
73 1 -5.889 -9.694 0.734 
74 1 -6.476 0.681 -7.910 
75 1 0.683 -6.783 0.515 
76 1 6.606 9.222 9.496 
77 1 -2.678 -4.392 0.715 
78 1 1.513 -6.010 -5.917 
79 1 4.437 -7.239 8.840 
80 1 -9.285 -1.683 4.080 
81 1 -1.643 -3.292 -6.939 
82 1 -4.916 8.556 3.334 
83 1 -3.854 -8.603 -2.687 
84 1 -4.754 -0.085 6.297 
85 1 -9.303 7.575 -8.730 
86 1 -2.481 -6.499 -4.363 
87 1 -4.082 6.342 -6.690 
88 1 0.672 2.233 -2.965 
89 1 -2.179 -2.019 -4.355 
90 1 2.990 3.538 -1.763 
91 1 8.844 -7.135 1.727 
92 1 0.318 -9.849 4.685 
93 1 -5.247 2.772 -5.621 
94 1 8.146 4.007 -5.649 
95 1 0.386 9.573 1.643 
96 1 -6.774 3.224 -2.977 
97 1 -3.633 3.717 4.712 
98 1 -8.351 1.685 -5.099 
99 1 -4.119 7.576 -1.722 
100 1 2.429 -1.456 -3.632 
101 1 -0.917 7.504 4.997 
102 1 -7.608 -5.114 2.131 
103 1 9.637 -3.968 -5.898 
104 1 -6.319 7.072 -8.355 
105 1 -4.510 -6.783 7.512 
106 1 5.202 -4.471 -7.337 
107 1 -0.534 -1.520 1.175 
108 1 5.143 7.450 -8.562 
109 1 -4.357 4.573 1.654 
110 1 -0.517 2.868 7.628 
111 1 0.474 -3.375 7.429 
112 1 6.572 9.255 6.763 
113 1 -8.897 2.452 -8.134 
114 1 5.884 3.561 6.653 
115 1 -5.989 -5.857 -8.734 
116 1 0.851 -2.469 -1.182 
117 1 5.983 -2.539 3.034 
118 1 -5.086 -2.052 -1.719 
119 1 7.891 -7.180 -7.580 
120 1 -2.973 -2.114 4.982 
121 1 4.156 2.786 -9.064 
122 1 -5.712 5.935 -3.926 
123 1 -3.470 7.556 1.010 
124 1 2.923 2.595 4.812 
125 1 1.057 -2.474 -5.878 
126 1 -7.343 -4.435 6.744 
127 1 -2.085 1.517 5.646 
128 1 9.185 8.391 -2.494 
129 1 -0.038 7.651 -9.497 
130 1 7.524 -2.807 -7.496 
131 1 -1.531 0.044 3.251 
132 1 -7.797 7.810 4.762 
133 1 5.772 -0.658 -6.955 
134 1 9.075 -9.438 8.255 
135 1 8.562 -3.859 3.063 
136 1 -0.918 -0.784 6.890 
137 1 0.919 3.689 0.666 
138 1 -0.805 8.914 -1.926 
139 1 -3.431 -7.806 -7.359 
140 1 -0.512 9.180 7.609 
141 1 -4.166 0.339 -3.485 
142 1 -7.010 0.266 4.005 
143 1 -3.987 -5.237 -2.217 
144 1 -2.734 9.700 5.455 
145 1 -6.259 5.154 4.609 
146 1 -5.372 -3.419 -4.474 
147 1 -8.258 -3.164 -3.702 
148 1 0.572 4.346 4.170 
149 1 -5.169 -1.839 -9.100 
150 1 -3.343 -5.548 4.478 
151 1 4.337 1.553 -0.085 
152 1 -6.496 2.990 2.665 
153 1 1.583 -1.450 5.415 
154 1 -1.251 -7.669 -9.551 
155 1 -3.140 4.831 -9.469 
156 1 0.185 5.203 -1.774 
157 1 7.882 5.976 -9.463 
158 1 -2.496 -2.181 8.933 
159 1 -8.437 5.161 -6.975 
160 1 -5.190 -2.674 7.765 
161 1 -5.068 -8.517 -9.682 
162 1 3.675 -5.386 3.886 
163 1 -0.243 -4.389 -4.077 
164 1 4.396 7.253 7.101 
165 1 -3.040 7.294 -4.173 
166 1 -3.325 -4.382 -8.932 
167 1 -2.082 2.726 2.238 
168 1 -1.254 5.421 1.415 
169 1 -3.576 -1.408 1.551 
170 1 -6.906 6.451 1.944 
171 1 2.044 0.252 -1.232 
172 1 2.293 7.235 5.016 
173 1 -2.700 4.903 -1.097 
174 1 -9.673 -2.803 -9.042 
175 1 7.020 -2.598 7.993 
176 1 2.189 1.412 8.622 
177 1 7.200 9.061 -6.635 
178 1 1.239 1.172 2.739 
179 1 -4.638 -8.249 4.766 
180 1 -2.086 -2.861 -1.618 
181 1 7.413 -7.522 6.097 
182 1 -4.823 -3.786 2.682 
183 1 4.583 0.801 2.912 
184 1 -1.092 6.398 -6.363 
185 1 9.091 0.289 -0.787 
186 1 -1.257 9.348 -5.034 
187 1 -2.857 -9.232 8.333 
188 1 5.514 3.739 3.710 
189 1 7.966 6.053 6.519 
190 1 2.696 -8.128 3.661 
191 1 -2.372 -9.604 2.502 
192 1 -4.060 -1.800 -6.519 
193 1 -6.143 -8.079 -6.375 
194 1 3.289 7.304 -3.119 
195 1 -9.226 1.259 5.753 
196 1 -3.058 7.316 8.465 
197 1 -3.415 1.728 8.382 
198 1 -0.800 0.607 9.604 
199 1 6.376 -0.313 0.536 
200 1 4.114 -8.674 -4.252 
ITEM: TIMESTEP
40
ITEM: NUMBER OF ATOMS
200
ITEM: BOX BOUNDS pp pp pp
-9.855748163310864 9.855748163310864
-9.855748163310864 9.855748163310864
-9.855748163310864 9.855748163310864
ITEM: ATOMS id type x y z
1 1 3.567 4.244 1.690 
2 1 3.014 7.328 -0.034 
3 1 1.960 2.433 -6.892 
4 1 -1.893 5.110 6.779 
5 1 -7.057 -1.893 1.555 
6 1 2.548 -9.745 7.381 
7 1 2.778 -2.333 2.436 
8 1 1.406 6.836 8.051 
9 1 3.843 8.914 2.704 
10 1 -6.160 5.157 -0.927 
11 1 0.308 -6.095 4.205 
12 1 8.450 8.956 4.179 
13 1 -6.847 -4.715 -0.787 
14 1 9.675 -6.001 4.857 
15 1 6.008 0.882 8.769 
16 1 1.008 -9.748 -7.335 
17 1 -2.338 -8.225 -0.492 
18 1 0.450 -7.945 -3.317 
19 1 -4.254 0.943 3.334 
20 1 -1.169 0.173 -2.910 
21 1 0.338 -2.020 -9.328 
22 1 -0.839 -6.199 -6.975 
23 1 5.761 5.823 -6.026 
24 1 8.667 6.859 -5.030 
25 1 -6.994 7.296 8.044 
26 1 4.131 -9.539 -8.431 
27 1 -9.549 2.227 2.238 
28 1 -8.000 7.838 -5.199 
29 1 -0.952 4.067 -4.753 
30 1 -6.380 -2.552 4.939 
31 1 -5.812 0.899 0.351 
32 1 1.130 6.847 2.388 
33 1 -0.692 0.376 -6.306 
34 1 -9.087 5.064 7.770 
35 1 -1.344 -7.259 6.654 
36 1 -8.478 2.216 8.680 
37 1 3.283 -4.534 8.149 
38 1 -2.112 -6.675 2.345 
39 1 -6.492 2.413 6.118 
40 1 -0.340 3.641 -8.574 
41 1 -0.760 -5.571 -1.386 
42 1 -9.472 -9.401 -6.760 
43 1 9.849 -2.626 0.234 
44 1 3.201 -0.439 -6.874 
45 1 2.721 9.814 -1.969 
46 1 -5.886 -9.715 6.905 
47 1 -7.085 -6.659 4.725 
48 1 3.363 -8.385 0.640 
49 1 4.240 -0.072 6.242 
50 1 2.536 6.021 -6.871 
51 1 -2.901 6.386 3.511 
52 1 2.518 4.150 7.255 
53 1 5.538 -7.309 -6.482 
54 1 7.099 8.325 0.267 
55 1 2.872 -3.350 -8.499 
56 1 -6.340 0.043 8.783 
57 1 5.602 6.813 4.215 
58 1 9.181 -0.813 -5.555 
59 1 2.897 -6.664 -8.588 
60 1 -1.018 1.114 -0.003 
61 1 9.288 6.551 2.155 
62 1 -7.335 -3.506 -6.921 
63 1 4.891 -9.044 5.430 
64 1 -5.288 -6.948 1.525 
65 1 -5.019 4.549 7.885 
66 1 -7.091 9.204 -2.511 
67 1 7.733 1.735 4.541 
68 1 8.204 1.827 -3.425 
69 1 0.373 -5.153 -9.728 
70 1 -4.522 7.101 6.144 
71 1 8.478 -0.457 2.381 
72 1 6.231 -8.541 1.721 
73 1 -6.053 -9.829 0.499 
74 1 -6.484 0.721 -7.773 
75 1 0.863 -6.613 1.007 
76 1 7.010 9.477 -9.740 
77 1 -2.664 -4.299 0.802 
78 1 2.106 -6.096 -5.565 
79 1 4.777 -7.457 8.560 
80 1 -9.445 -1.987 4.527 
81 1 -1.833 -3.164 -7.302 
82 1 -5.299 8.664 3.428 
83 1 -4.262 -8.923 -2.957 
84 1 -4.549 -0.144 6.275 
85 1 -9.485 7.772 -8.880 
86 1 -2.639 -6.713 -4.474 
87 1 -4.116 6.110 -6.776 
88 1 1.058 2.275 -3.175 
89 1 -2.300 -2.141 -4.445 
90 1 3.343 4.050 -1.940 
91 1 9.055 -7.135 1.613 
92 1 0.401 -9.531 4.622 
93 1 -5.063 2.918 -5.768 
94 1 8.308 3.744 -5.974 
95 1 0.455 9.757 1.219 
96 1 -6.913 2.852 -2.822 
97 1 -4.042 3.764 4.733 
98 1 -8.425 1.554 -5.177 
99 1 -4.442 7.743 -2.010 
100 1 2.901 -1.387 -3.657 
101 1 -0.433 7.296 5.149 
102 1 -8.100 -5.077 2.121 
103 1 9.505 -4.416 -5.719 
104 1 -6.311 7.291 -8.598 
105 1 -4.719 -6.474 7.612 
106 1 5.311 -4.414 -7.113 
107 1 -0.227 -1.930 1.145 
108 1 4.861 7.113 -8.900 
109 1 -4.219 4.540 1.416 
110 1 -0.245 2.857 7.988 
111 1 0.204 -3.697 7.229 
112 1 6.946 8.965 6.924 
113 1 -9.354 2.322 -8.126 
114 1 5.803 3.625 6.913 
115 1 -6.369 -5.868 -8.882 
116 1 1.247 -3.015 -1.417 
117 1 5.884 -2.411 3.240 
118 1 -5.308 -1.906 -1.562 
119 1 8.269 -7.034 -7.883 
120 1 -2.860 -2.387 4.948 
121 1 4.390 3.088 -9.032 
122 1 -5.792 5.780 -4.057 
123 1 -3.381 7.761 1.085 
124 1 3.035 2.545 4.730 
125 1 1.003 -2.457 -6.008 
126 1 -7.871 -4.618 7.106 
127 1 -1.965 1.826 5.656 
128 1 9.273 8.546 -2.300 
129 1 -0.231 7.683 -9.271 
130 1 7.725 -2.732 -7.879 
131 1 -1.237 -0.244 3.488 
132 1 -8.175 8.161 4.843 
133 1 6.286 -0.046 -6.912 
134 1 9.620 -9.260 8.236 
135 1 8.479 -4.033 2.766 
136 1 -0.802 -0.660 7.013 
137 1 0.939 3.507 0.436 
138 1 -0.775 8.819 -1.801 
139 1 -3.439 -8.118 -7.311 
140 1 -0.431 9.330 7.760 
141 1 -4.364 0.551 -3.524 
142 1 -7.243 0.274 3.845 
143 1 -4.003 -5.347 -2.010 
144 1 -2.638 9.483 5.574 
145 1 -6.778 5.352 4.788 
146 1 -5.267 -3.692 -4.488 
147 1 -8.349 -2.977 -3.372 
148 1 0.356 4.230 4.196 
149 1 -5.400 -2.274 -9.078 
150 1 -3.263 -5.361 4.956 
151 1 4.683 1.782 -0.169 
152 1 -6.642 3.104 2.603 
153 1 1.585 -1.502 5.229 
154 1 -0.907 -7.984 -9.582 
155 1 -3.166 4.608 -9.317 
156 1 0.345 5.636 -1.983 
157 1 7.793 5.725 -9.546 
158 1 -2.534 -2.150 9.084 
159 1 -8.353 5.106 -6.863 
160 1 -5.099 -3.124 7.665 
161 1 -5.752 -8.945 -9.504 
162 1 3.909 -5.034 4.036 
163 1 -0.321 -4.533 -4.197 
164 1 4.597 6.950 7.533 
165 1 -2.655 7.011 -4.121 
166 1 -3.331 -4.989 -9.300 
167 1 -1.840 2.772 2.446 
168 1 -1.301 5.602 0.991 
169 1 -3.563 -1.305 1.313 
170 1 -7.111 6.577 1.726 
171 1 2.018 0.144 -0.890 
172 1 2.564 7.185 5.115 
173 1 -2.836 4.560 -1.640 
174 1 -9.302 -2.733 -9.488 
175 1 7.015 -2.603 7.992 
176 1 2.324 1.128 8.769 
177 1 7.000 9.221 -6.554 
178 1 1.419 1.035 2.486 
179 1 -4.486 -8.161 4.453 
180 1 -2.062 -2.472 -1.529 
181 1 7.356 -7.401 6.294 
182 1 -5.030 -4.021 2.679 
183 1 4.757 0.591 2.909 
184 1 -0.771 6.566 -6.593 
185 1 9.327 0.412 -0.809 
186 1 -1.341 9.742 -5.125 
187 1 -3.199 -9.173 8.496 
188 1 5.863 3.828 3.610 
189 1 7.990 6.007 6.414 
190 1 2.773 -7.895 3.567 
191 1 -2.400 -9.755 2.543 
192 1 -4.361 -1.114 -6.439 
193 1 -6.475 -8.128 -6.118 
194 1 3.335 7.035 -3.402 
195 1 -9.396 1.111 5.953 
196 1 -3.029 7.403 8.877 
197 1 -3.528 1.787 8.669 
198 1 -0.969 0.667 -9.625 
199 1 6.272 -0.941 0.132 
200 1 3.990 -8.953 -4.387 
ITEM: TIMESTEP
50
ITEM: NUMBER OF ATOMS
200
ITEM: BOX BOUNDS pp pp pp
-9.855748163310864 9.855748163310864
-9.855748163310864 9.855748163310864
-9.855748163310864 9.855748163310864
ITEM: ATOMS id type x y z
1 1 3.522 4.443 1.764 
2 1 3.354 7.058 -0.255 
3 1 2.178 2.613 -6.502 
4 1 -2.105 5.131 7.062 
5 1 -7.142 -1.871 1.246 
6 1 2.810 -9.754 7.621 
7 1 3.023 -2.447 1.947 
8 1 1.453 6.745 8.248 
9 1 3.802 8.987 2.374 
10 1 -6.562 5.299 -0.938 
11 1 0.633 -5.488 4.401 
12 1 8.399 9.383 3.805 
13 1 -7.217 -4.888 -0.930 
14 1 9.546 -5.829 4.871 
15 1 6.308 0.706 9.091 
16 1 1.196 -9.594 -6.939 
17 1 -2.516 -8.393 -0.316 
18 1 0.447 -7.895 -3.443 
19 1 -4.359 1.028 3.214 
20 1 -1.122 0.536 -3.098 
21 1 0.637 -1.778 -9.586 
22 1 -0.511 -6.284 -6.900 
23 1 5.618 5.752 -5.819 
24 1 8.820 6.760 -4.952 
25 1 -7.276 7.639 8.195 
26 1 4.077 -9.715 -8.494 
27 1 9.636 2.559 2.120 
28 1 -7.772 8.017 -5.447 
29 1 -1.289 3.631 -4.866 
30 1 -6.691 -2.441 5.103 
31 1 -5.826 1.123 0.105 
32 1 1.187 6.876 2.384 
33 1 -0.711 0.466 -6.278 
34 1 -9.146 5.084 7.842 
35 1 -1.105 -7.143 6.971 
36 1 -8.384 2.253 8.947 
37 1 3.385 -4.454 7.806 
38 1 -1.750 -6.888 2.680 
39 1 -6.662 2.263 6.129 
40 1 -0.014 4.023 -8.476 
41 1 -0.799 -5.759 -1.358 
42 1 -9.612 -9.224 -6.734 
43 1 9.689 -2.869 -0.258 
44 1 3.331 -0.350 -7.223 
45 1 2.287 9.623 -1.927 
46 1 -6.205 -9.434 6.715 
47 1 -7.072 -6.593 4.889 
48 1 3.754 -7.974 0.086 
49 1 4.580 -0.268 6.267 
50 1 2.479 5.955 -6.888 
51 1 -2.690 6.441 3.451 
52 1 2.902 3.989 7.604 
53 1 5.787 -7.387 -6.573 
54 1 6.830 8.207 0.326 
55 1 3.281 -3.366 -8.718 
56 1 -6.620 -0.421 8.633 
57 1 5.935 7.151 4.016 
58 1 9.187 -1.094 -5.429 
59 1 2.826 -6.683 -8.632 
60 1 -1.360 0.887 0.013 
61 1 9.100 6.246 2.206 
62 1 -7.719 -3.325 -6.689 
63 1 5.030 -9.219 5.216 
64 1 -5.283 -6.903 1.182 
65 1 -5.553 4.598 8.225 
66 1 -7.593 9.737 -2.602 
67 1 7.407 1.292 4.849 
68 1 7.919 1.775 -3.369 
69 1 0.252 -5.054 9.851 
70 1 -4.749 7.012 6.188 
71 1 8.527 -0.620 2.264 
72 1 6.323 -8.435 2.080 
73 1 -6.357 9.802 0.444 
74 1 -6.745 0.955 -8.040 
75 1 1.069 -6.205 1.137 
76 1 7.242 9.664 -9.524 
77 1 -2.739 -4.382 0.981 
78 1 2.615 -6.014 -5.368 
79 1 4.972 -7.457 8.707 
80 1 9.811 -2.336 4.870 
81 1 -1.889 -3.166 -7.574 
82 1 -5.381 8.680 3.472 
83 1 -4.497 -8.811 -3.076 
84 1 -4.454 -0.219 6.273 
85 1 -9.609 7.817 -8.951 
86 1 -2.768 -6.557 -4.642 
87 1 -3.899 6.262 -6.639 
88 1 1.585 2.356 -3.315 
89 1 -2.345 -2.213 -4.548 
90 1 3.805 4.327 -2.019 
91 1 9.383 -7.379 1.368 
92 1 0.449 -9.296 4.672 
93 1 -4.857 2.900 -5.953 
94 1 8.101 3.718 -6.037 
95 1 0.782 -9.755 1.018 
96 1 -6.984 2.604 -2.585 
97 1 -4.347 4.010 4.774 
98 1 -8.463 1.508 -5.158 
99 1 -4.976 7.886 -2.397 
100 1 3.291 -1.235 -3.745 
101 1 -0.279 7.297 5.391 
102 1 -8.239 -4.940 2.233 
103 1 9.168 -4.730 -5.530 
104 1 -6.275 7.370 -8.449 
105 1 -5.185 -6.570 7.737 
106 1 5.464 -4.144 -6.396 
107 1 -0.103 -2.272 1.294 
108 1 4.869 6.882 -8.881 
109 1 -4.222 4.369 1.214 
110 1 -0.044 2.883 8.132 
111 1 -0.108 -3.690 7.000 
112 1 7.294 8.978 6.999 
113 1 9.721 1.919 -8.077 
114 1 6.027 3.442 7.039 
115 1 -6.708 -5.811 -8.934 
116 1 1.649 -3.315 -1.497 
117 1 5.939 -2.305 3.756 
118 1 -5.398 -1.995 -1.658 
119 1 8.526 -6.735 -8.411 
120 1 -2.672 -2.430 4.886 
121 1 4.512 3.309 -9.004 
122 1 -6.032 5.477 -4.197 
123 1 -3.728 7.622 0.868 
124 1 3.270 2.531 4.765 
125 1 1.060 -2.429 -6.147 
126 1 -8.195 -4.659 7.425 
127 1 -1.964 2.049 5.685 
128 1 9.053 8.624 -2.174 
129 1 -0.324 7.972 -9.102 
130 1 7.780 -2.605 -8.242 
131 1 -1.082 -0.148 3.471 
132 1 -8.445 8.483 4.993 
133 1 6.528 0.435 -6.923 
134 1 -9.637 -9.127 8.230 
135 1 8.166 -4.224 2.369 
136 1 -0.523 -0.435 7.157 
137 1 0.986 3.297 0.018 
138 1 -0.934 8.792 -1.739 
139 1 -3.490 -8.319 -7.512 
140 1 -0.323 9.442 7.834 
141 1 -4.367 0.673 -3.380 
142 1 -7.654 0.284 3.617 
143 1 -4.159 -5.526 -1.882 
144 1 -2.795 9.494 5.748 
145 1 -7.394 5.378 4.979 
146 1 -5.251 -3.914 -4.573 
147 1 -8.429 -2.766 -3.318 
148 1 0.505 4.248 4.509 
149 1 -5.423 -2.634 -8.922 
150 1 -3.261 -5.379 5.336 
151 1 5.033 1.870 -0.291 
152 1 -6.940 3.280 2.497 
153 1 1.749 -1.606 5.002 
154 1 -0.577 -8.223 -9.464 
155 1 -3.195 4.338 -9.148 
156 1 0.508 5.704 -2.356 
157 1 7.788 5.380 -9.634 
158 1 -2.576 -2.006 9.116 
159 1 -8.259 4.900 -6.930 
160 1 -5.003 -3.370 7.608 
161 1 -6.404 -9.132 -9.376 
162 1 4.043 -4.871 4.399 
163 1 -0.125 -4.546 -4.159 
164 1 4.935 6.757 7.628 
165 1 -2.412 6.759 -3.799 
166 1 -3.236 -5.491 -9.527 
167 1 -1.638 2.957 2.473 
168 1 -1.210 5.745 0.562 
169 1 -3.649 -1.255 1.235 
170 1 -7.341 6.698 1.822 
171 1 2.043 0.025 -0.818 
172 1 2.872 7.160 5.155 
173 1 -3.016 4.141 -1.878 
174 1 -8.998 -2.592 -9.810 
175 1 7.023 -2.658 7.928 
176 1 2.519 0.788 8.966 
177 1 6.839 9.129 -6.228 
178 1 1.660 0.986 2.333 
179 1 -4.431 -8.171 4.155 
180 1 -1.866 -2.235 -1.582 
181 1 7.384 -7.314 6.618 
182 1 -4.995 -4.137 2.755 
183 1 4.947 0.600 2.707 
184 1 -0.593 6.556 -6.298 
185 1 9.629 0.526 -0.783 
186 1 -1.619 9.776 -5.172 
187 1 -3.420 -9.058 8.820 
188 1 6.290 3.952 3.399 
189 1 8.064 5.884 6.080 
190 1 2.900 -7.716 3.357 
191 1 -2.120 9.463 2.550 
192 1 -4.383 -0.697 -6.472 
193 1 -6.499 -8.008 -5.864 
194 1 3.390 7.127 -3.792 
195 1 -9.541 0.681 6.335 
196 1 -3.312 7.415 9.202 
197 1 -3.790 1.762 8.681 
198 1 -1.222 0.884 -9.351 
199 1 6.165 -1.374 -0.157 
200 1 3.934 -9.230 -4.562 
ITEM: TIMESTEP
60
ITEM: NUMBER OF ATOMS
200
ITEM: BOX BOUNDS pp pp pp
-9.855748163310864 9.855748163310864
-9.855748163310864 9.855748163310864
-9.855748163310864 9.855748163310864
ITEM: ATOMS id type x y z
1 1 3.488 4.365 1.904 
2 1 3.393 6.928 -0.334 
3 1 2.310 2.658 -6.516 
4 1 -2.204 5.193 7.262 
5 1 -7.237 -1.859 1.085 
6 1 2.976 -9.845 7.792 
7 1 3.464 -2.598 1.753 
8 1 1.519 6.671 8.485 
9 1 3.774 9.078 2.207 
10 1 -6.812 5.351 -0.935 
11 1 0.804 -5.258 4.438 
12 1 8.412 9.635 3.589 
13 1 -7.526 -5.111 -1.167 
14 1 9.353 -5.852 4.682 
15 1 6.507 0.546 9.306 
16 1 1.217 -9.676 -6.590 
17 1 -2.789 -8.478 -0.165 
18 1 0.437 -7.951 -3.731 
19 1 -4.460 1.179 3.188 
20 1 -1.020 0.548 -3.018 
21 1 0.747 -1.689 -9.590 
22 1 -0.247 -6.254 -6.770 
23 1 5.675 5.635 -5.662 
24 1 9.049 6.691 -4.926 
25 1 -7.485 7.850 8.246 
26 1 4.000 -9.800 -8.480 
27 1 9.299 2.659 2.025 
28 1 -7.588 8.183 -5.466 
29 1 -1.351 3.502 -5.001 
30 1 -7.016 -2.328 5.188 
31 1 -5.693 1.101 0.055 
32 1 1.042 6.923 2.302 
33 1 -0.499 0.368 -6.264 
34 1 -9.326 5.187 8.113 
35 1 -0.783 -7.055 7.167 
36 1 -8.227 2.358 9.077 
37 1 3.237 -4.390 7.691 
38 1 -1.425 -7.063 2.783 
39 1 -6.748 2.109 6.091 
40 1 0.110 4.240 -8.524 
41 1 -0.843 -6.033 -1.341 
42 1 -9.779 -9.064 -6.708 
43 1 9.473 -2.949 -0.478 
44 1 3.443 -0.313 -7.515 
45 1 2.274 9.652 -1.893 
46 1 -6.109 -9.447 6.505 
47 1 -7.127 -6.521 4.883 
48 1 3.927 -7.629 -0.296 
49 1 4.591 -0.387 6.482 
50 1 2.581 6.049 -7.077 
51 1 -2.615 6.311 3.375 
52 1 3.194 3.966 7.789 
53 1 5.966 -7.248 -6.755 
54 1 6.656 8.230 0.446 
55 1 3.685 -3.450 -8.797 
56 1 -6.716 -0.633 8.473 
57 1 5.985 7.209 3.819 
58 1 8.988 -1.225 -5.394 
59 1 2.723 -6.735 -8.442 
60 1 -1.507 0.839 0.184 
61 1 8.896 6.174 2.235 
62 1 -8.014 -3.142 -6.686 
63 1 5.121 -9.340 5.227 
64 1 -5.507 -6.750 0.973 
65 1 -5.804 4.685 8.491 
66 1 -7.944 -9.349 -2.760 
67 1 7.449 1.034 4.913 
68 1 7.670 1.648 -3.276 
69 1 0.275 -4.988 9.854 
70 1 -4.866 7.023 6.292 
71 1 8.588 -0.730 2.096 
72 1 6.292 -7.993 2.099 
73 1 -6.705 9.848 0.438 
74 1 -6.766 0.907 -8.086 
75 1 1.348 -5.700 1.089 
76 1 7.328 -9.818 -9.454 
77 1 -2.597 -4.570 1.106 
78 1 2.893 -5.870 -5.128 
79 1 5.021 -7.280 8.936 
80 1 9.398 -2.472 4.996 
81 1 -1.867 -3.215 -7.649 
82 1 -5.374 8.573 3.457 
83 1 -4.523 -8.632 -3.076 
84 1 -4.323 -0.366 6.148 
85 1 -9.734 7.740 -8.797 
86 1 -2.847 -6.346 -4.805 
87 1 -3.740 6.497 -6.537 
88 1 1.783 2.301 -3.307 
89 1 -2.399 -2.244 -4.424 
90 1 4.239 4.391 -2.346 
91 1 9.633 -7.655 1.137 
92 1 0.551 -9.203 4.709 
93 1 -4.663 2.886 -6.134 
94 1 8.233 3.592 -6.081 
95 1 0.817 -9.347 1.040 
96 1 -7.278 2.488 -2.494 
97 1 -4.590 4.119 4.704 
98 1 -8.596 1.483 -5.298 
99 1 -5.446 7.993 -2.522 
100 1 3.529 -1.174 -3.866 
101 1 -0.318 7.276 5.416 
102 1 -8.411 -4.807 2.176 
103 1 8.975 -4.950 -5.401 
104 1 -6.322 7.178 -8.450 
105 1 -5.565 -6.614 7.956 
106 1 5.536 -3.815 -5.870 
107 1 0.103 -2.402 1.532 
108 1 5.165 6.880 -8.882 
109 1 -4.294 4.303 1.125 
110 1 0.101 2.963 8.087 
111 1 -0.334 -3.559 6.998 
112 1 7.706 8.892 6.994 
113 1 9.383 1.358 -8.324 
114 1 6.398 3.339 7.193 
115 1 -6.998 -5.788 -8.772 
116 1 1.947 -3.484 -1.466 
117 1 6.171 -2.229 4.127 
118 1 -5.305 -2.126 -1.744 
119 1 8.684 -6.459 -8.829 
120 1 -2.522 -2.688 4.594 
121 1 4.722 3.315 -8.883 
122 1 -6.182 5.237 -4.314 
123 1 -4.007 7.683 0.444 
124 1 3.611 2.478 4.869 
125 1 1.302 -2.538 -6.296 
126 1 -8.447 -4.746 7.536 
127 1 -2.139 2.190 5.748 
128 1 8.879 8.666 -2.093 
129 1 -0.455 7.996 -8.844 
130 1 7.551 -2.590 -8.354 
131 1 -1.038 0.085 3.485 
132 1 -8.581 8.553 5.034 
133 1 6.484 0.652 -6.746 
134 1 -9.409 -8.894 8.263 
135 1 7.709 -4.472 2.036 
136 1 -0.239 -0.239 7.057 
137 1 1.010 3.293 -0.146 
138 1 -0.967 8.812 -1.620 
139 1 -3.597 -8.406 -7.508 
140 1 -0.313 9.417 7.923 
141 1 -4.415 0.730 -3.343 
142 1 -8.088 0.350 3.489 
143 1 -4.161 -5.380 -1.843 
144 1 -2.832 9.599 5.757 
145 1 -7.765 5.307 5.095 
146 1 -5.365 -4.023 -4.800 
147 1 -8.372 -2.571 -3.324 
148 1 0.728 4.197 4.796 
149 1 -5.351 -2.763 -8.811 
150 1 -3.260 -5.594 5.580 
151 1 5.278 1.825 -0.504 
152 1 -7.177 3.373 2.360 
153 1 1.869 -1.762 4.781 
154 1 -0.432 -8.294 -9.319 
155 1 -3.192 4.217 -8.989 
156 1 0.677 5.668 -2.642 
157 1 7.808 4.998 -9.548 
158 1 -2.568 -1.816 9.053 
159 1 -8.307 4.676 -7.116 
160 1 -4.978 -3.447 7.536 
161 1 -6.641 -9.174 -9.316 
162 1 4.275 -4.863 4.502 
163 1 -0.051 -4.409 -4.019 
164 1 5.216 6.704 7.525 
165 1 -2.607 6.521 -3.392 
166 1 -3.164 -5.599 -9.609 
167 1 -1.446 3.216 2.490 
168 1 -1.261 5.801 0.157 
169 1 -3.726 -1.454 1.343 
170 1 -7.611 6.782 1.885 
171 1 2.063 -0.106 -0.828 
172 1 2.941 7.158 5.151 
173 1 -3.133 3.571 -1.936 
174 1 -9.130 -2.430 -9.808 
175 1 7.049 -2.778 7.793 
176 1 2.705 0.824 9.038 
177 1 6.767 9.021 -6.105 
178 1 1.778 1.086 2.341 
179 1 -4.450 -8.097 3.761 
180 1 -1.684 -2.388 -1.372 
181 1 7.470 -7.353 6.812 
182 1 -5.188 -4.109 3.082 
183 1 5.096 0.504 2.531 
184 1 -0.395 6.641 -5.843 
185 1 -9.740 0.579 -0.844 
186 1 -1.929 9.631 -5.074 
187 1 -3.421 -8.983 8.881 
188 1 6.452 3.876 3.344 
189 1 8.307 5.768 5.683 
190 1 3.026 -7.599 3.221 
191 1 -1.977 9.365 2.539 
192 1 -4.290 -0.419 -6.687 
193 1 -6.587 -7.826 -5.796 
194 1 3.335 7.290 -3.969 
195 1 -9.622 0.348 6.770 
196 1 -3.473 7.439 9.429 
197 1 -4.162 1.706 8.723 
198 1 -1.351 1.046 -9.314 
199 1 6.127 -1.602 -0.329 
200 1 4.049 -9.127 -4.615 
ITEM: TIMESTEP
70
ITEM: NUMBER OF ATOMS
200
ITEM: BOX BOUNDS pp pp pp
-9.855748163310864 9.855748163310864
-9.855748163310864 9.855748163310864
-9.855748163310864 9.855748163310864
ITEM: ATOMS id type x y z
1 1 3.389 4.373 2.047 
2 1 3.367 6.761 -0.423 
3 1 2.327 2.764 -6.548 
4 1 -2.282 5.253 7.470 
5 1 -7.337 -1.761 0.985 
6 1 3.053 9.848 7.876 
7 1 3.661 -2.761 1.718 
8 1 1.572 6.625 8.661 
9 1 3.696 9.091 2.100 
10 1 -6.945 5.386 -0.943 
11 1 0.992 -5.101 4.534 
12 1 8.394 9.711 3.437 
13 1 -7.780 -5.272 -1.595 
14 1 9.133 -6.084 4.422 
15 1 6.492 0.389 9.393 
16 1 1.243 9.855 -6.417 
17 1 -3.078 -8.476 -0.000 
18 1 0.419 -7.970 -3.744 
19 1 -4.524 1.234 3.175 
20 1 -1.001 0.513 -3.020 
21 1 0.778 -1.628 -9.585 
22 1 -0.143 -6.101 -6.584 
23 1 5.714 5.484 -5.722 
24 1 9.211 6.620 -4.948 
25 1 -7.577 8.057 8.301 
26 1 3.997 9.835 -8.409 
27 1 9.117 2.581 1.755 
28 1 -7.555 8.446 -5.544 
29 1 -1.309 3.433 -5.103 
30 1 -7.067 -2.231 5.252 
31 1 -5.566 1.112 -0.077 
32 1 0.936 6.969 2.241 
33 1 -0.218 0.155 -6.271 
34 1 -9.447 5.344 8.247 
35 1 -0.453 -7.055 7.217 
36 1 -8.250 2.415 9.174 
37 1 3.043 -4.274 7.602 
38 1 -1.201 -7.094 2.993 
39 1 -6.786 1.930 6.105 
40 1 0.064 4.393 -8.476 
41 1 -0.824 -6.264 -1.188 
42 1 9.816 -8.874 -6.723 
43 1 9.342 -3.084 -0.677 
44 1 3.404 -0.347 -7.561 
45 1 2.394 9.677 -1.855 
46 1 -6.056 -9.371 6.336 
47 1 -7.201 -6.477 4.867 
48 1 4.031 -7.316 -0.534 
49 1 4.598 -0.575 6.661 
50 1 2.656 6.267 -7.348 
51 1 -2.625 6.362 3.282 
52 1 3.451 4.042 7.837 
53 1 6.120 -7.099 -6.887 
54 1 6.576 8.367 0.382 
55 1 3.981 -3.534 -8.863 
56 1 -6.675 -0.733 8.455 
57 1 5.969 7.218 3.773 
58 1 8.693 -1.371 -5.268 
59 1 2.791 -6.753 -8.156 
60 1 -1.589 0.812 0.259 
61 1 8.742 6.113 1.975 
62 1 -8.246 -2.918 -6.733 
63 1 5.217 -9.362 5.233 
64 1 -5.859 -6.597 0.797 
65 1 -5.894 4.768 8.526 
66 1 -8.166 -8.865 -2.795 
67 1 7.554 0.939 4.886 
68 1 7.611 1.561 -3.228 
69 1 0.395 -4.965 -9.801 
70 1 -4.884 7.146 6.349 
71 1 8.524 -0.907 1.959 
72 1 6.303 -7.755 2.064 
73 1 -6.928 -9.838 0.404 
74 1 -6.805 0.658 -8.047 
75 1 1.460 -5.497 1.113 
76 1 7.367 -9.605 -9.506 
77 1 -2.605 -4.702 1.206 
78 1 2.998 -5.722 -4.814 
79 1 4.963 -7.055 9.058 
80 1 9.359 -2.624 4.994 
81 1 -1.820 -3.187 -7.563 
82 1 -5.301 8.550 3.385 
83 1 -4.598 -8.527 -3.037 
84 1 -4.097 -0.546 6.046 
85 1 9.819 7.681 -8.625 
86 1 -2.895 -6.255 -4.898 
87 1 -3.619 6.701 -6.502 
88 1 1.978 2.187 -3.301 
89 1 -2.701 -2.266 -4.373 
90 1 4.541 4.440 -2.643 
91 1 9.781 -7.785 0.917 
92 1 0.770 -9.350 4.793 
93 1 -4.692 2.918 -6.211 
94 1 8.378 3.462 -6.042 
95 1 0.848 -9.023 0.909 
96 1 -7.404 2.491 -2.539 
97 1 -4.826 4.127 4.768 
98 1 -8.721 1.299 -5.321 
99 1 -5.784 8.116 -2.635 
100 1 3.664 -1.045 -3.912 
101 1 -0.401 7.090 5.378 
102 1 -8.594 -4.711 2.052 
103 1 8.976 -5.130 -5.351 
104 1 -6.401 6.981 -8.408 
105 1 -5.914 -6.638 8.185 
106 1 5.610 -3.582 -5.554 
107 1 0.187 -2.372 1.702 
108 1 5.564 6.923 -8.929 
109 1 -4.340 4.251 1.048 
110 1 0.230 3.102 8.102 
111 1 -0.512 -3.493 7.089 
112 1 8.082 8.859 6.974 
113 1 9.297 0.931 -8.386 
114 1 6.728 3.269 7.323 
115 1 -7.345 -5.757 -8.605 
116 1 2.342 -3.552 -1.571 
117 1 6.154 -2.203 4.167 
118 1 -5.218 -2.132 -1.734 
119 1 8.801 -6.201 -9.093 
120 1 -2.322 -2.993 4.307 
121 1 4.842 3.267 -8.774 
122 1 -6.321 5.252 -4.421 
123 1 -4.101 7.733 0.266 
124 1 3.800 2.300 4.997 
125 1 1.522 -2.874 -6.358 
126 1 -8.778 -4.786 7.527 
127 1 -2.227 2.308 5.847 
128 1 8.904 8.686 -2.119 
129 1 -0.586 7.909 -8.661 
130 1 7.348 -2.578 -8.365 
131 1 -1.129 0.089 3.653 
132 1 -8.616 8.563 4.999 
133 1 6.331 0.776 -6.520 
134 1 -9.220 -8.566 8.275 
135 1 7.402 -4.476 1.837 
136 1 -0.076 -0.127 7.021 
137 1 1.011 3.231 -0.179 
138 1 -0.980 8.915 -1.616 
139 1 -3.645 -8.454 -7.499 
140 1 -0.344 9.389 8.115 
141 1 -4.568 0.652 -3.580 
142 1 -8.366 0.375 3.504 
143 1 -4.120 -5.299 -1.864 
144 1 -2.758 9.783 5.634 
145 1 -7.901 5.214 5.161 
146 1 -5.582 -4.095 -4.942 
147 1 -8.285 -2.219 -3.315 
148 1 0.929 4.130 4.870 
149 1 -5.369 -2.869 -8.720 
150 1 -3.292 -5.895 5.785 
151 1 5.275 1.853 -0.618 
152 1 -7.316 3.374 2.245 
153 1 1.986 -1.773 4.716 
154 1 -0.426 -8.347 -9.165 
155 1 -3.256 4.281 -8.972 
156 1 0.820 5.581 -2.633 
157 1 7.959 4.564 -9.257 
158 1 -2.638 -1.643 9.106 
159 1 -8.293 4.400 -7.329 
160 1 -4.952 -3.547 7.534 
161 1 -6.666 -9.237 -9.088 
162 1 4.609 -5.053 4.641 
163 1 -0.094 -4.329 -3.822 
164 1 5.444 6.759 7.411 
165 1 -2.797 6.422 -3.183 
166 1 -3.117 -5.582 -9.681 
167 1 -1.298 3.267 2.498 
168 1 -1.335 5.786 0.010 
169 1 -3.779 -1.541 1.406 
170 1 -7.746 6.826 1.943 
171 1 2.058 -0.198 -0.760 
172 1 2.924 7.194 5.178 
173 1 -3.071 3.276 -1.940 
174 1 -9.353 -2.283 9.808 
175 1 7.060 -2.979 7.766 
176 1 2.753 0.947 9.076 
177 1 6.778 8.948 -6.094 
178 1 1.804 1.121 2.421 
179 1 -4.449 -7.997 3.446 
180 1 -1.505 -2.481 -1.236 
181 1 7.519 -7.336 6.999 
182 1 -5.305 -4.163 3.164 
183 1 5.171 0.471 2.400 
184 1 -0.227 6.700 -5.548 
185 1 -9.630 0.434 -0.902 
186 1 -2.088 9.587 -4.957 
187 1 -3.410 -8.841 8.803 
188 1 6.425 3.822 3.385 
189 1 8.433 5.698 5.480 
190 1 3.047 -7.565 3.189 
191 1 -1.820 9.245 2.461 
192 1 -3.777 -0.311 -6.971 
193 1 -6.639 -7.628 -5.745 
194 1 3.343 7.414 -4.164 
195 1 -9.771 0.125 7.101 
196 1 -3.586 7.598 9.543 
197 1 -4.297 1.684 8.750 
198 1 -1.360 1.222 -9.245 
199 1 6.065 -1.662 -0.622 
200 1 4.199 -8.939 -4.582 
ITEM: TIMESTEP
80
ITEM: NUMBER OF ATOMS
200
ITEM: BOX BOUNDS pp pp pp
-9.855748163310864 9.855748163310864
-9.855748163310864 9.855748163310864
-9.855748163310864 9.855748163310864
ITEM: ATOMS id type x y z
1 1 3.336 4.356 2.164 
2 1 3.433 6.650 -0.410 
3 1 2.337 2.862 -6.520 
4 1 -2.340 5.294 7.636 
5 1 -7.385 -1.692 0.993 
6 1 3.062 -9.836 7.901 
7 1 3.764 -2.850 1.711 
8 1 1.609 6.639 8.738 
9 1 3.611 9.124 2.056 
10 1 -7.024 5.438 -0.937 
11 1 1.141 -4.985 4.604 
12 1 8.434 9.685 3.349 
13 1 -7.853 -5.257 -1.989 
14 1 8.928 -6.309 4.210 
15 1 6.454 0.345 9.491 
16 1 1.306 9.788 -6.377 
17 1 -3.258 -8.428 0.051 
18 1 0.486 -8.014 -3.721 
19 1 -4.615 1.235 3.177 
20 1 -0.999 0.452 -3.051 
21 1 0.777 -1.620 -9.577 
22 1 -0.152 -6.127 -6.487 
23 1 5.755 5.425 -5.901 
24 1 9.344 6.589 -4.975 
25 1 -7.570 8.157 8.332 
26 1 4.067 9.766 -8.406 
27 1 8.974 2.507 1.523 
28 1 -7.579 8.677 -5.650 
29 1 -1.306 3.362 -5.182 
30 1 -7.068 -2.137 5.286 
31 1 -5.500 1.104 -0.172 
32 1 0.905 6.943 2.248 
33 1 -0.009 0.034 -6.281 
34 1 -9.534 5.444 8.286 
35 1 -0.214 -7.069 7.204 
36 1 -8.308 2.388 9.237 
37 1 2.982 -4.102 7.521 
38 1 -1.102 -7.088 3.221 
39 1 -6.809 1.816 6.127 
40 1 0.014 4.489 -8.414 
41 1 -0.834 -6.373 -1.167 
42 1 9.746 -8.672 -6.782 
43 1 9.254 -3.182 -0.889 
44 1 3.389 -0.369 -7.554 
45 1 2.530 9.639 -1.817 
46 1 -5.992 -9.264 6.277 
47 1 -7.345 -6.458 4.856 
48 1 4.058 -7.107 -0.703 
49 1 4.590 -0.779 6.863 
50 1 2.729 6.422 -7.563 
51 1 -2.648 6.417 3.241 
52 1 3.614 4.127 7.798 
53 1 6.239 -7.028 -6.915 
54 1 6.522 8.526 0.286 
55 1 4.074 -3.595 -8.930 
56 1 -6.633 -0.795 8.495 
57 1 5.930 7.220 3.661 
58 1 8.473 -1.487 -5.045 
59 1 2.916 -6.808 -7.905 
60 1 -1.606 0.767 0.286 
61 1 8.632 6.056 1.728 
62 1 -8.393 -2.682 -6.735 
63 1 5.297 -9.343 5.240 
64 1 -6.117 -6.497 0.665 
65 1 -5.962 4.790 8.447 
66 1 -8.287 -8.676 -2.798 
67 1 7.622 0.891 4.823 
68 1 7.581 1.462 -3.104 
69 1 0.552 -4.999 -9.751 
70 1 -4.842 7.237 6.326 
71 1 8.459 -1.039 1.840 
72 1 6.288 -7.756 1.979 
73 1 -6.997 -9.852 0.374 
74 1 -6.777 0.492 -8.014 
75 1 1.446 -5.400 1.103 
76 1 7.403 -9.453 -9.550 
77 1 -2.636 -4.839 1.224 
78 1 3.053 -5.693 -4.525 
79 1 4.848 -6.887 9.071 
80 1 9.349 -2.759 4.912 
81 1 -1.752 -3.206 -7.507 
82 1 -5.274 8.618 3.301 
83 1 -4.649 -8.489 -3.014 
84 1 -3.948 -0.629 6.014 
85 1 9.717 7.667 -8.536 
86 1 -2.964 -6.188 -4.992 
87 1 -3.608 6.809 -6.494 
88 1 2.076 2.121 -3.261 
89 1 -2.859 -2.302 -4.382 
90 1 4.682 4.479 -2.793 
91 1 9.780 -7.787 0.752 
92 1 0.921 -9.511 4.815 
93 1 -4.805 2.954 -6.239 
94 1 8.487 3.373 -5.814 
95 1 0.887 -8.821 0.799 
96 1 -7.450 2.555 -2.589 
97 1 -4.884 4.110 4.836 
98 1 -8.730 1.017 -5.260 
99 1 -5.967 8.194 -2.666 
100 1 3.723 -0.951 -3.928 
101 1 -0.483 7.056 5.469 
102 1 -8.759 -4.622 2.015 
103 1 9.066 -5.210 -5.329 
104 1 -6.494 6.840 -8.360 
105 1 -6.083 -6.612 8.335 
106 1 5.618 -3.563 -5.440 
107 1 0.225 -2.300 1.724 
108 1 5.883 6.923 -9.023 
109 1 -4.375 4.206 1.001 
110 1 0.322 3.240 8.114 
111 1 -0.647 -3.494 7.215 
112 1 8.303 8.910 7.001 
113 1 9.291 0.743 -8.299 
114 1 6.935 3.225 7.382 
115 1 -7.587 -5.681 -8.482 
116 1 2.642 -3.628 -1.661 
117 1 6.091 -2.221 4.222 
118 1 -5.192 -2.109 -1.686 
119 1 8.708 -5.992 -9.257 
120 1 -2.210 -3.225 4.247 
121 1 4.864 3.285 -8.762 
122 1 -6.479 5.363 -4.529 
123 1 -4.121 7.732 0.180 
124 1 3.888 2.098 5.105 
125 1 1.665 -3.068 -6.388 
126 1 -9.002 -4.835 7.471 
127 1 -2.195 2.376 5.910 
128 1 8.981 8.655 -2.139 
129 1 -0.693 7.926 -8.586 
130 1 7.344 -2.576 -8.291 
131 1 -1.252 0.001 3.733 
132 1 -8.542 8.573 4.982 
133 1 6.260 0.844 -6.411 
134 1 -9.122 -8.405 8.292 
135 1 7.223 -4.413 1.709 
136 1 -0.016 -0.078 7.055 
137 1 1.026 3.151 -0.148 
138 1 -0.978 8.962 -1.575 
139 1 -3.635 -8.486 -7.532 
140 1 -0.421 9.308 8.080 
141 1 -4.703 0.612 -3.731 
142 1 -8.592 0.399 3.544 
143 1 -4.095 -5.262 -1.876 
144 1 -2.649 -9.796 5.517 
145 1 -7.923 5.137 5.207 
146 1 -5.789 -4.119 -4.956 
147 1 -8.207 -1.951 -3.320 
148 1 1.059 4.083 4.870 
149 1 -5.360 -2.937 -8.592 
150 1 -3.296 -6.112 5.951 
151 1 5.114 1.896 -0.664 
152 1 -7.418 3.342 2.181 
153 1 2.063 -1.676 4.704 
154 1 -0.392 -8.362 -9.119 
155 1 -3.347 4.359 -8.936 
156 1 0.925 5.513 -2.605 
157 1 8.117 4.270 -9.095 
158 1 -2.706 -1.530 9.219 
159 1 -8.270 4.123 -7.404 
160 1 -4.900 -3.590 7.533 
161 1 -6.732 -9.261 -8.913 
162 1 4.982 -5.315 4.882 
163 1 -0.109 -4.259 -3.752 
164 1 5.587 6.860 7.307 
165 1 -2.900 6.425 -3.139 
166 1 -3.049 -5.524 -9.728 
167 1 -1.279 3.243 2.541 
168 1 -1.341 5.739 -0.023 
169 1 -3.793 -1.610 1.482 
170 1 -7.809 6.833 2.023 
171 1 2.044 -0.306 -0.702 
172 1 2.920 7.211 5.220 
173 1 -3.039 3.178 -1.996 
174 1 -9.414 -2.328 9.748 
175 1 7.088 -3.191 7.792 
176 1 2.764 1.035 9.110 
177 1 6.843 8.921 -6.094 
178 1 1.750 1.102 2.516 
179 1 -4.497 -7.839 3.291 
180 1 -1.538 -2.500 -1.174 
181 1 7.551 -7.239 7.107 
182 1 -5.368 -4.197 3.205 
183 1 5.174 0.441 2.329 
184 1 -0.166 6.688 -5.484 
185 1 -9.573 0.338 -0.965 
186 1 -2.104 9.609 -4.902 
187 1 -3.395 -8.706 8.706 
188 1 6.414 3.781 3.399 
189 1 8.440 5.741 5.370 
190 1 3.060 -7.486 3.190 
191 1 -1.740 9.187 2.383 
192 1 -3.552 -0.213 -7.085 
193 1 -6.638 -7.524 -5.709 
194 1 3.373 7.433 -4.294 
195 1 9.833 0.022 7.223 
196 1 -3.732 7.763 9.600 
197 1 -4.294 1.702 8.767 
198 1 -1.253 1.344 -9.219 
199 1 5.987 -1.643 -0.847 
200 1 4.309 -8.882 -4.582 
ITEM: TIMESTEP
90
ITEM: NUMBER OF ATOMS
200
ITEM: BOX BOUNDS pp pp pp
-9.855748163310864 9.855748163310864
-9.855748163310864 9.855748163310864
-9.855748163310864 9.855748163310864
ITEM: ATOMS id type x y z
1 1 3.353 4.300 2.210 
2 1 3.537 6.554 -0.369 
3 1 2.354 2.922 -6.503 
4 1 -2.377 5.346 7.752 
5 1 -7.381 -1.651 1.077 
6 1 3.047 -9.796 7.892 
7 1 3.786 -2.884 1.690 
8 1 1.629 6.669 8.735 
9 1 3.537 9.180 2.040 
10 1 -7.096 5.492 -0.924 
11 1 1.187 -4.860 4.600 
12 1 8.484 9.618 3.266 
13 1 -7.864 -5.216 -2.228 
14 1 8.775 -6.461 4.081 
15 1 6.456 0.369 9.592 
16 1 1.357 9.755 -6.402 
17 1 -3.353 -8.433 0.076 
18 1 0.597 -8.109 -3.657 
19 1 -4.707 1.207 3.176 
20 1 -0.997 0.382 -3.069 
21 1 0.808 -1.624 -9.579 
22 1 -0.106 -6.190 -6.438 
23 1 5.837 5.394 -6.024 
24 1 9.469 6.586 -5.002 
25 1 -7.532 8.183 8.354 
26 1 4.156 9.720 -8.433 
27 1 8.832 2.462 1.359 
28 1 -7.594 8.818 -5.723 
29 1 -1.327 3.295 -5.249 
30 1 -7.094 -2.055 5.296 
31 1 -5.491 1.100 -0.224 
32 1 0.921 6.873 2.247 
33 1 0.108 -0.033 -6.287 
34 1 -9.653 5.523 8.320 
35 1 -0.023 -7.079 7.168 
36 1 -8.377 2.369 9.203 
37 1 2.969 -4.010 7.467 
38 1 -1.047 -7.126 3.340 
39 1 -6.821 1.727 6.129 
40 1 -0.009 4.570 -8.389 
41 1 -0.889 -6.397 -1.230 
42 1 9.729 -8.525 -6.858 
43 1 9.164 -3.249 -1.055 
44 1 3.444 -0.384 -7.574 
45 1 2.676 9.575 -1.752 
46 1 -5.938 -9.158 6.288 
47 1 -7.496 -6.487 4.813 
48 1 4.057 -6.982 -0.824 
49 1 4.606 -0.929 7.060 
50 1 2.813 6.465 -7.668 
51 1 -2.780 6.336 3.187 
52 1 3.736 4.198 7.715 
53 1 6.356 -6.996 -6.880 
54 1 6.466 8.667 0.192 
55 1 4.164 -3.619 -8.986 
56 1 -6.613 -0.831 8.540 
57 1 5.880 7.208 3.516 
58 1 8.359 -1.552 -4.804 
59 1 3.018 -6.836 -7.723 
60 1 -1.631 0.752 0.292 
61 1 8.555 6.029 1.506 
62 1 -8.505 -2.498 -6.717 
63 1 5.367 -9.346 5.232 
64 1 -6.294 -6.437 0.581 
65 1 -6.011 4.806 8.391 
66 1 -8.372 -8.609 -2.826 
67 1 7.606 0.818 4.791 
68 1 7.480 1.378 -2.936 
69 1 0.728 -5.043 -9.691 
70 1 -4.804 7.294 6.274 
71 1 8.400 -1.132 1.752 
72 1 6.254 -7.825 1.869 
73 1 -7.060 9.854 0.356 
74 1 -6.734 0.470 -8.000 
75 1 1.391 -5.345 1.061 
76 1 7.425 -9.347 -9.581 
77 1 -2.696 -4.960 1.250 
78 1 3.076 -5.751 -4.359 
79 1 4.749 -6.801 9.031 
80 1 9.317 -2.842 4.833 
81 1 -1.666 -3.204 -7.467 
82 1 -5.276 8.737 3.232 
83 1 -4.665 -8.473 -3.049 
84 1 -3.892 -0.646 6.032 
85 1 9.669 7.697 -8.504 
86 1 -3.107 -6.104 -5.078 
87 1 -3.661 6.921 -6.479 
88 1 2.117 2.098 -3.241 
89 1 -2.936 -2.355 -4.375 
90 1 4.803 4.495 -2.898 
91 1 9.735 -7.754 0.615 
92 1 1.011 -9.605 4.772 
93 1 -4.891 2.984 -6.188 
94 1 8.571 3.333 -5.563 
95 1 0.878 -8.722 0.768 
96 1 -7.479 2.626 -2.636 
97 1 -4.800 4.162 4.829 
98 1 -8.721 0.892 -5.222 
99 1 -6.096 8.246 -2.686 
100 1 3.779 -0.919 -3.957 
101 1 -0.482 6.981 5.484 
102 1 -8.912 -4.560 1.998 
103 1 9.180 -5.204 -5.292 
104 1 -6.598 6.715 -8.316 
105 1 -6.129 -6.554 8.478 
106 1 5.579 -3.636 -5.408 
107 1 0.234 -2.252 1.753 
108 1 6.113 6.911 -9.115 
109 1 -4.394 4.199 0.997 
110 1 0.389 3.356 8.124 
111 1 -0.736 -3.524 7.324 
112 1 8.428 8.968 7.015 
113 1 9.324 0.618 -8.229 
114 1 7.102 3.213 7.400 
115 1 -7.788 -5.598 -8.387 
116 1 2.799 -3.607 -1.668 
117 1 6.005 -2.287 4.281 
118 1 -5.181 -2.108 -1.608 
119 1 8.574 -5.828 -9.354 
120 1 -2.165 -3.366 4.263 
121 1 4.866 3.333 -8.795 
122 1 -6.620 5.467 -4.602 
123 1 -4.150 7.722 0.105 
124 1 3.939 1.910 5.192 
125 1 1.800 -3.179 -6.415 
126 1 -9.123 -4.892 7.408 
127 1 -2.147 2.419 5.964 
128 1 9.068 8.565 -2.105 
129 1 -0.796 7.956 -8.556 
130 1 7.380 -2.537 -8.179 
131 1 -1.314 -0.036 3.774 
132 1 -8.458 8.602 4.999 
133 1 6.262 0.913 -6.327 
134 1 -9.103 -8.362 8.359 
135 1 7.088 -4.432 1.609 
136 1 0.013 -0.063 7.083 
137 1 1.031 3.116 -0.130 
138 1 -0.953 8.968 -1.537 
139 1 -3.611 -8.530 -7.570 
140 1 -0.470 9.257 8.014 
141 1 -4.824 0.548 -3.790 
142 1 -8.764 0.429 3.567 
143 1 -4.118 -5.257 -1.905 
144 1 -2.597 -9.740 5.421 
145 1 -7.958 5.083 5.260 
146 1 -5.914 -4.059 -4.995 
147 1 -8.143 -1.885 -3.290 
148 1 1.141 4.012 4.870 
149 1 -5.348 -2.992 -8.494 
150 1 -3.267 -6.219 6.072 
151 1 4.875 1.956 -0.657 
152 1 -7.516 3.312 2.125 
153 1 2.150 -1.574 4.704 
154 1 -0.331 -8.340 -9.120 
155 1 -3.419 4.406 -8.866 
156 1 1.014 5.484 -2.593 
157 1 8.222 4.054 -8.952 
158 1 -2.748 -1.472 9.304 
159 1 -8.244 3.896 -7.371 
160 1 -4.859 -3.597 7.503 
161 1 -6.781 -9.261 -8.833 
162 1 5.246 -5.507 5.106 
163 1 -0.064 -4.171 -3.711 
164 1 5.672 6.977 7.225 
165 1 -2.971 6.444 -3.127 
166 1 -2.945 -5.473 -9.753 
167 1 -1.318 3.276 2.588 
168 1 -1.346 5.695 -0.057 
169 1 -3.778 -1.657 1.563 
170 1 -7.859 6.827 2.094 
171 1 2.024 -0.355 -0.683 
172 1 2.916 7.162 5.241 
173 1 -3.045 3.132 -2.059 
174 1 -9.418 -2.429 9.725 
175 1 7.114 -3.363 7.838 
176 1 2.766 1.111 9.123 
177 1 6.928 8.901 -6.105 
178 1 1.713 1.113 2.556 
179 1 -4.532 -7.679 3.247 
180 1 -1.593 -2.546 -1.125 
181 1 7.580 -7.179 7.174 
182 1 -5.440 -4.209 3.241 
183 1 5.166 0.391 2.285 
184 1 -0.154 6.675 -5.469 
185 1 -9.510 0.303 -0.979 
186 1 -2.068 9.648 -4.873 
187 1 -3.362 -8.644 8.658 
188 1 6.425 3.749 3.456 
189 1 8.456 5.847 5.268 
190 1 3.099 -7.365 3.219 
191 1 -1.643 9.276 2.229 
192 1 -3.454 -0.145 -7.081 
193 1 -6.631 -7.449 -5.705 
194 1 3.415 7.428 -4.367 
195 1 9.769 -0.063 7.253 
196 1 -3.892 7.865 9.642 
197 1 -4.291 1.734 8.789 
198 1 -1.160 1.402 -9.224 
199 1 5.938 -1.600 -0.986 
200 1 4.395 -8.898 -4.584 
ITEM: TIMESTEP
100
ITEM: NUMBER OF ATOMS
200
ITEM: BOX BOUNDS pp pp pp
-9.855748163310864 9.855748163310864
-9.855748163310864 9.855748163310864
-9.855748163310864 9.855748163310864
ITEM: ATOMS id type x y z
1 1 3.424 4.200 2.247 
2 1 3.690 6.416 -0.326 
3 1 2.374 2.940 -6.531 
4 1 -2.390 5.425 7.875 
5 1 -7.358 -1.614 1.229 
6 1 3.031 -9.763 7.840 
7 1 3.743 -2.892 1.678 
8 1 1.686 6.708 8.728 
9 1 3.476 9.222 2.022 
10 1 -7.204 5.568 -0.899 
11 1 1.152 -4.719 4.526 
12 1 8.540 9.507 3.143 
13 1 -7.892 -5.241 -2.335 
14 1 8.653 -6.557 3.997 
15 1 6.493 0.461 9.688 
16 1 1.402 9.722 -6.445 
17 1 -3.452 -8.457 0.070 
18 1 0.759 -8.256 -3.550 
19 1 -4.811 1.185 3.172 
20 1 -1.008 0.314 -3.081 
21 1 0.870 -1.634 -9.586 
22 1 -0.061 -6.329 -6.371 
23 1 5.969 5.406 -6.113 
24 1 9.539 6.628 -5.046 
25 1 -7.520 8.173 8.375 
26 1 4.218 9.690 -8.480 
27 1 8.637 2.416 1.224 
28 1 -7.582 8.905 -5.771 
29 1 -1.314 3.219 -5.311 
30 1 -7.154 -1.968 5.315 
31 1 -5.528 1.099 -0.254 
32 1 0.946 6.762 2.204 
33 1 0.236 -0.091 -6.279 
34 1 -9.812 5.599 8.354 
35 1 0.180 -7.086 7.122 
36 1 -8.449 2.388 9.155 
37 1 2.911 -4.035 7.433 
38 1 -0.987 -7.142 3.363 
39 1 -6.814 1.687 6.128 
40 1 -0.028 4.643 -8.387 
41 1 -0.986 -6.410 -1.360 
42 1 9.774 -8.420 -6.941 
43 1 9.049 -3.315 -1.199 
44 1 3.564 -0.400 -7.623 
45 1 2.874 9.473 -1.654 
46 1 -5.895 -9.057 6.349 
47 1 -7.632 -6.591 4.678 
48 1 4.054 -6.928 -0.878 
49 1 4.668 -1.035 7.247 
50 1 2.896 6.449 -7.715 
51 1 -2.867 6.395 3.142 
52 1 3.840 4.255 7.588 
53 1 6.453 -6.994 -6.783 
54 1 6.398 8.754 0.029 
55 1 4.303 -3.623 -9.072 
56 1 -6.607 -0.850 8.589 
57 1 5.825 7.158 3.334 
58 1 8.279 -1.573 -4.559 
59 1 3.102 -6.848 -7.618 
60 1 -1.673 0.767 0.294 
61 1 8.496 6.012 1.267 
62 1 -8.613 -2.373 -6.699 
63 1 5.428 -9.375 5.179 
64 1 -6.401 -6.408 0.570 
65 1 -6.036 4.823 8.371 
66 1 -8.476 -8.600 -2.907 
67 1 7.509 0.694 4.843 
68 1 7.345 1.358 -2.719 
69 1 0.852 -5.067 -9.612 
70 1 -4.800 7.338 6.225 
71 1 8.371 -1.218 1.697 
72 1 6.200 -7.907 1.806 
73 1 -7.186 9.851 0.337 
74 1 -6.652 0.502 -7.976 
75 1 1.305 -5.290 0.961 
76 1 7.443 -9.279 -9.584 
77 1 -2.766 -5.039 1.255 
78 1 3.087 -5.809 -4.260 
79 1 4.696 -6.798 8.986 
80 1 9.257 -2.891 4.798 
81 1 -1.562 -3.208 -7.406 
82 1 -5.306 8.860 3.174 
83 1 -4.631 -8.483 -3.142 
84 1 -3.889 -0.606 6.075 
85 1 9.691 7.805 -8.502 
86 1 -3.158 -5.999 -5.210 
87 1 -3.770 7.093 -6.466 
88 1 2.099 2.105 -3.258 
89 1 -2.984 -2.400 -4.336 
90 1 4.945 4.460 -2.994 
91 1 9.639 -7.711 0.476 
92 1 1.057 -9.688 4.706 
93 1 -4.895 3.017 -6.039 
94 1 8.648 3.339 -5.259 
95 1 0.895 -8.643 0.662 
96 1 -7.493 2.713 -2.661 
97 1 -4.788 4.162 4.814 
98 1 -8.703 0.832 -5.168 
99 1 -6.201 8.301 -2.691 
100 1 3.820 -0.885 -4.009 
101 1 -0.507 6.898 5.455 
102 1 -9.058 -4.526 1.928 
103 1 9.291 -5.165 -5.225 
104 1 -6.710 6.584 -8.273 
105 1 -6.099 -6.490 8.649 
106 1 5.565 -3.705 -5.389 
107 1 0.222 -2.211 1.824 
108 1 6.272 6.891 -9.220 
109 1 -4.450 4.190 0.972 
110 1 0.443 3.452 8.135 
111 1 -0.778 -3.571 7.413 
112 1 8.531 9.023 7.041 
113 1 9.410 0.541 -8.199 
114 1 7.257 3.238 7.398 
115 1 -7.955 -5.512 -8.317 
116 1 2.899 -3.551 -1.693 
117 1 5.903 -2.362 4.318 
118 1 -5.178 -2.135 -1.492 
119 1 8.443 -5.728 -9.372 
120 1 -2.191 -3.402 4.301 
121 1 4.856 3.425 -8.862 
122 1 -6.718 5.550 -4.645 
123 1 -4.200 7.723 0.062 
124 1 3.966 1.742 5.256 
125 1 1.949 -3.272 -6.465 
126 1 -9.136 -4.952 7.336 
127 1 -2.124 2.482 6.037 
128 1 9.252 8.379 -1.966 
129 1 -0.914 8.006 -8.559 
130 1 7.437 -2.453 -8.042 
131 1 -1.353 -0.004 3.817 
132 1 -8.383 8.661 5.029 
133 1 6.318 1.006 -6.256 
134 1 -9.063 -8.328 8.482 
135 1 6.967 -4.485 1.522 
136 1 0.024 -0.062 7.102 
137 1 1.008 3.124 -0.117 
138 1 -0.915 8.927 -1.522 
139 1 -3.556 -8.585 -7.579 
140 1 -0.491 9.219 7.956 
141 1 -4.987 0.432 -3.811 
142 1 -8.918 0.490 3.593 
143 1 -4.196 -5.282 -1.975 
144 1 -2.575 -9.742 5.339 
145 1 -7.979 5.019 5.328 
146 1 -5.988 -3.980 -5.067 
147 1 -8.104 -1.898 -3.238 
148 1 1.190 3.909 4.857 
149 1 -5.340 -3.028 -8.458 
150 1 -3.169 -6.252 6.141 
151 1 4.611 2.074 -0.587 
152 1 -7.633 3.297 2.047 
153 1 2.270 -1.491 4.748 
154 1 -0.236 -8.332 -9.165 
155 1 -3.487 4.448 -8.762 
156 1 1.100 5.522 -2.574 
157 1 8.275 3.917 -8.795 
158 1 -2.764 -1.449 9.372 
159 1 -8.236 3.699 -7.301 
160 1 -4.839 -3.596 7.450 
161 1 -6.741 -9.264 -8.808 
162 1 5.288 -5.596 5.228 
163 1 0.003 -4.073 -3.740 
164 1 5.720 7.110 7.134 
165 1 -3.046 6.458 -3.146 
166 1 -2.836 -5.437 -9.758 
167 1 -1.371 3.314 2.620 
168 1 -1.393 5.660 -0.103 
169 1 -3.740 -1.683 1.638 
170 1 -7.928 6.819 2.177 
171 1 1.939 -0.370 -0.698 
172 1 2.915 7.072 5.212 
173 1 -3.101 3.088 -2.144 
174 1 -9.417 -2.532 9.706 
175 1 7.129 -3.466 7.862 
176 1 2.781 1.172 9.109 
177 1 7.011 8.916 -6.141 
178 1 1.689 1.107 2.555 
179 1 -4.521 -7.558 3.259 
180 1 -1.602 -2.607 -1.074 
181 1 7.634 -7.209 7.204 
182 1 -5.533 -4.181 3.282 
183 1 5.169 0.349 2.245 
184 1 -0.175 6.661 -5.467 
185 1 -9.436 0.294 -0.963 
186 1 -1.976 9.690 -4.857 
187 1 -3.303 -8.630 8.664 
188 1 6.479 3.721 3.605 
189 1 8.515 6.036 5.134 
190 1 3.076 -7.268 3.213 
191 1 -1.568 9.253 2.131 
192 1 -3.357 -0.091 -7.016 
193 1 -6.623 -7.371 -5.725 
194 1 3.475 7.402 -4.413 
195 1 9.737 -0.144 7.271 
196 1 -4.070 7.923 9.677 
197 1 -4.292 1.768 8.839 
198 1 -1.080 1.429 -9.221 
199 1 5.891 -1.535 -1.021 
200 1 4.465 -8.936 -4.566 
