ITEM: TIMESTEP
0
ITEM: NUMBER OF ATOMS
200
ITEM: BOX BOUNDS pp pp pp
-16.49818434247616 16.49818434247616
-16.49818434247616 16.49818434247616
-16.49818434247616 16.49818434247616
ITEM: ATOMS id type x y z
1 1 4.592 4.339 3.392 
2 1 4.973 13.598 1.533 
3 1 3.606 1.949 -12.496 
4 1 -2.445 7.892 8.975 
5 1 -11.442 -3.754 4.275 
6 1 4.049 14.694 10.302 
7 1 5.085 -3.651 6.036 
8 1 2.144 12.533 13.152 
9 1 5.171 14.287 4.461 
10 1 -8.254 8.323 -1.995 
11 1 -1.219 -12.762 5.409 
12 1 12.592 14.350 8.590 
13 1 -8.975 -7.357 -2.307 
14 1 -16.158 -9.825 7.372 
15 1 7.954 1.874 13.123 
16 1 -0.242 15.706 -10.763 
17 1 -3.595 -11.628 1.331 
18 1 -0.093 -12.350 -5.402 
19 1 -7.671 2.240 6.416 
20 1 -1.434 1.218 -5.072 
21 1 0.903 -4.800 -14.995 
22 1 -2.227 -9.041 -10.257 
23 1 10.374 10.334 -11.135 
24 1 14.394 11.164 -8.448 
25 1 -11.087 12.133 11.915 
26 1 6.796 -13.327 -14.836 
27 1 -16.199 1.756 4.480 
28 1 -13.873 12.474 -8.262 
29 1 -0.586 5.909 -6.354 
30 1 -10.902 -4.346 7.791 
31 1 -8.745 2.323 4.685 
32 1 0.510 12.840 6.867 
33 1 0.600 -1.009 -10.739 
34 1 -14.355 8.317 13.162 
35 1 -4.172 -12.810 8.547 
36 1 -12.815 2.471 13.567 
37 1 4.577 -9.285 15.502 
38 1 -3.415 -11.959 3.999 
39 1 -9.044 5.217 8.068 
40 1 0.097 4.831 -14.201 
41 1 -1.242 -8.792 -4.444 
42 1 16.289 -16.177 -11.428 
43 1 -16.283 -3.405 2.590 
44 1 2.780 -2.178 -11.091 
45 1 5.980 -15.473 -4.585 
46 1 -7.188 15.860 8.811 
47 1 -11.105 -9.509 8.946 
48 1 3.029 -15.657 3.271 
49 1 6.208 1.428 11.716 
50 1 5.557 10.521 -11.971 
51 1 -6.951 11.828 6.123 
52 1 2.612 7.406 10.974 
53 1 7.015 -12.777 -10.607 
54 1 12.453 14.032 1.395 
55 1 4.329 -5.232 -12.964 
56 1 -11.201 1.098 14.831 
57 1 6.603 10.518 7.247 
58 1 15.644 -2.682 -9.588 
59 1 5.974 -12.092 -12.421 
60 1 -0.134 2.728 -0.926 
61 1 14.336 12.606 4.297 
62 1 -12.592 -6.596 -12.242 
63 1 6.683 15.589 9.869 
64 1 -9.495 -11.333 3.237 
65 1 -8.338 6.955 10.285 
66 1 -10.341 14.155 -4.249 
67 1 12.704 3.023 6.225 
68 1 13.771 4.989 -7.303 
69 1 2.138 -8.223 -16.356 
70 1 -7.626 11.443 7.876 
71 1 16.254 1.381 4.444 
72 1 10.498 -14.639 2.436 
73 1 -9.645 -15.814 1.659 
74 1 -10.999 1.114 -14.190 
75 1 0.703 -11.792 0.852 
76 1 10.876 15.316 14.695 
77 1 -4.118 -8.970 1.592 
78 1 3.119 -10.699 -11.693 
79 1 6.154 -11.678 -16.138 
80 1 -15.946 -2.769 5.144 
81 1 -1.987 -5.537 -10.517 
82 1 -7.616 14.517 7.149 
83 1 -5.365 -13.219 -3.871 
84 1 -6.453 1.547 9.793 
85 1 -15.490 11.389 -14.056 
86 1 -3.581 -10.667 -7.662 
87 1 -5.717 11.063 -9.500 
88 1 -0.424 3.917 -5.311 
89 1 -3.230 -2.872 -6.628 
90 1 4.708 4.158 -2.229 
91 1 14.645 -12.018 2.936 
92 1 0.081 14.592 6.690 
93 1 -9.049 4.684 -9.035 
94 1 13.586 6.393 -8.253 
95 1 1.085 15.488 5.251 
96 1 -10.460 6.354 -4.720 
97 1 -4.815 5.802 8.392 
98 1 -13.963 3.072 -9.107 
99 1 -6.410 11.440 -2.931 
100 1 3.824 -2.316 -5.877 
101 1 -0.730 13.297 6.999 
102 1 -11.639 -9.351 3.615 
103 1 16.404 -4.832 -9.684 
104 1 -10.341 11.643 -13.583 
105 1 -6.416 -13.359 10.659 
106 1 8.160 -6.745 -12.459 
107 1 -0.739 -2.456 1.389 
108 1 9.304 12.500 -13.989 
109 1 -8.487 9.431 5.273 
110 1 -1.654 5.544 11.295 
111 1 1.563 -4.851 11.664 
112 1 10.291 15.420 10.681 
113 1 -14.343 4.725 -12.787 
114 1 9.519 5.996 10.048 
115 1 -9.921 -10.379 -13.624 
116 1 0.846 -3.311 -1.129 
117 1 10.701 -4.676 5.122 
118 1 -8.621 -4.498 -3.338 
119 1 11.792 -12.181 -12.114 
120 1 -4.343 -2.460 9.589 
121 1 5.620 3.487 -15.856 
122 1 -8.449 10.479 -6.321 
123 1 -6.261 12.106 3.469 
124 1 4.412 3.372 6.834 
125 1 0.867 -3.314 -10.650 
126 1 -11.241 -8.687 9.305 
127 1 -5.163 2.749 9.249 
128 1 15.292 13.738 -4.690 
129 1 0.755 12.703 15.528 
130 1 11.540 -4.262 -12.089 
131 1 -5.311 0.171 4.835 
132 1 -11.946 12.548 7.627 
133 1 8.821 -2.076 -11.648 
134 1 14.371 -16.077 13.906 
135 1 13.677 -5.775 5.171 
136 1 -3.194 -2.134 12.004 
137 1 1.390 6.532 1.567 
138 1 -1.393 14.947 -3.404 
139 1 -5.954 -12.702 -12.889 
140 1 -2.565 16.040 11.010 
141 1 -6.572 0.255 -5.752 
142 1 -11.448 1.502 7.404 
143 1 -6.416 -7.555 -3.186 
144 1 -3.244 15.962 10.086 
145 1 -8.509 9.610 6.969 
146 1 -7.502 -4.836 -9.165 
147 1 -14.377 -5.413 -7.185 
148 1 0.179 8.800 7.719 
149 1 -7.210 -3.900 -13.454 
150 1 -4.666 -12.404 6.959 
151 1 6.334 2.148 -0.462 
152 1 -8.986 3.763 6.230 
153 1 3.170 -2.947 9.328 
154 1 -4.172 -13.516 -16.274 
155 1 -5.626 9.206 15.511 
156 1 -1.113 8.167 -1.469 
157 1 13.518 10.311 -15.636 
158 1 -3.701 -3.053 13.883 
159 1 -14.481 8.700 -12.593 
160 1 -8.930 -4.357 12.653 
161 1 -6.817 -13.952 -16.332 
162 1 5.469 -10.874 6.396 
163 1 -0.723 -6.890 -7.402 
164 1 6.039 13.907 10.213 
165 1 -6.087 11.636 -7.329 
166 1 -6.025 -5.253 -12.909 
167 1 -3.961 4.130 4.668 
168 1 -0.871 7.882 0.201 
169 1 -5.558 -0.331 4.391 
170 1 -8.218 10.706 6.076 
171 1 4.362 1.659 -1.643 
172 1 4.069 12.043 7.188 
173 1 -3.511 8.775 -1.165 
174 1 -16.188 -4.900 -14.459 
175 1 11.756 -4.350 13.378 
176 1 5.102 2.472 14.538 
177 1 12.644 15.011 -11.066 
178 1 3.795 3.173 5.449 
179 1 -6.981 -14.981 8.410 
180 1 -4.415 -6.593 -3.307 
181 1 12.386 -12.841 10.301 
182 1 -8.088 -5.748 4.346 
183 1 5.934 3.243 3.956 
184 1 -3.057 10.368 -9.778 
185 1 14.115 0.269 -0.498 
186 1 -1.708 15.056 -9.229 
187 1 -4.464 -14.733 13.948 
188 1 8.618 7.166 7.359 
189 1 13.303 10.384 10.727 
190 1 4.788 -12.768 6.238 
191 1 -3.422 -15.642 4.987 
192 1 -6.230 -4.953 -12.050 
193 1 -8.839 -12.480 -12.046 
194 1 5.509 12.443 -5.106 
195 1 -14.057 2.125 9.897 
196 1 -5.947 10.034 14.151 
197 1 -5.611 2.207 12.337 
198 1 -1.672 1.025 15.426 
199 1 10.768 0.389 0.504 
200 1 7.093 -13.699 -8.512 
ITEM: TIMESTEP
10
ITEM: NUMBER OF ATOMS
200
ITEM: BOX BOUNDS pp pp pp
-16.49818434247616 16.49818434247616
-16.49818434247616 16.49818434247616
-16.49818434247616 16.49818434247616
ITEM: ATOMS id type x y z
1 1 4.436 4.481 3.309 
2 1 4.973 13.598 1.532 
3 1 3.606 1.949 -12.496 
4 1 -2.445 7.892 8.975 
5 1 -11.442 -3.754 4.275 
6 1 3.985 14.721 10.304 
7 1 5.085 -3.651 6.036 
8 1 2.146 12.533 13.150 
9 1 5.171 14.287 4.462 
10 1 -8.254 8.323 -1.995 
11 1 -1.216 -12.763 5.410 
12 1 12.592 14.350 8.589 
13 1 -8.979 -7.357 -2.306 
14 1 -16.158 -9.825 7.372 
15 1 7.979 1.880 13.144 
16 1 -0.211 15.720 -10.796 
17 1 -3.594 -11.631 1.326 
18 1 -0.093 -12.350 -5.402 
19 1 -7.548 2.154 6.511 
20 1 -1.435 1.216 -5.072 
21 1 0.903 -4.800 -14.995 
22 1 -2.227 -9.041 -10.257 
23 1 10.374 10.334 -11.135 
24 1 14.394 11.164 -8.448 
25 1 -11.087 12.133 11.915 
26 1 6.812 -13.368 -14.806 
27 1 -15.540 2.210 4.524 
28 1 -13.873 12.474 -8.262 
29 1 -0.588 5.944 -6.372 
30 1 -10.902 -4.346 7.791 
31 1 -8.790 2.283 4.554 
32 1 0.929 12.622 6.829 
33 1 0.588 -0.977 -10.738 
34 1 -14.355 8.317 13.162 
35 1 -4.092 -12.876 8.803 
36 1 -12.823 2.478 13.561 
37 1 4.578 -9.285 15.501 
38 1 -3.417 -11.959 4.001 
39 1 -9.045 5.235 8.090 
40 1 0.097 4.831 -14.201 
41 1 -1.242 -8.792 -4.444 
42 1 16.289 -16.177 -11.428 
43 1 -16.284 -3.406 2.585 
44 1 2.819 -2.164 -11.099 
45 1 5.980 -15.473 -4.585 
46 1 -7.181 15.844 8.867 
47 1 -11.003 -10.123 8.677 
48 1 3.029 -15.656 3.271 
49 1 6.183 1.421 11.695 
50 1 5.557 10.521 -11.971 
51 1 -6.476 12.148 6.063 
52 1 2.612 7.406 10.974 
53 1 7.040 -12.780 -10.594 
54 1 12.453 14.033 1.395 
55 1 4.329 -5.232 -12.964 
56 1 -11.193 1.090 14.837 
57 1 6.604 10.517 7.247 
58 1 15.633 -2.650 -9.587 
59 1 5.947 -12.074 -12.464 
60 1 -0.134 2.728 -0.926 
61 1 14.336 12.606 4.297 
62 1 -12.592 -6.596 -12.242 
63 1 6.759 15.787 9.828 
64 1 -9.495 -11.334 3.237 
65 1 -8.337 6.956 10.286 
66 1 -10.341 14.155 -4.249 
67 1 12.704 3.023 6.225 
68 1 13.801 4.759 -7.147 
69 1 2.137 -8.222 -16.355 
70 1 -7.631 11.456 8.061 
71 1 15.595 0.926 4.401 
72 1 10.498 -14.639 2.436 
73 1 -9.645 -15.814 1.659 
74 1 -10.999 1.114 -14.190 
75 1 0.703 -11.792 0.852 
76 1 10.876 15.316 14.695 
77 1 -4.119 -8.966 1.592 
78 1 3.119 -10.698 -11.693 
79 1 6.139 -11.638 -16.169 
80 1 -15.946 -2.768 5.149 
81 1 -1.987 -5.537 -10.517 
82 1 -7.628 14.482 7.103 
83 1 -5.365 -13.219 -3.871 
84 1 -6.600 1.410 9.853 
85 1 -15.490 11.389 -14.056 
86 1 -3.581 -10.667 -7.662 
87 1 -5.714 11.055 -9.534 
88 1 -0.421 3.884 -5.293 
89 1 -3.230 -2.872 -6.628 
90 1 4.709 4.164 -2.230 
91 1 14.645 -12.018 2.936 
92 1 0.127 14.828 6.819 
93 1 -9.049 4.684 -9.035 
94 1 13.556 6.622 -8.409 
95 1 1.214 15.592 5.052 
96 1 -10.460 6.354 -4.720 
97 1 -4.815 5.802 8.392 
98 1 -13.963 3.072 -9.107 
99 1 -6.410 11.440 -2.931 
100 1 3.824 -2.316 -5.877 
101 1 -1.325 13.175 7.106 
102 1 -11.640 -9.350 3.615 
103 1 16.415 -4.864 -9.685 
104 1 -10.341 11.643 -13.583 
105 1 -6.416 -13.358 10.661 
106 1 8.160 -6.745 -12.459 
107 1 -0.739 -2.456 1.389 
108 1 9.304 12.500 -13.989 
109 1 -8.535 9.084 4.965 
110 1 -1.654 5.544 11.295 
111 1 1.563 -4.851 11.664 
112 1 10.290 15.421 10.681 
113 1 -14.343 4.725 -12.787 
114 1 9.519 5.996 10.049 
115 1 -9.922 -10.378 -13.625 
116 1 0.846 -3.311 -1.129 
117 1 10.700 -4.676 5.122 
118 1 -8.621 -4.497 -3.338 
119 1 11.792 -12.181 -12.114 
120 1 -4.345 -2.461 9.585 
121 1 5.620 3.488 -15.854 
122 1 -8.451 10.478 -6.321 
123 1 -6.260 12.106 3.465 
124 1 4.562 3.420 7.168 
125 1 0.840 -3.359 -10.642 
126 1 -11.343 -8.072 9.574 
127 1 -5.016 2.885 9.187 
128 1 15.292 13.738 -4.690 
129 1 0.754 12.703 15.530 
130 1 11.541 -4.262 -12.089 
131 1 -5.043 0.716 5.316 
132 1 -11.946 12.548 7.627 
133 1 8.821 -2.076 -11.648 
134 1 14.371 -16.077 13.906 
135 1 13.678 -5.776 5.171 
136 1 -3.176 -2.105 11.949 
137 1 1.391 6.532 1.568 
138 1 -1.393 14.947 -3.404 
139 1 -5.953 -12.702 -12.889 
140 1 -2.235 16.078 11.458 
141 1 -6.572 0.255 -5.752 
142 1 -11.448 1.502 7.404 
143 1 -6.455 -7.576 -3.185 
144 1 -3.574 15.924 9.638 
145 1 -8.585 9.291 7.332 
146 1 -7.505 -4.836 -9.160 
147 1 -14.377 -5.413 -7.185 
148 1 0.179 8.800 7.719 
149 1 -7.300 -3.796 -13.487 
150 1 -4.746 -12.339 6.704 
151 1 6.354 2.153 -0.450 
152 1 -9.064 3.871 6.243 
153 1 3.170 -2.947 9.328 
154 1 -4.168 -13.515 -16.274 
155 1 -5.563 9.043 15.779 
156 1 -1.141 8.210 -1.741 
157 1 13.518 10.311 -15.636 
158 1 -3.716 -3.081 13.941 
159 1 -14.481 8.700 -12.593 
160 1 -8.930 -4.357 12.653 
161 1 -6.821 -13.953 -16.332 
162 1 5.510 -10.760 6.406 
163 1 -0.723 -6.890 -7.402 
164 1 6.028 13.682 10.251 
165 1 -6.091 11.646 -7.296 
166 1 -5.802 -5.555 -13.503 
167 1 -3.961 4.130 4.668 
168 1 -0.833 7.837 0.470 
169 1 -5.826 -0.876 3.910 
170 1 -8.565 11.036 5.900 
171 1 4.341 1.647 -1.654 
172 1 4.069 12.044 7.188 
173 1 -3.523 8.778 -1.163 
174 1 -16.188 -4.900 -14.458 
175 1 11.756 -4.350 13.378 
176 1 5.102 2.471 14.537 
177 1 12.644 15.011 -11.066 
178 1 3.634 3.115 5.132 
179 1 -6.976 -14.930 8.398 
180 1 -4.373 -6.573 -3.309 
181 1 12.386 -12.841 10.301 
182 1 -8.088 -5.748 4.346 
183 1 6.101 3.110 4.022 
184 1 -3.054 10.367 -9.778 
185 1 14.115 0.269 -0.498 
186 1 -1.740 15.042 -9.196 
187 1 -4.464 -14.733 13.947 
188 1 8.618 7.166 7.359 
189 1 13.303 10.384 10.727 
190 1 4.747 -12.882 6.228 
191 1 -3.422 -15.642 4.987 
192 1 -6.360 -4.755 -11.427 
193 1 -8.839 -12.481 -12.045 
194 1 5.509 12.443 -5.106 
195 1 -14.057 2.125 9.897 
196 1 -6.010 10.197 13.883 
197 1 -5.610 2.208 12.340 
198 1 -1.672 1.025 15.426 
199 1 10.768 0.389 0.504 
200 1 7.094 -13.713 -8.480 
ITEM: TIMESTEP
20
ITEM: NUMBER OF ATOMS
200
ITEM: BOX BOUNDS pp pp pp
-16.49818434247616 16.49818434247616
-16.49818434247616 16.49818434247616
-16.49818434247616 16.49818434247616
ITEM: ATOMS id type x y z
1 1 4.619 5.107 2.804 
2 1 4.930 13.541 1.211 
3 1 3.581 1.919 -12.506 
4 1 -2.551 8.205 9.181 
5 1 -11.466 -3.744 4.217 
6 1 3.396 15.012 10.231 
7 1 5.092 -3.649 6.036 
8 1 2.382 12.482 12.734 
9 1 5.184 14.487 4.722 
10 1 -8.248 8.314 -2.021 
11 1 -0.690 -13.011 5.776 
12 1 12.739 14.256 8.458 
13 1 -9.767 -7.459 -1.906 
14 1 -16.147 -9.818 7.359 
15 1 8.524 2.004 13.496 
16 1 0.239 15.920 -11.269 
17 1 -3.529 -12.029 0.241 
18 1 -0.130 -12.335 -5.416 
19 1 -7.543 2.132 6.802 
20 1 -1.744 0.545 -5.066 
21 1 0.901 -4.733 -14.917 
22 1 -2.137 -9.136 -10.389 
23 1 10.400 10.330 -11.113 
24 1 14.392 11.164 -8.459 
25 1 -11.051 12.111 11.857 
26 1 7.346 -14.426 -14.588 
27 1 -14.936 2.592 4.591 
28 1 -13.893 12.468 -8.262 
29 1 -0.696 6.743 -6.792 
30 1 -10.873 -4.347 7.833 
31 1 -8.648 1.159 3.371 
32 1 0.983 12.248 6.482 
33 1 0.266 -0.311 -10.721 
34 1 -14.345 8.322 13.160 
35 1 -3.428 -13.146 9.401 
36 1 -13.195 2.840 13.320 
37 1 4.627 -8.821 14.895 
38 1 -3.348 -11.642 3.761 
39 1 -9.343 4.918 9.264 
40 1 0.116 4.805 -14.200 
41 1 -1.275 -8.872 -4.398 
42 1 16.260 -16.201 -11.425 
43 1 -16.368 -3.514 2.108 
44 1 3.644 -1.940 -11.274 
45 1 5.935 -15.541 -4.470 
46 1 -7.260 15.444 10.017 
47 1 -10.887 -10.768 8.368 
48 1 3.468 -15.224 2.926 
49 1 5.777 1.222 11.027 
50 1 5.596 10.531 -11.978 
51 1 -5.573 12.026 6.194 
52 1 2.575 7.417 10.937 
53 1 7.846 -12.702 -10.723 
54 1 12.435 14.060 1.386 
55 1 4.313 -5.266 -12.974 
56 1 -10.784 0.746 15.116 
57 1 7.105 10.310 7.274 
58 1 15.407 -2.015 -9.559 
59 1 5.492 -11.549 -13.113 
60 1 -0.090 2.744 -0.962 
61 1 14.336 12.608 4.332 
62 1 -12.613 -6.592 -12.241 
63 1 6.869 16.408 9.659 
64 1 -9.203 -11.600 3.201 
65 1 -7.798 7.998 11.454 
66 1 -10.313 14.112 -4.264 
67 1 12.712 3.016 6.217 
68 1 13.886 4.176 -6.758 
69 1 1.707 -8.109 -16.093 
70 1 -7.642 11.815 9.119 
71 1 15.015 0.488 4.346 
72 1 10.519 -14.651 2.437 
73 1 -9.632 -15.796 1.680 
74 1 -11.007 1.122 -14.162 
75 1 0.655 -11.810 0.880 
76 1 10.881 15.316 14.674 
77 1 -4.205 -8.575 1.665 
78 1 2.573 -10.454 -11.422 
79 1 6.325 -11.540 16.439 
80 1 -15.881 -2.635 5.639 
81 1 -2.402 -5.558 -10.565 
82 1 -8.017 14.789 6.491 
83 1 -5.337 -13.186 -3.870 
84 1 -7.289 0.629 10.067 
85 1 -15.582 11.580 -14.163 
86 1 -3.618 -10.739 -7.453 
87 1 -6.174 10.978 -10.224 
88 1 -0.011 3.749 -4.804 
89 1 -3.227 -2.889 -6.633 
90 1 4.747 4.627 -2.309 
91 1 14.633 -12.022 2.946 
92 1 -0.072 15.628 7.851 
93 1 -9.071 4.690 -9.015 
94 1 13.483 7.247 -8.813 
95 1 1.302 15.320 4.469 
96 1 -10.426 6.388 -4.734 
97 1 -5.313 6.124 8.100 
98 1 -13.958 3.091 -9.133 
99 1 -6.408 11.446 -2.970 
100 1 3.803 -2.308 -5.882 
101 1 -2.329 12.809 7.316 
102 1 -11.895 -9.083 3.688 
103 1 -16.489 -5.509 -9.944 
104 1 -10.357 11.630 -13.574 
105 1 -6.665 -13.222 11.212 
106 1 8.148 -6.710 -12.461 
107 1 -0.898 -2.363 1.629 
108 1 9.309 12.510 -13.999 
109 1 -8.382 8.325 4.155 
110 1 -1.638 5.402 11.377 
111 1 1.486 -4.923 11.770 
112 1 10.224 15.462 10.863 
113 1 -14.329 4.713 -12.765 
114 1 9.602 5.860 10.333 
115 1 -10.065 -10.032 -13.876 
116 1 0.997 -3.378 -1.389 
117 1 10.461 -4.583 5.118 
118 1 -8.525 -4.303 -3.453 
119 1 11.750 -12.195 -12.108 
120 1 -4.731 -2.548 9.012 
121 1 5.711 3.654 -15.372 
122 1 -8.869 10.241 -6.159 
123 1 -6.381 12.060 2.744 
124 1 4.955 3.570 7.836 
125 1 0.775 -3.997 -10.509 
126 1 -11.445 -7.428 9.860 
127 1 -4.384 2.750 9.075 
128 1 15.295 13.721 -4.721 
129 1 0.517 12.738 15.919 
130 1 11.613 -4.338 -12.096 
131 1 -4.325 0.851 5.669 
132 1 -11.941 12.564 7.717 
133 1 8.722 -2.042 -11.641 
134 1 14.340 -16.084 13.891 
135 1 13.958 -5.836 5.163 
136 1 -2.587 -1.532 11.831 
137 1 1.614 6.331 1.546 
138 1 -1.402 14.946 -3.418 
139 1 -5.620 -12.695 -12.999 
140 1 -1.791 16.125 12.020 
141 1 -6.540 0.229 -5.756 
142 1 -11.366 1.508 7.350 
143 1 -6.547 -8.149 -3.467 
144 1 -3.776 15.937 8.927 
145 1 -8.788 8.566 7.842 
146 1 -8.032 -4.896 -8.292 
147 1 -14.231 -5.412 -7.020 
148 1 0.594 8.827 7.569 
149 1 -7.809 -3.287 -13.894 
150 1 -5.402 -11.960 6.571 
151 1 6.854 2.268 -0.095 
152 1 -9.962 4.462 4.596 
153 1 3.239 -2.853 9.240 
154 1 -3.640 -13.331 -16.038 
155 1 -5.426 8.678 16.367 
156 1 -0.716 8.166 -2.630 
157 1 13.530 10.333 -15.609 
158 1 -3.962 -3.457 14.648 
159 1 -14.404 8.509 -12.481 
160 1 -8.927 -4.353 12.630 
161 1 -7.275 -14.021 -16.347 
162 1 5.747 -10.100 6.459 
163 1 -0.724 -6.847 -7.457 
164 1 6.409 12.772 10.368 
165 1 -5.690 12.069 -6.717 
166 1 -5.343 -6.216 -14.279 
167 1 -3.967 4.350 4.674 
168 1 -1.368 8.083 1.062 
169 1 -6.143 -1.417 3.458 
170 1 -9.222 11.557 5.499 
171 1 3.732 1.079 -1.845 
172 1 4.255 12.349 7.461 
173 1 -4.124 8.928 -1.095 
174 1 -16.175 -4.909 -14.408 
175 1 11.755 -4.348 13.380 
176 1 4.833 2.395 14.344 
177 1 12.660 14.992 -11.073 
178 1 2.895 2.570 4.922 
179 1 -7.197 -14.696 7.850 
180 1 -3.550 -6.080 -3.347 
181 1 12.386 -12.869 10.308 
182 1 -8.115 -5.737 4.357 
183 1 6.740 2.661 4.223 
184 1 -2.568 10.280 -9.727 
185 1 14.222 0.257 -0.496 
186 1 -2.212 14.806 -8.712 
187 1 -4.513 -14.854 13.707 
188 1 8.591 7.108 7.065 
189 1 13.290 10.411 10.714 
190 1 4.491 -13.583 6.169 
191 1 -3.436 -15.626 5.070 
192 1 -5.765 -4.534 -11.073 
193 1 -9.032 -12.808 -11.681 
194 1 5.510 12.462 -5.104 
195 1 -14.097 2.122 9.837 
196 1 -6.072 10.709 13.349 
197 1 -5.404 2.352 12.714 
198 1 -1.695 1.008 15.393 
199 1 10.644 0.408 0.541 
200 1 7.048 -14.122 -7.577 
ITEM: TIMESTEP
30
ITEM: NUMBER OF ATOMS
200
ITEM: BOX BOUNDS pp pp pp
-16.49818434247616 16.49818434247616
-16.49818434247616 16.49818434247616
-16.49818434247616 16.49818434247616
ITEM: ATOMS id type x y z
1 1 4.929 5.037 2.388 
2 1 4.658 13.963 1.426 
3 1 3.181 1.779 -12.644 
4 1 -2.984 8.539 9.080 
5 1 -11.771 -3.669 4.185 
6 1 3.044 15.244 9.879 
7 1 5.189 -3.580 6.082 
8 1 2.546 12.328 12.298 
9 1 4.945 15.139 5.107 
10 1 -8.142 8.428 -2.307 
11 1 -0.417 -13.629 6.128 
12 1 12.754 13.933 8.364 
13 1 -9.675 -7.444 -1.822 
14 1 -15.974 -9.713 7.145 
15 1 8.398 2.267 13.282 
16 1 0.066 15.842 -11.136 
17 1 -3.403 -11.954 -0.339 
18 1 -0.548 -12.357 -5.488 
19 1 -7.232 2.639 6.829 
20 1 -1.904 0.301 -5.062 
21 1 0.802 -4.569 -14.308 
22 1 -1.738 -9.252 -10.259 
23 1 10.903 10.447 -10.950 
24 1 14.390 11.438 -8.658 
25 1 -10.566 11.807 11.773 
26 1 7.540 -14.319 -14.296 
27 1 -14.598 2.197 5.119 
28 1 -14.334 12.386 -8.256 
29 1 -0.852 7.055 -6.495 
30 1 -10.498 -4.300 7.727 
31 1 -8.852 1.212 3.826 
32 1 0.837 12.329 6.155 
33 1 0.555 -0.451 -10.846 
34 1 -14.176 8.341 13.115 
35 1 -3.293 -13.718 9.120 
36 1 -13.116 2.987 13.223 
37 1 4.578 -8.584 14.861 
38 1 -2.974 -11.943 3.565 
39 1 -9.285 4.843 9.058 
40 1 0.507 4.375 -14.135 
41 1 -1.641 -8.922 -4.249 
42 1 16.028 -16.491 -11.385 
43 1 16.209 -3.225 2.194 
44 1 4.056 -1.875 -11.455 
45 1 5.813 -15.958 -4.339 
46 1 -7.359 15.409 10.430 
47 1 -10.710 -10.689 7.885 
48 1 3.635 -15.198 2.658 
49 1 5.726 1.244 10.685 
50 1 6.233 10.712 -12.098 
51 1 -5.597 11.338 6.322 
52 1 2.329 7.479 10.824 
53 1 8.051 -12.714 -10.916 
54 1 12.331 14.405 1.596 
55 1 4.180 -5.483 -12.800 
56 1 -10.632 0.664 15.070 
57 1 7.414 10.407 7.600 
58 1 15.370 -2.157 -9.704 
59 1 5.307 -11.270 -13.164 
60 1 0.351 2.915 -0.914 
61 1 14.089 12.814 4.685 
62 1 -12.957 -6.534 -12.184 
63 1 6.629 16.337 9.099 
64 1 -8.965 -11.797 3.491 
65 1 -7.588 7.889 11.032 
66 1 -9.803 13.479 -4.376 
67 1 12.834 2.824 6.028 
68 1 13.977 4.302 -6.920 
69 1 1.886 -8.082 -15.435 
70 1 -7.824 11.671 9.337 
71 1 15.101 0.175 4.033 
72 1 10.878 -14.889 2.448 
73 1 -9.417 -15.477 2.037 
74 1 -11.152 1.251 -14.113 
75 1 0.087 -12.035 1.285 
76 1 10.800 15.223 14.685 
77 1 -4.262 -8.800 1.560 
78 1 2.036 -9.937 -11.483 
79 1 6.489 -11.596 16.242 
80 1 -15.749 -2.573 5.744 
81 1 -2.437 -5.513 -10.816 
82 1 -7.805 14.550 6.768 
83 1 -4.714 -12.452 -3.896 
84 1 -7.351 0.746 10.020 
85 1 -15.839 11.590 -14.104 
86 1 -3.520 -10.535 -7.047 
87 1 -6.393 10.970 -10.207 
88 1 0.114 3.865 -4.529 
89 1 -3.292 -3.202 -6.696 
90 1 4.180 4.661 -1.609 
91 1 14.434 -12.131 3.067 
92 1 -0.314 15.949 8.002 
93 1 -9.465 4.819 -8.684 
94 1 13.444 7.651 -8.953 
95 1 1.228 15.763 4.638 
96 1 -10.099 6.652 -5.128 
97 1 -5.861 6.160 8.092 
98 1 -13.785 3.256 -9.211 
99 1 -6.536 11.754 -3.115 
100 1 3.459 -2.192 -5.869 
101 1 -2.298 12.426 8.056 
102 1 -11.556 -8.896 4.149 
103 1 -16.280 -5.655 -10.319 
104 1 -10.578 11.436 -13.416 
105 1 -6.689 -13.389 10.990 
106 1 8.015 -6.207 -12.445 
107 1 -0.983 -2.230 1.571 
108 1 9.467 12.470 -13.866 
109 1 -7.788 8.093 4.047 
110 1 -2.089 5.200 11.017 
111 1 1.430 -4.819 11.885 
112 1 10.112 15.361 10.862 
113 1 -14.113 4.639 -12.758 
114 1 9.376 5.531 10.465 
115 1 -9.988 -9.795 -13.812 
116 1 0.979 -3.040 -1.688 
117 1 10.580 -4.515 5.100 
118 1 -7.946 -4.673 -3.859 
119 1 11.599 -12.360 -12.215 
120 1 -4.938 -1.891 8.779 
121 1 5.535 3.525 -15.176 
122 1 -8.671 10.147 -5.814 
123 1 -6.695 11.686 2.699 
124 1 5.400 3.741 7.678 
125 1 1.155 -4.277 -10.544 
126 1 -11.291 -7.365 9.861 
127 1 -4.236 2.801 8.984 
128 1 15.374 13.426 -5.300 
129 1 0.533 12.795 15.701 
130 1 11.569 -4.462 -12.024 
131 1 -4.302 0.542 5.967 
132 1 -11.313 12.709 8.182 
133 1 8.194 -2.477 -11.721 
134 1 14.002 -16.049 13.534 
135 1 14.433 -5.312 4.969 
136 1 -2.892 -1.002 11.821 
137 1 1.567 5.930 0.914 
138 1 -1.566 14.910 -3.675 
139 1 -5.613 -12.515 -13.126 
140 1 -1.702 16.220 11.541 
141 1 -5.920 -0.299 -5.796 
142 1 -10.941 1.787 7.088 
143 1 -6.300 -8.237 -3.627 
144 1 -4.262 15.865 8.646 
145 1 -8.858 8.403 7.612 
146 1 -7.917 -4.853 -7.643 
147 1 -14.161 -5.337 -7.206 
148 1 0.634 8.846 7.700 
149 1 -7.849 -3.314 -14.141 
150 1 -5.322 -11.687 6.462 
151 1 6.610 2.316 0.380 
152 1 -9.709 4.905 5.205 
153 1 3.360 -2.588 9.342 
154 1 -3.413 -13.324 -16.175 
155 1 -5.515 8.796 16.068 
156 1 -0.823 7.578 -2.641 
157 1 13.552 10.642 -15.189 
158 1 -4.034 -3.240 14.790 
159 1 -14.316 8.525 -12.380 
160 1 -8.957 -4.312 12.196 
161 1 -7.137 -13.920 -16.396 
162 1 5.639 -10.349 6.417 
163 1 -1.085 -6.720 -7.434 
164 1 6.525 12.871 10.615 
165 1 -5.324 12.088 -6.735 
166 1 -5.123 -6.058 -14.167 
167 1 -4.389 4.298 5.188 
168 1 -1.564 8.155 1.078 
169 1 -6.374 -1.777 3.754 
170 1 -9.265 11.322 5.305 
171 1 3.470 0.938 -1.739 
172 1 4.219 12.479 7.684 
173 1 -4.402 8.981 -1.406 
174 1 -16.018 -4.977 -14.000 
175 1 11.745 -4.326 13.409 
176 1 4.707 2.404 14.244 
177 1 12.719 14.438 -11.124 
178 1 3.067 2.669 4.711 
179 1 -6.936 -15.072 7.634 
180 1 -3.529 -5.663 -3.814 
181 1 12.382 -13.380 10.499 
182 1 -8.417 -5.510 4.568 
183 1 6.874 2.422 4.352 
184 1 -2.700 10.561 -9.201 
185 1 14.267 0.058 0.168 
186 1 -2.484 14.298 -8.526 
187 1 -4.555 -15.087 13.534 
188 1 8.279 6.553 6.920 
189 1 13.097 10.800 10.540 
190 1 4.261 -14.238 6.322 
191 1 -3.768 -15.191 5.582 
192 1 -6.023 -4.312 -10.890 
193 1 -9.131 -12.894 -11.753 
194 1 5.518 12.838 -5.026 
195 1 -13.902 2.173 9.463 
196 1 -6.333 10.974 12.793 
197 1 -4.881 2.136 12.628 
198 1 -2.075 0.881 14.993 
199 1 10.376 0.638 0.691 
200 1 7.004 -14.178 -7.554 
ITEM: TIMESTEP
40
ITEM: NUMBER OF ATOMS
200
ITEM: BOX BOUNDS pp pp pp
-16.49818434247616 16.49818434247616
-16.49818434247616 16.49818434247616
-16.49818434247616 16.49818434247616
ITEM: ATOMS id type x y z
1 1 4.880 5.073 2.252 
2 1 4.391 14.270 1.766 
3 1 3.156 1.494 -12.665 
4 1 -3.441 8.710 8.975 
5 1 -11.985 -3.612 4.386 
6 1 2.806 15.375 9.338 
7 1 5.225 -3.467 6.196 
8 1 2.697 12.288 11.727 
9 1 4.830 15.071 5.432 
10 1 -8.073 8.501 -2.448 
11 1 -0.337 -13.781 6.077 
12 1 12.589 14.061 8.334 
13 1 -9.297 -7.494 -1.920 
14 1 -15.710 -9.612 6.960 
15 1 8.314 2.503 13.026 
16 1 -0.146 15.730 -10.945 
17 1 -3.203 -11.939 -0.351 
18 1 -0.930 -12.283 -5.443 
19 1 -7.199 2.675 6.822 
20 1 -1.846 0.119 -5.055 
21 1 0.633 -4.584 -13.967 
22 1 -1.536 -9.088 -10.268 
23 1 11.359 10.433 -10.985 
24 1 14.471 11.561 -9.016 
25 1 -10.193 11.512 11.856 
26 1 7.640 -14.116 -14.216 
27 1 -14.452 1.663 5.537 
28 1 -14.860 12.353 -8.369 
29 1 -1.006 7.196 -6.335 
30 1 -10.283 -4.157 7.796 
31 1 -8.902 1.256 3.904 
32 1 0.835 12.746 6.266 
33 1 0.564 -0.759 -10.911 
34 1 -13.959 8.344 13.057 
35 1 -3.251 -14.022 8.978 
36 1 -12.949 3.012 13.013 
37 1 4.505 -8.501 15.064 
38 1 -2.983 -12.115 3.589 
39 1 -9.264 4.742 9.247 
40 1 0.835 4.110 -14.184 
41 1 -2.034 -8.939 -3.960 
42 1 15.870 16.077 -11.305 
43 1 16.101 -2.959 2.152 
44 1 4.053 -2.099 -11.592 
45 1 5.794 -16.129 -4.414 
46 1 -7.520 15.286 10.462 
47 1 -10.456 -10.592 7.553 
48 1 3.807 -15.046 2.714 
49 1 5.636 1.257 10.551 
50 1 6.762 10.835 -12.143 
51 1 -5.363 10.817 6.242 
52 1 2.226 7.688 10.742 
53 1 7.892 -12.533 -10.822 
54 1 12.319 14.550 1.770 
55 1 4.062 -5.758 -12.643 
56 1 -10.623 0.721 15.077 
57 1 7.431 10.368 7.876 
58 1 15.329 -2.333 -9.878 
59 1 5.225 -11.038 -13.183 
60 1 0.442 2.906 -0.861 
61 1 13.900 12.960 4.879 
62 1 -12.980 -6.559 -12.109 
63 1 6.468 16.175 8.627 
64 1 -8.733 -11.748 4.110 
65 1 -7.414 7.990 10.988 
66 1 -9.594 13.298 -4.420 
67 1 12.910 2.656 5.862 
68 1 14.032 4.542 -7.128 
69 1 2.160 -7.998 -15.020 
70 1 -7.590 11.434 9.344 
71 1 15.230 0.150 4.163 
72 1 11.215 -14.856 2.539 
73 1 -9.205 -15.269 2.387 
74 1 -11.360 1.486 -14.141 
75 1 0.172 -12.292 1.508 
76 1 10.674 15.116 14.576 
77 1 -4.308 -8.961 1.676 
78 1 2.067 -9.425 -11.571 
79 1 6.483 -11.514 16.272 
80 1 -15.440 -2.441 5.652 
81 1 -2.316 -5.428 -10.913 
82 1 -7.448 14.339 6.734 
83 1 -4.398 -11.942 -3.955 
84 1 -7.495 1.031 10.151 
85 1 -15.987 11.630 -13.805 
86 1 -3.601 -10.025 -7.176 
87 1 -6.462 10.956 -9.962 
88 1 0.066 3.889 -4.475 
89 1 -3.354 -3.362 -7.226 
90 1 3.914 4.428 -1.435 
91 1 14.178 -12.352 3.125 
92 1 -0.653 15.864 7.836 
93 1 -9.902 4.855 -8.625 
94 1 13.456 7.868 -9.041 
95 1 1.262 16.061 4.746 
96 1 -9.985 6.707 -5.252 
97 1 -5.948 6.077 8.038 
98 1 -13.467 3.458 -9.209 
99 1 -6.380 11.810 -3.040 
100 1 3.039 -2.078 -5.674 
101 1 -2.341 12.259 8.235 
102 1 -11.184 -8.566 4.440 
103 1 -16.335 -5.844 -10.333 
104 1 -10.931 11.184 -13.250 
105 1 -6.579 -13.592 10.844 
106 1 7.890 -6.279 -12.491 
107 1 -0.925 -2.107 1.379 
108 1 9.858 12.515 -13.760 
109 1 -7.178 8.053 4.363 
110 1 -2.521 5.406 10.838 
111 1 1.478 -4.655 11.870 
112 1 9.933 15.364 10.771 
113 1 -13.842 4.639 -12.820 
114 1 8.929 5.173 10.368 
115 1 -9.906 -9.646 -13.716 
116 1 1.047 -2.481 -1.996 
117 1 10.770 -4.417 5.059 
118 1 -7.334 -4.793 -3.744 
119 1 11.352 -12.532 -12.385 
120 1 -5.267 -1.630 8.619 
121 1 5.260 3.437 -15.207 
122 1 -8.319 10.073 -5.967 
123 1 -6.519 11.523 2.709 
124 1 5.539 3.753 7.634 
125 1 1.280 -4.483 -10.267 
126 1 -11.074 -7.352 9.703 
127 1 -4.144 2.628 8.902 
128 1 15.514 13.281 -5.727 
129 1 0.673 12.812 15.272 
130 1 11.374 -4.402 -11.942 
131 1 -4.317 0.572 5.725 
132 1 -10.865 12.901 8.337 
133 1 7.901 -2.563 -11.741 
134 1 13.746 -16.130 13.222 
135 1 14.601 -4.974 4.990 
136 1 -3.051 -0.862 11.599 
137 1 1.441 6.101 0.873 
138 1 -1.816 14.789 -4.097 
139 1 -5.612 -12.367 -13.304 
140 1 -1.941 16.256 11.405 
141 1 -5.672 -0.775 -5.754 
142 1 -10.819 1.875 7.118 
143 1 -5.948 -8.478 -3.775 
144 1 -4.410 15.402 8.541 
145 1 -8.983 8.287 7.635 
146 1 -7.437 -4.772 -7.464 
147 1 -14.066 -5.265 -7.371 
148 1 0.307 9.327 7.882 
149 1 -7.698 -3.393 -14.120 
150 1 -5.400 -11.873 6.488 
151 1 6.452 2.133 0.419 
152 1 -9.497 5.147 5.423 
153 1 3.510 -2.330 9.472 
154 1 -3.358 -13.359 -16.263 
155 1 -5.628 8.894 15.699 
156 1 -0.759 7.034 -2.409 
157 1 13.264 11.002 -14.474 
158 1 -3.985 -2.824 14.828 
159 1 -14.162 8.569 -12.343 
160 1 -9.102 -4.359 11.572 
161 1 -7.094 -13.907 16.478 
162 1 5.436 -10.829 6.377 
163 1 -1.582 -6.723 -7.271 
164 1 6.458 13.021 10.684 
165 1 -5.227 12.162 -6.589 
166 1 -4.799 -5.953 -13.971 
167 1 -4.305 4.364 5.187 
168 1 -1.739 8.152 1.119 
169 1 -6.762 -1.934 4.234 
170 1 -9.162 11.205 5.381 
171 1 3.403 0.656 -1.715 
172 1 4.150 12.235 7.865 
173 1 -4.314 8.936 -1.578 
174 1 -15.983 -4.897 -13.955 
175 1 11.738 -4.310 13.434 
176 1 4.678 2.409 14.132 
177 1 12.723 13.913 -11.452 
178 1 3.183 2.738 4.687 
179 1 -7.005 -15.127 7.468 
180 1 -3.637 -5.528 -4.149 
181 1 12.212 -13.925 10.576 
182 1 -8.618 -5.445 4.610 
183 1 6.984 2.561 4.252 
184 1 -2.755 10.424 -8.925 
185 1 14.093 -0.102 0.527 
186 1 -2.542 14.228 -8.288 
187 1 -4.642 -15.215 13.588 
188 1 8.019 6.537 6.923 
189 1 12.910 10.972 10.536 
190 1 3.730 -14.504 6.554 
191 1 -3.739 -15.352 5.527 
192 1 -5.863 -4.164 -10.793 
193 1 -9.102 -12.923 -11.919 
194 1 5.525 13.101 -4.990 
195 1 -13.827 2.264 9.331 
196 1 -6.449 11.214 12.748 
197 1 -4.818 2.354 12.567 
198 1 -2.262 0.700 14.972 
199 1 10.258 0.793 0.894 
200 1 6.955 -14.248 -7.548 
ITEM: TIMESTEP
50
ITEM: NUMBER OF ATOMS
200
ITEM: BOX BOUNDS pp pp pp
-16.49818434247616 16.49818434247616
-16.49818434247616 16.49818434247616
-16.49818434247616 16.49818434247616
ITEM: ATOMS id type x y z
1 1 4.854 5.095 2.187 
2 1 4.107 14.440 1.945 
3 1 3.139 1.263 -12.613 
4 1 -3.802 8.931 9.107 
5 1 -11.958 -3.610 4.413 
6 1 2.722 15.316 8.910 
7 1 5.244 -3.343 6.291 
8 1 2.607 12.272 11.341 
9 1 4.548 14.926 5.614 
10 1 -8.012 8.520 -2.510 
11 1 -0.371 -13.695 5.966 
12 1 12.500 14.255 8.378 
13 1 -9.050 -7.580 -1.960 
14 1 -15.458 -9.512 6.846 
15 1 8.249 2.466 12.985 
16 1 -0.224 15.694 -10.877 
17 1 -2.974 -11.884 -0.380 
18 1 -1.023 -12.103 -5.540 
19 1 -7.184 2.577 6.818 
20 1 -1.698 -0.140 -4.986 
21 1 0.592 -4.634 -13.596 
22 1 -1.515 -9.020 -10.254 
23 1 11.241 10.391 -11.039 
24 1 14.499 11.597 -9.327 
25 1 -10.019 11.291 11.720 
26 1 7.748 -13.934 -14.134 
27 1 -14.327 1.324 5.633 
28 1 -14.893 12.391 -8.705 
29 1 -1.140 7.264 -6.103 
30 1 -10.163 -3.955 7.718 
31 1 -8.951 1.290 3.915 
32 1 0.926 12.963 6.418 
33 1 0.457 -1.109 -11.002 
34 1 -13.723 8.349 12.985 
35 1 -3.186 -14.105 8.916 
36 1 -12.766 3.090 12.921 
37 1 4.536 -8.434 15.129 
38 1 -3.044 -12.252 3.560 
39 1 -9.200 4.643 9.347 
40 1 1.127 3.987 -14.325 
41 1 -2.087 -8.856 -3.832 
42 1 16.006 15.573 -11.180 
43 1 16.205 -2.875 2.148 
44 1 3.957 -2.319 -11.648 
45 1 5.779 -16.105 -4.406 
46 1 -7.813 14.998 10.344 
47 1 -10.262 -10.605 7.584 
48 1 3.876 -14.872 2.950 
49 1 5.595 1.211 10.512 
50 1 7.106 10.810 -12.053 
51 1 -5.224 10.871 6.211 
52 1 2.295 8.014 10.714 
53 1 7.728 -12.315 -10.743 
54 1 12.327 14.573 1.822 
55 1 4.049 -5.951 -12.480 
56 1 -10.601 0.789 15.115 
57 1 7.519 10.337 8.057 
58 1 15.299 -2.489 -10.058 
59 1 5.182 -10.751 -13.211 
60 1 0.384 2.866 -0.834 
61 1 13.820 13.017 4.981 
62 1 -12.984 -6.573 -12.041 
63 1 6.468 16.230 8.598 
64 1 -8.529 -11.713 4.395 
65 1 -7.108 8.032 11.050 
66 1 -9.449 13.179 -4.496 
67 1 12.827 2.613 5.783 
68 1 14.092 4.625 -7.226 
69 1 2.123 -7.984 -14.998 
70 1 -7.289 11.355 9.126 
71 1 15.233 0.122 4.237 
72 1 11.254 -14.854 2.614 
73 1 -8.982 -15.156 2.749 
74 1 -11.512 1.694 -14.173 
75 1 0.278 -12.614 1.809 
76 1 10.550 15.019 14.514 
77 1 -4.391 -9.096 1.762 
78 1 2.149 -9.019 -11.388 
79 1 6.500 -11.462 16.292 
80 1 -15.331 -2.379 5.677 
81 1 -2.171 -5.326 -10.871 
82 1 -7.369 14.059 6.505 
83 1 -4.440 -11.888 -3.925 
84 1 -7.602 1.278 10.257 
85 1 -16.027 11.779 -13.264 
86 1 -3.740 -9.796 -7.086 
87 1 -6.498 10.892 -9.631 
88 1 0.079 3.781 -4.478 
89 1 -3.352 -3.466 -7.725 
90 1 3.828 4.374 -1.458 
91 1 14.150 -12.402 3.178 
92 1 -0.890 15.989 7.755 
93 1 -9.977 4.943 -8.673 
94 1 13.531 7.936 -9.120 
95 1 1.145 16.170 4.558 
96 1 -9.952 6.769 -5.302 
97 1 -5.947 5.989 8.077 
98 1 -13.472 3.516 -9.245 
99 1 -6.288 11.821 -2.918 
100 1 2.698 -1.894 -5.497 
101 1 -2.358 12.416 8.309 
102 1 -11.034 -8.390 4.607 
103 1 -16.400 -6.028 -10.337 
104 1 -11.283 11.025 -13.132 
105 1 -6.522 -13.794 10.690 
106 1 7.838 -6.376 -12.513 
107 1 -0.832 -1.950 1.192 
108 1 9.874 12.666 -13.843 
109 1 -6.869 7.831 4.694 
110 1 -3.045 5.519 10.699 
111 1 1.543 -4.509 11.833 
112 1 9.780 15.414 10.756 
113 1 -13.635 4.704 -12.860 
114 1 8.513 4.966 10.136 
115 1 -9.861 -9.535 -13.628 
116 1 0.827 -2.167 -2.231 
117 1 10.883 -4.307 5.020 
118 1 -7.174 -4.681 -3.565 
119 1 11.061 -12.676 -12.557 
120 1 -5.599 -1.310 8.420 
121 1 4.953 3.408 -15.230 
122 1 -8.073 10.015 -6.053 
123 1 -6.473 11.365 2.718 
124 1 5.637 3.724 7.644 
125 1 1.397 -4.711 -9.937 
126 1 -10.945 -7.304 9.432 
127 1 -4.077 2.386 8.906 
128 1 15.504 13.224 -5.966 
129 1 0.781 12.821 14.837 
130 1 11.259 -4.392 -11.894 
131 1 -4.246 0.602 5.468 
132 1 -10.531 13.014 8.356 
133 1 7.775 -2.648 -11.762 
134 1 13.658 -16.355 13.087 
135 1 14.702 -4.755 5.068 
136 1 -3.279 -0.670 11.414 
137 1 1.398 6.108 0.865 
138 1 -2.164 14.538 -4.463 
139 1 -5.614 -12.238 -13.426 
140 1 -1.989 16.157 11.331 
141 1 -5.605 -1.320 -5.627 
142 1 -10.738 1.849 7.195 
143 1 -5.854 -8.349 -4.002 
144 1 -4.371 15.392 8.657 
145 1 -9.000 8.200 7.833 
146 1 -6.894 -4.716 -7.255 
147 1 -14.000 -5.215 -7.545 
148 1 0.142 9.570 8.019 
149 1 -7.547 -3.461 -14.082 
150 1 -5.355 -11.998 6.552 
151 1 6.314 2.047 0.461 
152 1 -9.414 5.124 5.557 
153 1 3.638 -2.102 9.580 
154 1 -3.342 -13.383 -16.316 
155 1 -5.703 8.833 15.445 
156 1 -0.762 6.782 -2.254 
157 1 13.332 11.068 -14.149 
158 1 -4.029 -2.679 14.757 
159 1 -14.095 8.574 -12.280 
160 1 -9.105 -4.359 11.332 
161 1 -7.092 -13.899 16.430 
162 1 5.234 -11.249 6.316 
163 1 -1.523 -6.725 -7.276 
164 1 6.485 13.080 10.669 
165 1 -5.113 12.312 -6.397 
166 1 -4.556 -5.893 -13.843 
167 1 -4.315 4.434 5.139 
168 1 -1.852 8.111 1.184 
169 1 -7.038 -1.917 4.793 
170 1 -9.029 11.037 5.472 
171 1 3.364 0.635 -1.758 
172 1 4.137 11.940 7.937 
173 1 -4.207 8.835 -1.749 
174 1 -15.947 -4.805 -13.861 
175 1 11.735 -4.301 13.454 
176 1 4.607 2.409 14.064 
177 1 12.719 13.862 -11.685 
178 1 3.286 2.734 4.677 
179 1 -7.103 -15.156 7.307 
180 1 -3.591 -5.346 -4.434 
181 1 11.917 -14.326 10.440 
182 1 -8.600 -5.460 4.629 
183 1 7.085 2.687 4.205 
184 1 -2.767 10.360 -8.673 
185 1 13.899 -0.124 0.685 
186 1 -2.456 14.186 -8.223 
187 1 -4.693 -15.321 13.613 
188 1 7.906 6.623 6.766 
189 1 12.734 11.137 10.545 
190 1 3.415 -14.643 6.716 
191 1 -3.723 -15.507 5.518 
192 1 -5.703 -3.996 -10.750 
193 1 -9.084 -12.943 -12.066 
194 1 5.521 13.131 -5.000 
195 1 -13.800 2.303 9.315 
196 1 -6.352 11.411 12.708 
197 1 -4.840 2.580 12.541 
198 1 -2.337 0.740 14.871 
199 1 10.102 0.910 1.110 
200 1 6.934 -14.287 -7.573 
ITEM: TIMESTEP
60
ITEM: NUMBER OF ATOMS
200
ITEM: BOX BOUNDS pp pp pp
-16.49818434247616 16.49818434247616
-16.49818434247616 16.49818434247616
-16.49818434247616 16.49818434247616
ITEM: ATOMS id type x y z
1 1 4.867 5.135 2.157 
2 1 3.786 14.604 2.005 
3 1 3.032 1.106 -12.596 
4 1 -3.972 9.103 9.159 
5 1 -11.880 -3.617 4.373 
6 1 2.639 15.184 8.987 
7 1 5.266 -3.221 6.361 
8 1 2.442 12.151 11.171 
9 1 4.369 14.865 5.667 
10 1 -7.944 8.506 -2.507 
11 1 -0.444 -13.656 5.913 
12 1 12.469 14.526 8.459 
13 1 -8.891 -7.624 -1.960 
14 1 -15.135 -9.396 6.748 
15 1 8.227 2.445 13.002 
16 1 -0.204 15.725 -10.916 
17 1 -2.746 -11.822 -0.372 
18 1 -1.088 -11.905 -5.624 
19 1 -7.160 2.467 6.863 
20 1 -1.571 -0.421 -5.017 
21 1 0.734 -4.636 -13.386 
22 1 -1.601 -8.997 -10.235 
23 1 11.153 10.491 -11.031 
24 1 14.563 11.602 -9.704 
25 1 -9.835 10.994 11.533 
26 1 7.635 -13.868 -14.080 
27 1 -14.221 1.238 5.651 
28 1 -14.821 12.423 -9.100 
29 1 -1.277 7.304 -5.923 
30 1 -9.961 -3.651 7.619 
31 1 -9.039 1.381 3.931 
32 1 0.917 13.007 6.410 
33 1 0.263 -1.539 -11.056 
34 1 -13.464 8.343 12.890 
35 1 -3.003 -14.082 8.907 
36 1 -12.554 3.196 12.821 
37 1 4.541 -8.352 15.249 
38 1 -3.158 -12.367 3.509 
39 1 -9.245 4.615 9.417 
40 1 1.188 3.910 -14.416 
41 1 -2.111 -8.683 -3.822 
42 1 16.131 15.047 -10.911 
43 1 16.305 -2.804 2.153 
44 1 3.848 -2.456 -11.620 
45 1 5.772 -16.075 -4.415 
46 1 -7.795 14.840 10.308 
47 1 -10.138 -10.679 7.686 
48 1 3.830 -14.715 3.144 
49 1 5.628 1.283 10.479 
50 1 7.399 10.765 -11.937 
51 1 -4.953 10.970 6.047 
52 1 2.495 8.384 10.683 
53 1 7.595 -12.119 -10.744 
54 1 12.341 14.576 1.861 
55 1 4.167 -6.040 -12.451 
56 1 -10.560 0.848 15.122 
57 1 7.589 10.305 8.187 
58 1 15.294 -2.665 -10.290 
59 1 5.120 -10.349 -13.239 
60 1 0.323 2.822 -0.798 
61 1 13.740 13.078 5.096 
62 1 -12.998 -6.562 -11.939 
63 1 6.327 16.276 8.564 
64 1 -8.377 -11.619 4.469 
65 1 -6.994 8.043 11.199 
66 1 -9.278 13.095 -4.568 
67 1 12.700 2.558 5.667 
68 1 14.154 4.707 -7.321 
69 1 2.106 -8.012 -14.879 
70 1 -7.101 11.274 8.986 
71 1 15.256 0.063 4.363 
72 1 11.250 -14.864 2.687 
73 1 -8.690 -15.196 3.190 
74 1 -11.562 1.781 -14.219 
75 1 0.349 -12.997 2.175 
76 1 10.450 14.919 14.491 
77 1 -4.512 -9.217 1.797 
78 1 2.058 -8.827 -11.199 
79 1 6.500 -11.389 16.334 
80 1 -15.228 -2.429 5.713 
81 1 -2.047 -5.291 -10.870 
82 1 -7.168 14.063 6.446 
83 1 -4.444 -11.711 -3.868 
84 1 -7.672 1.352 10.390 
85 1 -16.084 11.816 -12.664 
86 1 -3.787 -9.581 -7.085 
87 1 -6.456 10.869 -9.457 
88 1 0.125 3.675 -4.467 
89 1 -3.026 -3.287 -7.859 
90 1 3.739 4.360 -1.465 
91 1 14.157 -12.424 3.224 
92 1 -0.874 16.032 7.693 
93 1 -10.030 5.038 -8.740 
94 1 13.549 8.005 -9.249 
95 1 1.020 16.196 4.424 
96 1 -9.930 6.818 -5.340 
97 1 -6.000 5.925 8.135 
98 1 -13.511 3.563 -9.269 
99 1 -6.185 11.818 -2.793 
100 1 2.429 -1.660 -5.554 
101 1 -2.379 12.550 8.412 
102 1 -11.037 -8.322 4.865 
103 1 -16.480 -6.234 -10.330 
104 1 -11.524 11.059 -13.032 
105 1 -6.438 -14.105 10.477 
106 1 7.889 -6.510 -12.531 
107 1 -0.817 -1.742 1.180 
108 1 9.943 12.668 -14.025 
109 1 -6.697 7.793 4.919 
110 1 -3.354 5.667 10.726 
111 1 1.598 -4.399 11.812 
112 1 9.575 15.287 10.762 
113 1 -13.530 4.818 -12.857 
114 1 8.235 4.804 10.020 
115 1 -9.827 -9.442 -13.544 
116 1 0.562 -1.986 -2.312 
117 1 10.939 -4.178 4.976 
118 1 -7.127 -4.593 -3.443 
119 1 10.934 -12.694 -12.571 
120 1 -5.754 -1.091 8.378 
121 1 4.861 3.306 -15.251 
122 1 -7.865 9.921 -6.013 
123 1 -6.468 11.187 2.630 
124 1 5.609 3.672 7.534 
125 1 1.499 -4.989 -9.728 
126 1 -10.852 -7.154 9.059 
127 1 -3.957 2.362 8.923 
128 1 15.543 13.163 -6.337 
129 1 0.782 12.856 14.536 
130 1 11.200 -4.403 -11.857 
131 1 -4.216 0.607 5.363 
132 1 -10.394 12.965 8.291 
133 1 7.660 -2.770 -11.787 
134 1 13.551 16.403 12.906 
135 1 14.727 -4.605 5.088 
136 1 -3.509 -0.583 11.372 
137 1 1.359 6.057 0.944 
138 1 -2.428 14.308 -4.489 
139 1 -5.609 -12.111 -13.527 
140 1 -1.953 16.037 11.307 
141 1 -5.381 -1.744 -5.383 
142 1 -10.702 1.738 7.314 
143 1 -5.863 -8.158 -4.226 
144 1 -4.566 15.537 8.682 
145 1 -9.008 8.162 8.025 
146 1 -6.432 -5.017 -7.127 
147 1 -13.934 -5.180 -7.766 
148 1 0.087 9.735 8.128 
149 1 -7.422 -3.509 -14.072 
150 1 -5.289 -12.117 6.640 
151 1 6.170 1.996 0.496 
152 1 -9.324 5.102 5.655 
153 1 3.695 -1.975 9.641 
154 1 -3.346 -13.415 -16.370 
155 1 -5.800 8.755 15.035 
156 1 -0.787 6.579 -2.164 
157 1 13.444 11.051 -13.959 
158 1 -4.108 -2.589 14.663 
159 1 -14.251 8.560 -12.120 
160 1 -9.056 -4.345 11.226 
161 1 -7.094 -13.905 16.405 
162 1 5.089 -11.554 6.177 
163 1 -1.358 -6.658 -7.295 
164 1 6.323 13.099 10.605 
165 1 -5.128 12.420 -6.299 
166 1 -4.405 -5.871 -13.786 
167 1 -4.403 4.472 5.123 
168 1 -1.940 8.042 1.197 
169 1 -7.377 -1.812 5.109 
170 1 -8.854 10.885 5.530 
171 1 3.280 0.624 -1.846 
172 1 4.099 11.765 7.868 
173 1 -4.103 8.741 -1.916 
174 1 -15.934 -4.678 -13.704 
175 1 11.732 -4.293 13.471 
176 1 4.555 2.410 14.015 
177 1 12.615 14.007 -11.752 
178 1 3.377 2.694 4.603 
179 1 -7.257 -15.255 7.037 
180 1 -3.583 -5.177 -4.629 
181 1 11.766 -14.618 10.254 
182 1 -8.534 -5.470 4.638 
183 1 7.207 2.795 4.140 
184 1 -2.784 10.265 -8.393 
185 1 13.733 -0.162 0.878 
186 1 -2.461 14.103 -8.326 
187 1 -4.693 -15.392 13.562 
188 1 7.808 6.634 6.654 
189 1 12.527 11.349 10.556 
190 1 3.159 -14.766 6.856 
191 1 -3.754 -15.572 5.514 
192 1 -5.598 -3.961 -10.684 
193 1 -9.066 -12.959 -12.223 
194 1 5.520 13.158 -5.015 
195 1 -13.831 2.343 9.306 
196 1 -6.191 11.607 12.543 
197 1 -4.917 2.727 12.547 
198 1 -2.380 0.822 14.746 
199 1 9.951 1.032 1.365 
200 1 6.926 -14.303 -7.631 
ITEM: TIMESTEP
70
ITEM: NUMBER OF ATOMS
200
ITEM: BOX BOUNDS pp pp pp
-16.49818434247616 16.49818434247616
-16.49818434247616 16.49818434247616
-16.49818434247616 16.49818434247616
ITEM: ATOMS id type x y z
1 1 4.911 5.215 2.116 
2 1 3.532 14.773 2.018 
3 1 2.888 0.966 -12.624 
4 1 -3.916 9.104 9.060 
5 1 -11.772 -3.620 4.377 
6 1 2.601 15.083 9.056 
7 1 5.295 -3.091 6.409 
8 1 2.218 12.061 11.064 
9 1 4.204 14.851 5.685 
10 1 -7.870 8.480 -2.463 
11 1 -0.556 -13.588 5.976 
12 1 12.515 14.804 8.559 
13 1 -8.748 -7.650 -1.937 
14 1 -14.617 -9.225 6.655 
15 1 8.227 2.442 13.062 
16 1 -0.232 15.722 -10.900 
17 1 -2.602 -11.768 -0.352 
18 1 -1.133 -11.705 -5.711 
19 1 -7.253 2.367 6.943 
20 1 -1.572 -0.631 -5.222 
21 1 0.897 -4.734 -13.306 
22 1 -1.696 -8.941 -10.255 
23 1 11.129 10.578 -10.960 
24 1 14.630 11.536 -9.939 
25 1 -9.687 10.674 11.347 
26 1 7.512 -13.861 -14.010 
27 1 -14.088 1.166 5.631 
28 1 -14.674 12.169 -9.226 
29 1 -1.437 7.332 -5.720 
30 1 -9.866 -3.335 7.613 
31 1 -9.157 1.588 3.985 
32 1 0.845 13.047 6.362 
33 1 0.021 -1.888 -10.873 
34 1 -13.105 8.318 12.740 
35 1 -2.845 -14.064 8.980 
36 1 -12.233 3.343 12.619 
37 1 4.556 -8.236 15.424 
38 1 -3.228 -12.462 3.468 
39 1 -9.381 4.593 9.521 
40 1 1.167 3.832 -14.481 
41 1 -2.085 -8.533 -3.855 
42 1 16.096 14.916 -10.680 
43 1 16.405 -2.719 2.162 
44 1 3.687 -2.568 -11.561 
45 1 5.785 -16.031 -4.466 
46 1 -7.729 14.705 10.324 
47 1 -10.020 -10.727 7.754 
48 1 3.850 -14.650 3.386 
49 1 5.690 1.402 10.435 
50 1 7.482 10.790 -11.928 
51 1 -4.740 11.060 5.932 
52 1 2.788 8.428 10.494 
53 1 7.452 -11.906 -10.781 
54 1 12.370 14.576 1.913 
55 1 4.323 -6.117 -12.430 
56 1 -10.510 0.928 15.081 
57 1 7.537 10.284 8.296 
58 1 15.289 -2.852 -10.525 
59 1 5.137 -9.870 -13.231 
60 1 0.251 2.740 -0.719 
61 1 13.632 13.176 5.250 
62 1 -13.036 -6.514 -11.784 
63 1 6.217 16.318 8.535 
64 1 -8.231 -11.561 4.505 
65 1 -6.894 8.044 11.147 
66 1 -9.032 13.026 -4.678 
67 1 12.524 2.448 5.448 
68 1 14.228 4.782 -7.418 
69 1 2.064 -8.062 -14.763 
70 1 -6.965 11.232 8.846 
71 1 15.292 -0.017 4.538 
72 1 11.243 -14.884 2.768 
73 1 -8.401 -15.255 3.411 
74 1 -11.581 1.840 -14.270 
75 1 0.332 -13.327 2.321 
76 1 10.361 14.783 14.482 
77 1 -4.674 -9.352 1.805 
78 1 1.978 -8.665 -11.056 
79 1 6.489 -11.293 16.451 
80 1 -15.096 -2.476 5.746 
81 1 -1.925 -5.249 -10.858 
82 1 -7.058 14.064 6.382 
83 1 -4.435 -11.502 -3.819 
84 1 -7.776 1.354 10.505 
85 1 -15.884 11.866 -12.767 
86 1 -3.823 -9.391 -7.133 
87 1 -6.401 10.838 -9.432 
88 1 0.229 3.540 -4.414 
89 1 -2.782 -3.186 -7.880 
90 1 3.617 4.352 -1.453 
91 1 14.161 -12.457 3.264 
92 1 -0.849 16.057 7.681 
93 1 -10.098 5.154 -8.804 
94 1 13.569 8.011 -9.393 
95 1 0.862 16.281 4.348 
96 1 -9.925 6.811 -5.324 
97 1 -6.093 5.831 8.231 
98 1 -13.565 3.623 -9.278 
99 1 -6.038 11.774 -2.735 
100 1 2.170 -1.449 -5.608 
101 1 -2.438 12.668 8.569 
102 1 -11.121 -8.231 5.087 
103 1 16.404 -6.466 -10.322 
104 1 -11.901 11.155 -12.857 
105 1 -6.339 -14.378 10.353 
106 1 8.002 -6.734 -12.563 
107 1 -0.801 -1.447 1.212 
108 1 10.038 12.599 -14.135 
109 1 -6.553 7.818 5.092 
110 1 -3.502 5.815 10.873 
111 1 1.645 -4.311 11.807 
112 1 9.440 15.091 10.756 
113 1 -13.431 4.907 -12.846 
114 1 8.041 4.679 9.975 
115 1 -9.789 -9.362 -13.454 
116 1 0.425 -1.951 -2.306 
117 1 10.960 -4.011 4.914 
118 1 -7.035 -4.570 -3.446 
119 1 10.807 -12.675 -12.534 
120 1 -5.877 -1.028 8.381 
121 1 4.832 3.140 -15.251 
122 1 -7.683 9.765 -5.989 
123 1 -6.406 10.984 2.556 
124 1 5.511 3.628 7.378 
125 1 1.594 -5.160 -9.613 
126 1 -10.731 -6.972 8.632 
127 1 -3.947 2.472 8.952 
128 1 15.606 13.213 -6.700 
129 1 0.648 12.956 14.360 
130 1 11.164 -4.413 -11.827 
131 1 -4.260 0.575 5.329 
132 1 -10.289 12.879 8.254 
133 1 7.494 -3.004 -11.828 
134 1 13.385 16.063 12.601 
135 1 14.733 -4.423 5.088 
136 1 -3.687 -0.495 11.363 
137 1 1.305 5.967 1.068 
138 1 -2.487 14.166 -4.446 
139 1 -5.599 -11.985 -13.636 
140 1 -1.927 15.856 11.275 
141 1 -5.235 -1.861 -5.361 
142 1 -10.604 1.581 7.426 
143 1 -5.822 -7.991 -4.337 
144 1 -4.595 15.653 8.682 
145 1 -9.059 8.182 8.125 
146 1 -6.025 -5.291 -7.103 
147 1 -13.861 -5.160 -8.081 
148 1 0.084 9.913 8.323 
149 1 -7.288 -3.537 -14.018 
150 1 -5.220 -12.228 6.718 
151 1 5.985 1.946 0.562 
152 1 -9.197 5.106 5.777 
153 1 3.736 -1.845 9.689 
154 1 -3.354 -13.450 -16.428 
155 1 -5.847 8.703 14.694 
156 1 -0.773 6.380 -2.078 
157 1 13.564 11.054 -13.756 
158 1 -4.196 -2.504 14.634 
159 1 -14.409 8.508 -11.827 
160 1 -9.003 -4.350 11.111 
161 1 -7.102 -13.931 16.396 
162 1 4.943 -11.890 5.951 
163 1 -1.278 -6.603 -7.304 
164 1 6.058 13.118 10.543 
165 1 -5.304 12.576 -6.296 
166 1 -4.280 -5.885 -13.722 
167 1 -4.536 4.447 5.149 
168 1 -2.031 7.969 1.176 
169 1 -7.610 -1.630 5.140 
170 1 -8.728 10.834 5.514 
171 1 3.180 0.636 -1.966 
172 1 3.972 11.609 7.807 
173 1 -3.983 8.634 -2.116 
174 1 -15.926 -4.552 -13.507 
175 1 11.723 -4.288 13.495 
176 1 4.524 2.413 13.972 
177 1 12.544 14.093 -11.737 
178 1 3.454 2.583 4.355 
179 1 -7.346 -15.277 6.956 
180 1 -3.343 -5.037 -4.537 
181 1 11.628 -14.818 10.046 
182 1 -8.490 -5.472 4.774 
183 1 7.296 2.900 4.083 
184 1 -2.862 10.202 -8.061 
185 1 13.566 -0.202 1.145 
186 1 -2.478 14.010 -8.322 
187 1 -4.664 -15.471 13.515 
188 1 7.718 6.608 6.616 
189 1 12.235 11.670 10.606 
190 1 2.870 -14.868 7.000 
191 1 -3.773 -15.603 5.520 
192 1 -5.461 -3.952 -10.606 
193 1 -9.043 -12.981 -12.412 
194 1 5.522 13.194 -5.031 
195 1 -13.817 2.400 9.293 
196 1 -6.065 11.728 12.357 
197 1 -5.012 2.825 12.569 
198 1 -2.410 0.893 14.674 
199 1 9.827 1.159 1.651 
200 1 6.927 -14.286 -7.728 
ITEM: TIMESTEP
80
ITEM: NUMBER OF ATOMS
200
ITEM: BOX BOUNDS pp pp pp
-16.49818434247616 16.49818434247616
-16.49818434247616 16.49818434247616
-16.49818434247616 16.49818434247616
ITEM: ATOMS id type x y z
1 1 4.943 5.321 2.070 
2 1 3.369 14.816 2.001 
3 1 2.773 0.889 -12.662 
4 1 -3.850 9.048 8.901 
5 1 -11.670 -3.604 4.392 
6 1 2.568 14.983 9.101 
7 1 5.323 -2.963 6.442 
8 1 2.024 11.946 11.033 
9 1 4.077 14.849 5.685 
10 1 -7.785 8.464 -2.422 
11 1 -0.661 -13.534 6.004 
12 1 12.580 14.929 8.547 
13 1 -8.631 -7.629 -1.891 
14 1 -14.235 -9.105 6.716 
15 1 8.219 2.459 13.091 
16 1 -0.272 15.710 -10.868 
17 1 -2.538 -11.728 -0.324 
18 1 -1.155 -11.570 -5.831 
19 1 -7.098 2.337 7.015 
20 1 -1.619 -0.641 -5.257 
21 1 0.937 -4.761 -13.209 
22 1 -1.715 -8.979 -10.250 
23 1 11.128 10.622 -10.904 
24 1 14.736 11.404 -10.084 
25 1 -9.620 10.561 11.255 
26 1 7.415 -13.874 -13.932 
27 1 -14.125 1.142 5.555 
28 1 -14.563 11.922 -9.386 
29 1 -1.619 7.366 -5.490 
30 1 -9.897 -2.997 7.674 
31 1 -9.360 1.730 4.044 
32 1 0.745 13.049 6.345 
33 1 -0.073 -1.979 -10.694 
34 1 -12.707 8.274 12.549 
35 1 -2.800 -14.092 9.103 
36 1 -11.860 3.469 12.371 
37 1 4.621 -8.118 15.615 
38 1 -3.299 -12.536 3.432 
39 1 -9.485 4.555 9.488 
40 1 1.143 3.773 -14.548 
41 1 -2.009 -8.442 -3.896 
42 1 16.159 14.826 -10.552 
43 1 -16.494 -2.613 2.180 
44 1 3.592 -2.572 -11.470 
45 1 5.805 -15.984 -4.542 
46 1 -7.695 14.641 10.303 
47 1 -9.980 -10.629 7.710 
48 1 3.797 -14.737 3.494 
49 1 5.713 1.468 10.404 
50 1 7.504 10.839 -11.965 
51 1 -4.591 11.177 5.860 
52 1 3.129 8.463 10.214 
53 1 7.364 -11.740 -10.803 
54 1 12.393 14.579 1.946 
55 1 4.388 -6.072 -12.392 
56 1 -10.458 1.024 15.011 
57 1 7.402 10.254 8.387 
58 1 15.205 -2.972 -10.554 
59 1 5.201 -9.670 -13.232 
60 1 0.186 2.601 -0.571 
61 1 13.565 13.229 5.315 
62 1 -13.036 -6.533 -11.750 
63 1 6.130 16.355 8.498 
64 1 -8.090 -11.561 4.515 
65 1 -6.802 8.067 11.087 
66 1 -8.891 12.932 -4.746 
67 1 12.307 2.255 5.095 
68 1 14.320 4.810 -7.489 
69 1 2.023 -8.068 -14.694 
70 1 -6.871 11.198 8.756 
71 1 15.292 -0.119 4.730 
72 1 11.230 -14.907 2.848 
73 1 -8.151 -15.254 3.385 
74 1 -11.597 1.906 -14.321 
75 1 0.277 -13.464 2.338 
76 1 10.296 14.622 14.452 
77 1 -4.851 -9.478 1.800 
78 1 1.976 -8.605 -11.007 
79 1 6.515 -11.226 -16.440 
80 1 -14.979 -2.526 5.792 
81 1 -1.876 -5.324 -10.822 
82 1 -7.006 14.075 6.349 
83 1 -4.374 -11.408 -3.788 
84 1 -7.869 1.331 10.531 
85 1 -15.846 11.964 -12.907 
86 1 -3.886 -9.262 -7.158 
87 1 -6.370 10.824 -9.430 
88 1 0.401 3.328 -4.275 
89 1 -2.632 -3.165 -7.907 
90 1 3.465 4.343 -1.431 
91 1 14.162 -12.493 3.292 
92 1 -0.835 16.082 7.722 
93 1 -10.175 5.272 -8.847 
94 1 13.571 7.943 -9.544 
95 1 0.718 16.291 4.351 
96 1 -9.893 6.826 -5.303 
97 1 -6.109 5.760 8.279 
98 1 -13.632 3.697 -9.271 
99 1 -5.866 11.717 -2.777 
100 1 2.100 -1.313 -5.612 
101 1 -2.438 12.679 8.682 
102 1 -11.004 -8.212 4.942 
103 1 16.337 -6.593 -10.357 
104 1 -12.141 11.233 -12.619 
105 1 -6.327 -14.414 10.389 
106 1 8.041 -6.974 -12.593 
107 1 -0.737 -1.083 1.187 
108 1 10.139 12.553 -14.163 
109 1 -6.393 7.895 5.251 
110 1 -3.575 5.921 11.000 
111 1 1.684 -4.239 11.804 
112 1 9.415 14.941 10.703 
113 1 -13.348 5.038 -12.806 
114 1 7.896 4.628 9.935 
115 1 -9.744 -9.309 -13.380 
116 1 0.318 -1.945 -2.325 
117 1 10.962 -3.817 4.840 
118 1 -6.954 -4.526 -3.492 
119 1 10.701 -12.633 -12.494 
120 1 -5.993 -1.083 8.370 
121 1 4.805 2.994 -15.261 
122 1 -7.430 9.638 -5.963 
123 1 -6.311 10.792 2.511 
124 1 5.369 3.600 7.276 
125 1 1.625 -5.178 -9.494 
126 1 -10.604 -6.786 8.408 
127 1 -3.808 2.564 9.023 
128 1 15.685 13.309 -7.003 
129 1 0.446 13.126 14.212 
130 1 11.104 -4.448 -11.810 
131 1 -4.196 0.493 5.320 
132 1 -10.223 12.807 8.223 
133 1 7.330 -3.285 -11.871 
134 1 13.150 15.662 12.232 
135 1 14.716 -4.203 5.089 
136 1 -3.853 -0.454 11.369 
137 1 1.244 5.850 1.220 
138 1 -2.534 13.965 -4.406 
139 1 -5.583 -11.868 -13.732 
140 1 -1.883 15.667 11.297 
141 1 -5.223 -1.887 -5.509 
142 1 -10.776 1.015 7.646 
143 1 -5.713 -7.918 -4.253 
144 1 -4.578 15.664 8.699 
145 1 -9.075 8.215 8.158 
146 1 -5.672 -5.450 -7.131 
147 1 -13.873 -5.098 -8.283 
148 1 0.106 9.952 8.417 
149 1 -7.177 -3.550 -13.976 
150 1 -5.140 -12.303 6.776 
151 1 5.781 1.918 0.681 
152 1 -9.112 5.193 5.791 
153 1 3.760 -1.747 9.725 
154 1 -3.359 -13.473 -16.468 
155 1 -5.798 8.705 14.616 
156 1 -0.706 6.194 -1.998 
157 1 13.613 11.018 -13.694 
158 1 -4.279 -2.426 14.633 
159 1 -14.645 8.570 -11.536 
160 1 -8.919 -4.338 11.031 
161 1 -7.108 -13.958 16.408 
162 1 4.869 -12.047 5.924 
163 1 -1.257 -6.602 -7.281 
164 1 5.849 13.145 10.491 
165 1 -5.455 12.755 -6.349 
166 1 -4.207 -5.933 -13.678 
167 1 -4.525 4.492 5.113 
168 1 -2.113 7.906 1.127 
169 1 -7.702 -1.461 5.069 
170 1 -8.660 10.821 5.461 
171 1 3.070 0.658 -2.096 
172 1 3.834 11.519 7.771 
173 1 -3.857 8.517 -2.340 
174 1 -15.862 -4.547 -13.447 
175 1 11.715 -4.283 13.516 
176 1 4.501 2.414 13.936 
177 1 12.583 14.087 -11.679 
178 1 3.532 2.482 4.068 
179 1 -7.369 -15.288 6.995 
180 1 -3.165 -4.884 -4.454 
181 1 11.404 -14.802 10.019 
182 1 -8.444 -5.414 5.069 
183 1 7.331 3.055 4.086 
184 1 -3.001 10.199 -7.728 
185 1 13.436 -0.238 1.441 
186 1 -2.487 13.947 -8.298 
187 1 -4.602 -15.571 13.499 
188 1 7.624 6.576 6.599 
189 1 11.929 12.020 10.820 
190 1 2.678 -14.926 7.088 
191 1 -3.779 -15.651 5.526 
192 1 -5.351 -3.919 -10.577 
193 1 -9.013 -13.007 -12.616 
194 1 5.523 13.231 -5.046 
195 1 -13.987 2.536 9.315 
196 1 -5.971 11.729 12.258 
197 1 -5.140 2.893 12.606 
198 1 -2.451 0.962 14.615 
199 1 9.821 1.214 1.852 
200 1 6.926 -14.250 -7.830 
ITEM: TIMESTEP
90
ITEM: NUMBER OF ATOMS
200
ITEM: BOX BOUNDS pp pp pp
-16.49818434247616 16.49818434247616
-16.49818434247616 16.49818434247616
-16.49818434247616 16.49818434247616
ITEM: ATOMS id type x y z
1 1 4.930 5.449 1.998 
2 1 3.091 14.774 2.000 
3 1 2.577 0.773 -12.704 
4 1 -3.814 8.880 8.607 
5 1 -11.456 -3.534 4.458 
6 1 2.415 14.891 9.151 
7 1 5.378 -2.737 6.467 
8 1 1.915 11.785 11.015 
9 1 3.848 14.850 5.677 
10 1 -7.668 8.525 -2.378 
11 1 -0.879 -13.543 6.050 
12 1 12.345 14.926 8.451 
13 1 -8.472 -7.525 -1.764 
14 1 -13.558 -8.911 6.941 
15 1 8.175 2.534 13.047 
16 1 -0.330 15.700 -10.824 
17 1 -2.512 -11.675 -0.232 
18 1 -1.124 -11.333 -6.108 
19 1 -7.334 2.215 7.066 
20 1 -1.722 -0.529 -5.225 
21 1 0.966 -4.737 -13.078 
22 1 -1.671 -9.108 -10.108 
23 1 11.179 10.634 -10.856 
24 1 14.880 11.264 -10.161 
25 1 -9.423 10.681 11.200 
26 1 7.242 -13.846 -13.768 
27 1 -13.725 1.014 5.581 
28 1 -14.500 11.882 -9.418 
29 1 -1.688 7.293 -5.344 
30 1 -9.940 -2.714 7.770 
31 1 -9.784 1.872 4.229 
32 1 0.517 13.001 6.341 
33 1 -0.089 -1.985 -10.646 
34 1 -12.086 8.021 12.181 
35 1 -2.743 -14.159 9.346 
36 1 -11.548 3.498 12.235 
37 1 4.835 -7.931 16.073 
38 1 -3.495 -12.715 3.387 
39 1 -9.584 4.451 9.220 
40 1 1.106 3.698 -14.679 
41 1 -1.869 -8.330 -3.924 
42 1 16.281 14.774 -10.605 
43 1 -16.355 -2.381 2.278 
44 1 3.589 -2.572 -11.307 
45 1 5.843 -15.908 -4.686 
46 1 -7.695 14.547 10.272 
47 1 -9.981 -10.405 7.571 
48 1 3.638 -14.841 3.588 
49 1 5.692 1.506 10.355 
50 1 7.572 10.903 -12.009 
51 1 -4.356 11.410 5.776 
52 1 3.592 8.572 9.851 
53 1 7.290 -11.472 -10.806 
54 1 12.413 14.600 1.936 
55 1 4.405 -6.065 -12.381 
56 1 -10.314 1.138 14.930 
57 1 7.049 10.054 8.546 
58 1 15.067 -3.176 -10.542 
59 1 5.093 -9.633 -13.293 
60 1 0.138 2.524 -0.369 
61 1 13.540 13.217 5.296 
62 1 -13.001 -6.679 -11.793 
63 1 5.938 16.371 8.447 
64 1 -7.814 -11.513 4.519 
65 1 -6.687 8.159 11.014 
66 1 -8.918 12.535 -4.648 
67 1 12.130 1.901 4.711 
68 1 14.531 4.839 -7.612 
69 1 1.900 -8.033 -14.617 
70 1 -6.723 11.170 8.620 
71 1 15.399 -0.128 5.059 
72 1 11.204 -14.951 2.994 
73 1 -7.522 -15.199 3.397 
74 1 -11.638 2.096 -14.420 
75 1 0.151 -13.520 2.379 
76 1 10.174 14.275 14.263 
77 1 -5.192 -9.717 1.815 
78 1 1.974 -8.515 -10.922 
79 1 6.653 -11.184 -16.359 
80 1 -14.817 -2.593 5.861 
81 1 -1.828 -5.445 -10.738 
82 1 -6.930 14.118 6.314 
83 1 -4.194 -11.326 -3.773 
84 1 -8.035 1.296 10.670 
85 1 -15.844 12.021 -13.035 
86 1 -4.003 -9.207 -7.145 
87 1 -6.330 10.825 -9.430 
88 1 0.595 2.866 -4.095 
89 1 -2.376 -3.137 -7.881 
90 1 3.242 4.356 -1.376 
91 1 14.161 -12.558 3.326 
92 1 -0.906 16.057 7.780 
93 1 -10.338 5.482 -8.908 
94 1 13.628 7.811 -9.849 
95 1 0.480 16.263 4.374 
96 1 -9.694 7.006 -5.349 
97 1 -6.184 5.629 8.423 
98 1 -13.795 3.859 -9.228 
99 1 -5.609 11.659 -2.996 
100 1 1.988 -1.084 -5.573 
101 1 -2.448 12.567 8.863 
102 1 -10.646 -8.092 4.643 
103 1 16.323 -6.767 -10.450 
104 1 -12.240 11.107 -12.357 
105 1 -6.322 -14.449 10.465 
106 1 8.035 -7.256 -12.595 
107 1 -0.602 -0.784 1.183 
108 1 10.250 12.556 -14.179 
109 1 -6.069 8.045 5.595 
110 1 -3.542 5.971 11.039 
111 1 1.717 -4.159 11.825 
112 1 9.132 14.973 10.590 
113 1 -13.209 5.305 -12.680 
114 1 7.705 4.684 9.854 
115 1 -9.678 -9.254 -13.271 
116 1 0.162 -1.961 -2.343 
117 1 10.991 -3.333 4.643 
118 1 -6.846 -4.448 -3.582 
119 1 10.561 -12.538 -12.466 
120 1 -6.370 -1.209 8.415 
121 1 4.753 2.782 -15.283 
122 1 -6.849 9.536 -5.896 
123 1 -6.083 10.479 2.500 
124 1 5.160 3.551 7.184 
125 1 1.617 -5.133 -9.324 
126 1 -10.618 -6.533 8.124 
127 1 -4.078 2.551 8.976 
128 1 15.764 13.309 -7.136 
129 1 0.080 13.445 13.867 
130 1 10.991 -4.578 -11.794 
131 1 -4.356 0.509 5.562 
132 1 -10.140 12.720 8.114 
133 1 7.235 -3.556 -11.912 
134 1 12.974 15.577 12.120 
135 1 14.691 -3.917 5.107 
136 1 -4.185 -0.367 11.332 
137 1 1.142 5.672 1.494 
138 1 -2.600 13.440 -4.440 
139 1 -5.544 -11.664 -13.879 
140 1 -1.809 15.471 11.325 
141 1 -5.224 -1.941 -5.807 
142 1 -10.580 0.917 7.795 
143 1 -5.533 -7.826 -4.083 
144 1 -4.550 15.621 8.786 
145 1 -9.035 8.223 8.156 
146 1 -5.180 -5.605 -7.158 
147 1 -14.005 -4.923 -8.528 
148 1 0.112 9.825 8.371 
149 1 -7.020 -3.556 -13.933 
150 1 -4.971 -12.443 6.865 
151 1 5.576 1.942 0.692 
152 1 -8.787 5.373 5.632 
153 1 3.740 -1.666 9.749 
154 1 -3.383 -13.511 16.459 
155 1 -5.674 8.724 14.535 
156 1 -0.553 5.933 -1.945 
157 1 13.634 10.862 -13.696 
158 1 -4.418 -2.289 14.639 
159 1 -15.117 8.641 -11.358 
160 1 -8.687 -4.279 10.859 
161 1 -7.134 -13.983 16.476 
162 1 4.794 -12.232 6.051 
163 1 -1.272 -6.634 -7.222 
164 1 5.642 13.132 10.448 
165 1 -5.720 13.125 -6.505 
166 1 -4.144 -6.026 -13.592 
167 1 -4.808 4.374 5.230 
168 1 -2.190 7.778 1.025 
169 1 -7.881 -1.268 5.009 
170 1 -8.524 10.808 5.359 
171 1 2.954 0.637 -2.117 
172 1 3.687 11.592 7.640 
173 1 -3.803 8.402 -2.440 
174 1 -15.764 -4.534 -13.371 
175 1 11.701 -4.277 13.549 
176 1 4.457 2.408 13.885 
177 1 12.735 13.999 -11.676 
178 1 3.495 2.494 3.830 
179 1 -7.377 -15.294 7.080 
180 1 -2.942 -4.650 -4.347 
181 1 11.157 -14.835 10.039 
182 1 -8.240 -5.206 5.460 
183 1 7.301 3.278 4.070 
184 1 -3.332 10.272 -7.073 
185 1 13.267 -0.412 1.920 
186 1 -2.456 13.806 -8.256 
187 1 -4.477 -15.728 13.441 
188 1 7.398 6.544 6.512 
189 1 11.650 12.197 11.063 
190 1 2.438 -14.987 7.164 
191 1 -3.852 -15.825 5.517 
192 1 -5.197 -3.843 -10.509 
193 1 -8.951 -13.045 -13.002 
194 1 5.526 13.293 -5.068 
195 1 -13.597 2.618 9.139 
196 1 -5.730 11.760 12.111 
197 1 -5.333 3.035 12.540 
198 1 -2.576 1.086 14.476 
199 1 9.632 1.159 1.911 
200 1 6.925 -14.181 -8.001 
ITEM: TIMESTEP
100
ITEM: NUMBER OF ATOMS
200
ITEM: BOX BOUNDS pp pp pp
-16.49818434247616 16.49818434247616
-16.49818434247616 16.49818434247616
-16.49818434247616 16.49818434247616
ITEM: ATOMS id type x y z
1 1 4.914 5.547 1.909 
2 1 2.831 14.754 2.001 
3 1 2.370 0.584 -12.752 
4 1 -3.638 8.907 8.637 
5 1 -11.326 -3.551 4.394 
6 1 2.200 14.807 9.178 
7 1 5.445 -2.459 6.469 
8 1 1.891 11.634 10.990 
9 1 3.577 14.859 5.677 
10 1 -7.705 8.662 -2.359 
11 1 -1.159 -13.596 6.096 
12 1 12.092 14.876 8.425 
13 1 -8.272 -7.390 -1.626 
14 1 -13.264 -8.755 6.898 
15 1 8.120 2.654 12.963 
16 1 -0.408 15.675 -10.753 
17 1 -2.568 -11.648 -0.124 
18 1 -0.953 -10.977 -6.360 
19 1 -7.143 2.275 7.079 
20 1 -1.863 -0.418 -5.182 
21 1 0.985 -4.762 -12.993 
22 1 -1.636 -9.242 -9.946 
23 1 11.246 10.602 -10.820 
24 1 14.921 11.259 -10.117 
25 1 -9.182 10.859 11.183 
26 1 7.001 -13.696 -13.538 
27 1 -13.577 0.920 5.587 
28 1 -14.466 11.866 -9.400 
29 1 -1.612 7.140 -5.339 
30 1 -10.177 -2.741 7.819 
31 1 -10.095 2.089 4.426 
32 1 0.293 12.934 6.296 
33 1 -0.068 -1.940 -10.742 
34 1 -11.237 7.539 11.546 
35 1 -2.692 -14.246 9.599 
36 1 -11.305 3.547 12.171 
37 1 5.096 -7.632 -16.303 
38 1 -3.726 -12.923 3.347 
39 1 -9.838 4.518 8.966 
40 1 1.069 3.577 -14.785 
41 1 -1.724 -8.249 -3.819 
42 1 16.362 14.775 -10.598 
43 1 -16.160 -2.183 2.378 
44 1 3.653 -2.645 -11.245 
45 1 5.888 -15.826 -4.868 
46 1 -7.734 14.421 10.261 
47 1 -9.742 -10.244 7.460 
48 1 3.408 -14.869 3.633 
49 1 5.661 1.530 10.299 
50 1 7.660 10.946 -12.023 
51 1 -4.086 11.513 5.755 
52 1 3.613 8.488 9.704 
53 1 7.319 -11.145 -10.741 
54 1 12.438 14.621 1.924 
55 1 4.419 -6.128 -12.553 
56 1 -10.079 1.204 14.879 
57 1 6.917 9.970 8.560 
58 1 14.998 -3.421 -10.476 
59 1 4.866 -9.800 -13.206 
60 1 0.054 2.444 -0.285 
61 1 13.503 13.258 5.312 
62 1 -12.951 -6.862 -11.812 
63 1 5.678 16.376 8.429 
64 1 -7.536 -11.488 4.577 
65 1 -6.572 8.298 10.997 
66 1 -8.960 12.034 -4.502 
67 1 11.990 1.607 4.811 
68 1 14.909 4.927 -7.861 
69 1 1.763 -8.066 -14.598 
70 1 -6.578 11.160 8.478 
71 1 15.532 0.009 5.186 
72 1 11.174 -15.015 3.170 
73 1 -6.854 -15.057 3.446 
74 1 -11.661 2.356 -14.532 
75 1 -0.048 -13.495 2.449 
76 1 10.031 14.065 14.139 
77 1 -5.440 -9.901 1.770 
78 1 1.905 -8.343 -10.868 
79 1 6.817 -11.041 -16.211 
80 1 -14.714 -2.656 5.907 
81 1 -1.778 -5.558 -10.651 
82 1 -6.814 14.113 6.223 
83 1 -3.966 -11.277 -3.800 
84 1 -8.170 1.439 10.727 
85 1 -15.827 12.027 -13.034 
86 1 -4.112 -9.234 -7.117 
87 1 -6.027 10.855 -9.309 
88 1 0.517 2.568 -4.011 
89 1 -2.059 -3.148 -7.813 
90 1 3.131 4.299 -1.354 
91 1 14.154 -12.635 3.351 
92 1 -1.043 15.991 7.775 
93 1 -10.603 5.706 -9.024 
94 1 13.834 7.737 -10.288 
95 1 0.215 16.244 4.350 
96 1 -9.648 7.151 -5.436 
97 1 -6.254 5.508 8.497 
98 1 -14.117 4.117 -9.136 
99 1 -5.493 11.645 -3.004 
100 1 1.871 -0.827 -5.484 
101 1 -2.476 12.502 9.044 
102 1 -10.345 -7.841 4.558 
103 1 16.309 -6.999 -10.580 
104 1 -12.348 10.708 -12.300 
105 1 -6.341 -14.487 10.496 
106 1 7.937 -7.530 -12.607 
107 1 -0.433 -0.897 1.254 
108 1 10.390 12.471 -14.208 
109 1 -5.901 8.104 5.798 
110 1 -3.468 5.995 10.999 
111 1 1.718 -4.111 11.873 
112 1 8.888 14.981 10.536 
113 1 -13.050 5.596 -12.464 
114 1 7.472 4.823 9.792 
115 1 -9.628 -9.219 -13.183 
116 1 0.020 -1.942 -2.364 
117 1 11.006 -2.592 4.487 
118 1 -6.700 -4.354 -3.648 
119 1 10.425 -12.411 -12.503 
120 1 -6.726 -1.241 8.470 
121 1 4.686 2.539 -15.294 
122 1 -6.685 9.407 -5.869 
123 1 -5.750 10.174 2.530 
124 1 5.005 3.500 7.106 
125 1 1.568 -5.007 -9.161 
126 1 -10.489 -6.459 8.100 
127 1 -4.241 2.560 8.906 
128 1 15.770 13.329 -7.137 
129 1 0.053 13.361 13.786 
130 1 10.974 -4.779 -11.774 
131 1 -4.543 0.452 5.753 
132 1 -10.048 12.612 7.958 
133 1 7.265 -3.730 -11.945 
134 1 12.794 15.600 12.073 
135 1 14.636 -3.670 5.054 
136 1 -4.609 -0.299 11.386 
137 1 1.100 5.524 1.621 
138 1 -2.460 13.269 -4.524 
139 1 -5.545 -11.491 -14.038 
140 1 -1.768 15.450 11.328 
141 1 -5.180 -1.980 -6.104 
142 1 -10.708 0.792 7.979 
143 1 -5.370 -7.750 -3.984 
144 1 -4.592 15.574 8.869 
145 1 -9.037 8.285 8.158 
146 1 -4.940 -5.603 -7.142 
147 1 -14.254 -4.672 -8.926 
148 1 0.107 9.757 8.300 
149 1 -6.851 -3.521 -13.866 
150 1 -4.845 -12.718 6.943 
151 1 5.544 1.992 0.679 
152 1 -8.588 5.476 5.528 
153 1 3.681 -1.622 9.750 
154 1 -3.395 -13.523 16.396 
155 1 -5.507 8.851 14.431 
156 1 -0.453 5.829 -1.936 
157 1 13.724 10.641 -13.625 
158 1 -4.583 -2.168 14.698 
159 1 -15.482 8.632 -11.262 
160 1 -8.291 -4.176 10.658 
161 1 -7.126 -14.005 16.441 
162 1 4.785 -12.481 6.214 
163 1 -1.243 -6.733 -7.151 
164 1 5.485 13.084 10.391 
165 1 -5.822 13.177 -6.389 
166 1 -4.129 -6.131 -13.462 
167 1 -4.884 4.334 5.354 
168 1 -2.240 7.650 0.963 
169 1 -8.163 -1.094 5.081 
170 1 -8.372 10.769 5.207 
171 1 2.911 0.530 -1.883 
172 1 3.552 11.580 7.555 
173 1 -3.807 8.348 -2.546 
174 1 -15.608 -4.504 -13.214 
175 1 11.685 -4.272 13.583 
176 1 4.415 2.394 13.844 
177 1 12.869 13.926 -11.755 
178 1 3.312 2.650 3.672 
179 1 -7.441 -15.364 7.109 
180 1 -2.785 -4.493 -4.304 
181 1 10.940 -14.849 9.974 
182 1 -8.016 -4.961 5.638 
183 1 7.185 3.308 4.012 
184 1 -3.236 10.309 -6.658 
185 1 13.273 -0.749 2.161 
186 1 -2.623 13.639 -8.354 
187 1 -4.418 -15.815 13.405 
188 1 7.110 6.577 6.406 
189 1 11.420 12.200 11.070 
190 1 2.162 -15.020 7.205 
191 1 -3.879 -16.127 5.484 
192 1 -5.006 -3.706 -10.409 
193 1 -8.927 -13.017 -13.255 
194 1 5.527 13.362 -5.091 
195 1 -13.430 2.955 9.006 
196 1 -5.303 11.839 11.846 
197 1 -5.476 3.245 12.495 
198 1 -2.730 1.208 14.317 
199 1 9.501 0.943 2.014 
200 1 6.926 -14.089 -8.209 
