ITEM: TIMESTEP
0
ITEM: NUMBER OF ATOMS
200
ITEM: BOX BOUNDS pp pp pp
-16.49818434247616 16.49818434247616
-16.49818434247616 16.49818434247616
-16.49818434247616 16.49818434247616
ITEM: ATOMS id type x y z
1 1 4.914 5.547 1.909 
2 1 2.831 14.754 2.001 
3 1 2.370 0.584 -12.752 
4 1 -3.638 8.907 8.637 
5 1 -11.326 -3.551 4.394 
6 1 2.200 14.807 9.178 
7 1 5.445 -2.459 6.469 
8 1 1.891 11.634 10.990 
9 1 3.577 14.859 5.677 
10 1 -7.705 8.662 -2.359 
11 1 -1.159 -13.596 6.096 
12 1 12.092 14.876 8.425 
13 1 -8.272 -7.390 -1.626 
14 1 -13.264 -8.755 6.898 
15 1 8.120 2.654 12.963 
16 1 -0.408 15.675 -10.753 
17 1 -2.568 -11.648 -0.124 
18 1 -0.953 -10.977 -6.360 
19 1 -7.143 2.275 7.079 
20 1 -1.863 -0.418 -5.182 
21 1 0.985 -4.762 -12.993 
22 1 -1.636 -9.242 -9.946 
23 1 11.246 10.602 -10.820 
24 1 14.921 11.259 -10.117 
25 1 -9.182 10.859 11.183 
26 1 7.001 -13.696 -13.538 
27 1 -13.577 0.920 5.587 
28 1 -14.466 11.866 -9.400 
29 1 -1.612 7.140 -5.339 
30 1 -10.177 -2.741 7.819 
31 1 -10.095 2.089 4.426 
32 1 0.293 12.934 6.296 
33 1 -0.068 -1.940 -10.742 
34 1 -11.237 7.539 11.546 
35 1 -2.692 -14.246 9.599 
36 1 -11.305 3.547 12.171 
37 1 5.096 -7.632 -16.303 
38 1 -3.726 -12.923 3.347 
39 1 -9.838 4.518 8.966 
40 1 1.069 3.577 -14.785 
41 1 -1.724 -8.249 -3.819 
42 1 16.362 14.775 -10.598 
43 1 -16.160 -2.183 2.378 
44 1 3.653 -2.645 -11.245 
45 1 5.888 -15.826 -4.868 
46 1 -7.734 14.421 10.261 
47 1 -9.742 -10.244 7.460 
48 1 3.408 -14.869 3.633 
49 1 5.661 1.530 10.299 
50 1 7.660 10.946 -12.023 
51 1 -4.086 11.513 5.755 
52 1 3.613 8.488 9.704 
53 1 7.319 -11.145 -10.741 
54 1 12.438 14.621 1.924 
55 1 4.419 -6.128 -12.553 
56 1 -10.079 1.204 14.879 
57 1 6.917 9.970 8.560 
58 1 14.998 -3.421 -10.476 
59 1 4.866 -9.800 -13.206 
60 1 0.054 2.444 -0.285 
61 1 13.503 13.258 5.312 
62 1 -13.114 -6.973 -11.545 
63 1 5.678 16.376 8.429 
64 1 -7.536 -11.488 4.577 
65 1 -6.572 8.298 10.997 
66 1 -8.960 12.034 -4.502 
67 1 12.270 1.683 4.825 
68 1 14.909 4.927 -7.861 
69 1 1.763 -8.066 -14.598 
70 1 -6.578 11.160 8.478 
71 1 15.532 0.009 5.186 
72 1 11.174 -15.015 3.170 
73 1 -6.854 -15.057 3.446 
74 1 -11.661 2.356 -14.532 
75 1 -0.048 -13.495 2.449 
76 1 10.031 14.065 14.139 
77 1 -5.440 -9.901 1.770 
78 1 1.905 -8.343 -10.868 
79 1 6.817 -11.041 -16.211 
80 1 -14.714 -2.656 5.907 
81 1 -1.778 -5.558 -10.651 
82 1 -6.814 14.113 6.223 
83 1 -3.966 -11.277 -3.800 
84 1 -8.170 1.439 10.727 
85 1 -15.827 12.027 -13.034 
86 1 -4.112 -9.234 -7.117 
87 1 -6.027 10.855 -9.309 
88 1 0.517 2.568 -4.011 
89 1 -2.059 -3.148 -7.813 
90 1 3.131 4.299 -1.354 
91 1 14.154 -12.635 3.351 
92 1 -1.043 15.991 7.775 
93 1 -10.603 5.706 -9.024 
94 1 13.834 7.737 -10.288 
95 1 0.215 16.244 4.350 
96 1 -9.648 7.151 -5.436 
97 1 -6.254 5.508 8.497 
98 1 -14.117 4.117 -9.136 
99 1 -5.493 11.645 -3.004 
100 1 1.871 -0.827 -5.484 
101 1 -2.476 12.502 9.044 
102 1 -10.345 -7.841 4.558 
103 1 16.309 -6.999 -10.580 
104 1 -12.348 10.708 -12.300 
105 1 -6.341 -14.487 10.496 
106 1 7.937 -7.530 -12.607 
107 1 -0.433 -0.897 1.254 
108 1 10.390 12.471 -14.208 
109 1 -5.901 8.104 5.798 
110 1 -3.468 5.995 10.999 
111 1 1.718 -4.111 11.873 
112 1 8.888 14.981 10.536 
113 1 -13.050 5.596 -12.464 
114 1 7.472 4.823 9.792 
115 1 -9.628 -9.219 -13.183 
116 1 0.020 -1.942 -2.364 
117 1 11.006 -2.592 4.487 
118 1 -6.700 -4.354 -3.648 
119 1 10.425 -12.411 -12.503 
120 1 -6.726 -1.241 8.470 
121 1 4.686 2.539 -15.294 
122 1 -6.685 9.407 -5.869 
123 1 -5.750 10.174 2.530 
124 1 5.005 3.500 7.106 
125 1 1.568 -5.007 -9.161 
126 1 -10.489 -6.459 8.100 
127 1 -4.241 2.560 8.906 
128 1 15.770 13.329 -7.137 
129 1 0.053 13.361 13.786 
130 1 10.974 -4.779 -11.774 
131 1 -4.543 0.452 5.753 
132 1 -10.048 12.612 7.958 
133 1 7.265 -3.730 -11.945 
134 1 12.794 15.600 12.073 
135 1 14.636 -3.670 5.054 
136 1 -4.609 -0.299 11.386 
137 1 1.100 5.524 1.621 
138 1 -2.460 13.269 -4.524 
139 1 -5.545 -11.491 -14.038 
140 1 -1.768 15.450 11.328 
141 1 -5.180 -1.980 -6.104 
142 1 -10.708 0.792 7.979 
143 1 -5.370 -7.750 -3.984 
144 1 -4.592 15.574 8.869 
145 1 -9.037 8.285 8.158 
146 1 -4.940 -5.603 -7.142 
147 1 -14.254 -4.672 -8.926 
148 1 0.107 9.757 8.300 
149 1 -6.851 -3.521 -13.866 
150 1 -4.845 -12.718 6.943 
151 1 5.544 1.992 0.679 
152 1 -8.588 5.476 5.528 
153 1 3.681 -1.622 9.750 
154 1 -3.395 -13.523 16.396 
155 1 -5.507 8.851 14.431 
156 1 -0.453 5.829 -1.936 
157 1 13.724 10.641 -13.625 
158 1 -4.583 -2.168 14.698 
159 1 -15.482 8.632 -11.262 
160 1 -8.291 -4.176 10.658 
161 1 -7.126 -14.005 16.441 
162 1 4.785 -12.481 6.214 
163 1 -1.243 -6.733 -7.151 
164 1 5.485 13.084 10.391 
165 1 -5.822 13.177 -6.389 
166 1 -4.129 -6.131 -13.462 
167 1 -4.884 4.334 5.354 
168 1 -2.240 7.650 0.963 
169 1 -8.163 -1.094 5.081 
170 1 -8.372 10.769 5.207 
171 1 2.911 0.530 -1.883 
172 1 3.552 11.580 7.555 
173 1 -3.807 8.348 -2.546 
174 1 -15.608 -4.504 -13.214 
175 1 11.685 -4.272 13.583 
176 1 4.415 2.394 13.844 
177 1 12.869 13.926 -11.755 
178 1 3.312 2.650 3.672 
179 1 -7.441 -15.364 7.109 
180 1 -2.785 -4.493 -4.304 
181 1 10.940 -14.849 9.974 
182 1 -8.016 -4.961 5.638 
183 1 7.185 3.308 4.012 
184 1 -3.236 10.309 -6.658 
185 1 13.273 -0.749 2.161 
186 1 -2.623 13.639 -8.354 
187 1 -4.418 -15.815 13.405 
188 1 7.110 6.577 6.406 
189 1 11.420 12.200 11.070 
190 1 2.162 -15.020 7.205 
191 1 -3.879 -16.127 5.484 
192 1 -5.006 -3.706 -10.409 
193 1 -8.927 -13.017 -13.255 
194 1 5.527 13.362 -5.091 
195 1 -13.430 2.955 9.006 
196 1 -5.303 11.839 11.846 
197 1 -5.476 3.245 12.495 
198 1 -2.730 1.208 14.317 
199 1 9.501 0.943 2.014 
200 1 6.926 -14.089 -8.209 
ITEM: TIMESTEP
1000
ITEM: NUMBER OF ATOMS
200
ITEM: BOX BOUNDS pp pp pp
-16.49818434247616 16.49818434247616
-16.49818434247616 16.49818434247616
-16.49818434247616 16.49818434247616
ITEM: ATOMS id type x y z
1 1 5.561 6.196 1.899 
2 1 2.746 14.210 1.054 
3 1 2.135 0.565 -12.764 
4 1 -3.870 9.007 8.661 
5 1 -10.566 -2.967 3.761 
6 1 2.203 15.328 9.855 
7 1 5.405 -3.261 7.685 
8 1 2.670 12.218 11.380 
9 1 3.603 15.841 4.827 
10 1 -6.807 9.528 -2.868 
11 1 -0.824 -14.265 6.018 
12 1 12.594 14.366 9.628 
13 1 -7.515 -6.287 -1.451 
14 1 -12.261 -9.270 6.539 
15 1 8.227 2.864 13.292 
16 1 -0.450 15.788 -11.819 
17 1 -2.647 -12.075 0.005 
18 1 -1.442 -11.893 -6.209 
19 1 -8.159 2.529 6.403 
20 1 -2.739 -0.578 -5.001 
21 1 1.389 -5.328 -14.449 
22 1 -2.010 -9.372 -9.946 
23 1 11.077 9.997 -11.228 
24 1 14.804 11.217 -9.479 
25 1 -10.396 11.706 11.397 
26 1 7.154 -13.265 -12.768 
27 1 -13.702 1.496 5.975 
28 1 -14.633 11.727 -9.675 
29 1 -1.097 7.219 -5.320 
30 1 -9.906 -3.770 7.674 
31 1 -10.767 2.570 4.022 
32 1 0.307 12.281 6.135 
33 1 -0.342 -2.227 -10.723 
34 1 -11.590 7.723 10.875 
35 1 -2.104 -13.528 9.904 
36 1 -11.531 3.278 12.147 
37 1 5.570 -6.515 -15.846 
38 1 -3.523 -12.284 3.285 
39 1 -9.619 4.687 9.383 
40 1 1.413 4.109 -15.831 
41 1 -0.962 -8.136 -3.826 
42 1 15.501 15.089 -10.621 
43 1 16.222 -3.100 2.106 
44 1 3.928 -2.085 -11.473 
45 1 6.594 -15.416 -5.042 
46 1 -8.353 14.500 10.183 
47 1 -9.447 -10.599 7.967 
48 1 3.294 -14.485 2.244 
49 1 5.624 1.937 10.421 
50 1 7.239 10.328 -12.041 
51 1 -3.928 11.554 5.662 
52 1 3.206 7.834 8.670 
53 1 7.255 -10.665 -9.760 
54 1 12.313 14.312 2.849 
55 1 4.220 -6.378 -11.681 
56 1 -9.630 0.620 14.733 
57 1 7.705 9.862 8.655 
58 1 14.231 -3.315 -11.553 
59 1 4.988 -10.665 -13.724 
60 1 0.118 1.743 -0.153 
61 1 11.799 13.256 5.695 
62 1 -13.684 -7.911 -10.746 
63 1 5.523 -16.413 8.407 
64 1 -8.844 -12.245 4.588 
65 1 -6.368 8.975 10.993 
66 1 -9.335 11.612 -3.955 
67 1 12.077 1.633 4.851 
68 1 14.837 6.129 -6.896 
69 1 2.087 -8.720 -14.692 
70 1 -6.428 11.095 8.135 
71 1 15.411 0.689 5.330 
72 1 10.460 -15.383 4.605 
73 1 -6.756 -14.640 3.346 
74 1 -11.043 2.075 -14.379 
75 1 -0.311 -13.064 2.093 
76 1 10.103 14.143 14.379 
77 1 -5.214 -9.173 1.717 
78 1 1.675 -8.746 -11.122 
79 1 6.850 -11.988 -16.390 
80 1 -14.000 -2.542 5.979 
81 1 -1.159 -5.265 -10.265 
82 1 -6.287 14.066 6.269 
83 1 -3.046 -10.771 -2.916 
84 1 -9.030 0.897 11.326 
85 1 -15.729 11.455 -13.625 
86 1 -4.220 -8.673 -7.346 
87 1 -6.063 10.950 -10.071 
88 1 -0.190 2.786 -4.154 
89 1 -2.458 -2.326 -8.365 
90 1 3.500 4.338 -1.793 
91 1 14.916 -13.931 3.740 
92 1 -0.451 16.349 8.062 
93 1 -11.847 5.740 -9.774 
94 1 13.811 7.891 -10.693 
95 1 0.263 15.788 3.837 
96 1 -9.769 6.816 -5.689 
97 1 -5.953 5.543 8.803 
98 1 -14.649 5.259 -6.958 
99 1 -3.554 11.883 -1.357 
100 1 2.754 -0.783 -6.481 
101 1 -2.461 12.263 8.978 
102 1 -10.095 -7.891 4.164 
103 1 15.632 -6.920 -10.790 
104 1 -11.895 10.486 -11.659 
105 1 -6.107 -14.907 10.571 
106 1 7.290 -8.114 -12.673 
107 1 0.450 -2.807 1.877 
108 1 10.426 12.747 -14.127 
109 1 -6.125 8.106 6.078 
110 1 -2.949 5.799 11.154 
111 1 2.460 -4.168 12.395 
112 1 8.899 15.294 10.159 
113 1 -13.732 5.336 -13.175 
114 1 7.012 5.356 10.563 
115 1 -10.167 -10.846 -12.375 
116 1 1.219 -3.495 -2.165 
117 1 10.428 -2.277 4.527 
118 1 -5.975 -3.803 -3.292 
119 1 10.201 -12.429 -11.587 
120 1 -6.511 -1.916 8.777 
121 1 5.593 3.092 -15.397 
122 1 -7.177 8.963 -7.428 
123 1 -5.367 10.425 2.815 
124 1 6.733 3.268 7.534 
125 1 2.174 -4.800 -8.703 
126 1 -10.531 -7.070 8.178 
127 1 -4.068 2.964 9.352 
128 1 14.649 13.012 -6.954 
129 1 -0.870 13.240 14.552 
130 1 11.130 -5.327 -12.630 
131 1 -4.682 0.733 6.986 
132 1 -9.818 13.364 7.332 
133 1 7.494 -4.520 -11.804 
134 1 13.799 14.995 13.239 
135 1 13.644 -3.815 4.964 
136 1 -4.452 0.388 11.666 
137 1 1.411 5.355 2.307 
138 1 -3.069 14.510 -5.059 
139 1 -5.566 -11.872 -13.582 
140 1 -2.603 15.546 11.923 
141 1 -5.628 -1.752 -6.337 
142 1 -10.691 0.788 7.751 
143 1 -5.338 -8.635 -3.957 
144 1 -4.855 15.374 8.762 
145 1 -9.021 8.995 8.262 
146 1 -5.712 -5.870 -6.601 
147 1 -13.629 -4.861 -7.708 
148 1 0.040 9.179 7.764 
149 1 -7.045 -2.483 -13.758 
150 1 -4.555 -12.971 7.212 
151 1 5.696 2.533 0.398 
152 1 -9.737 5.403 5.604 
153 1 2.964 -1.201 8.546 
154 1 -3.715 -13.383 16.316 
155 1 -4.936 6.869 14.057 
156 1 0.320 5.606 -2.059 
157 1 13.555 10.542 -14.077 
158 1 -4.500 -3.022 14.463 
159 1 -15.867 8.842 -11.499 
160 1 -8.359 -3.635 10.764 
161 1 -6.912 -14.507 15.617 
162 1 5.647 -13.225 7.089 
163 1 -0.301 -7.302 -7.502 
164 1 6.045 13.629 10.864 
165 1 -6.896 13.159 -7.050 
166 1 -3.778 -6.115 -13.617 
167 1 -5.453 4.421 5.233 
168 1 -1.616 7.838 0.188 
169 1 -7.806 -0.615 4.717 
170 1 -8.076 10.534 4.607 
171 1 3.073 0.927 -2.285 
172 1 3.884 10.980 7.745 
173 1 -3.664 8.055 -2.626 
174 1 -15.859 -4.447 -14.248 
175 1 11.463 -3.805 13.969 
176 1 3.975 2.457 14.090 
177 1 11.038 14.069 -9.682 
178 1 2.787 2.084 2.657 
179 1 -7.996 -14.994 6.714 
180 1 -2.773 -4.311 -4.833 
181 1 11.831 -14.455 10.428 
182 1 -7.422 -6.730 5.694 
183 1 8.032 3.775 3.446 
184 1 -3.435 9.974 -6.777 
185 1 13.565 -1.162 1.583 
186 1 -2.919 13.167 -8.660 
187 1 -4.486 -15.457 13.807 
188 1 7.453 7.099 5.861 
189 1 9.987 11.077 11.776 
190 1 2.395 -14.460 7.351 
191 1 -3.942 16.152 4.942 
192 1 -5.177 -3.954 -10.874 
193 1 -8.308 -14.228 -13.784 
194 1 4.862 13.508 -5.551 
195 1 -13.777 3.233 9.370 
196 1 -5.830 12.415 11.422 
197 1 -6.812 3.282 12.543 
198 1 -2.923 1.912 14.125 
199 1 8.815 0.312 2.435 
200 1 5.074 -13.050 -7.296 
ITEM: TIMESTEP
2000
ITEM: NUMBER OF ATOMS
200
ITEM: BOX BOUNDS pp pp pp
-16.49818434247616 16.49818434247616
-16.49818434247616 16.49818434247616
-16.49818434247616 16.49818434247616
ITEM: ATOMS id type x y z
1 1 4.151 6.593 1.530 
2 1 2.435 14.596 0.708 
3 1 1.791 0.707 -12.568 
4 1 -3.706 9.707 8.680 
5 1 -10.794 -2.012 3.620 
6 1 2.116 14.603 10.124 
7 1 5.321 -4.102 6.448 
8 1 3.061 10.181 11.629 
9 1 3.472 15.883 4.964 
10 1 -6.749 9.958 -3.630 
11 1 -1.551 -14.520 5.691 
12 1 13.719 12.620 10.764 
13 1 -8.256 -7.150 -2.422 
14 1 -12.778 -9.635 7.122 
15 1 7.423 4.115 14.441 
16 1 -0.410 14.840 -12.011 
17 1 -2.841 -12.575 -0.093 
18 1 -1.427 -11.838 -6.149 
19 1 -8.002 2.891 6.936 
20 1 -2.279 -0.774 -5.387 
21 1 1.123 -4.901 -13.586 
22 1 -1.769 -10.375 -9.628 
23 1 10.935 10.485 -11.291 
24 1 14.234 10.689 -10.105 
25 1 -9.300 12.090 12.527 
26 1 8.658 -13.790 -11.480 
27 1 -13.577 1.559 6.610 
28 1 -14.854 12.376 -10.079 
29 1 -1.713 6.506 -6.098 
30 1 -8.997 -3.488 6.954 
31 1 -11.186 3.073 3.399 
32 1 0.323 11.943 6.481 
33 1 -0.686 -1.305 -11.554 
34 1 -11.318 8.405 10.842 
35 1 -1.898 -13.715 9.270 
36 1 -12.673 3.845 13.475 
37 1 6.221 -5.263 -15.595 
38 1 -4.580 -12.569 3.827 
39 1 -9.911 5.370 9.878 
40 1 1.962 4.044 -15.517 
41 1 -1.544 -7.738 -3.852 
42 1 15.475 14.670 -10.019 
43 1 16.001 -2.957 2.431 
44 1 4.440 -2.300 -10.925 
45 1 6.045 -15.870 -4.943 
46 1 -9.248 15.264 10.332 
47 1 -9.994 -11.440 9.178 
48 1 2.702 -14.167 2.547 
49 1 5.594 1.543 11.125 
50 1 7.221 10.927 -12.933 
51 1 -3.380 12.915 6.020 
52 1 3.383 7.771 8.788 
53 1 5.705 -11.562 -10.755 
54 1 11.705 13.734 1.415 
55 1 3.974 -6.290 -11.159 
56 1 -8.784 0.817 15.963 
57 1 7.621 9.546 8.327 
58 1 15.022 -2.731 -11.809 
59 1 4.142 -10.272 -13.832 
60 1 -0.590 0.963 0.110 
61 1 11.647 13.477 6.448 
62 1 -13.880 -7.322 -10.324 
63 1 5.905 -16.060 8.188 
64 1 -9.088 -12.190 3.989 
65 1 -6.022 8.455 10.629 
66 1 -9.894 11.080 -4.353 
67 1 11.533 1.898 4.807 
68 1 14.752 7.139 -6.038 
69 1 0.523 -9.583 -14.019 
70 1 -6.504 11.487 6.992 
71 1 14.803 0.701 4.787 
72 1 10.022 16.191 4.779 
73 1 -7.096 -14.458 2.561 
74 1 -11.289 2.305 -13.758 
75 1 -0.279 -12.810 2.154 
76 1 10.590 14.616 13.398 
77 1 -4.749 -9.309 1.864 
78 1 1.169 -9.336 -10.638 
79 1 6.763 -11.463 16.467 
80 1 -13.059 -2.271 7.041 
81 1 -0.652 -5.524 -10.575 
82 1 -7.513 14.627 7.143 
83 1 -3.116 -10.500 -3.471 
84 1 -8.528 0.222 12.074 
85 1 -15.722 11.786 -14.117 
86 1 -4.264 -7.892 -7.650 
87 1 -6.497 11.222 -10.192 
88 1 0.296 2.346 -4.798 
89 1 -2.273 -2.679 -8.568 
90 1 3.143 5.811 -1.651 
91 1 15.468 -14.158 3.904 
92 1 -1.192 15.917 8.361 
93 1 -12.287 4.595 -8.914 
94 1 13.702 7.243 -11.200 
95 1 -0.596 15.317 4.122 
96 1 -10.814 6.886 -4.745 
97 1 -6.608 5.292 8.578 
98 1 -14.322 6.139 -6.223 
99 1 -2.773 13.127 -1.717 
100 1 3.397 -0.912 -6.088 
101 1 -1.606 12.579 9.616 
102 1 -9.930 -8.079 3.663 
103 1 15.182 -7.002 -11.247 
104 1 -12.605 9.596 -11.972 
105 1 -6.625 -15.534 10.276 
106 1 7.851 -9.352 -12.419 
107 1 1.610 -2.103 1.825 
108 1 10.903 12.068 -14.229 
109 1 -5.679 7.973 6.079 
110 1 -2.837 5.806 10.626 
111 1 2.217 -4.137 13.296 
112 1 10.196 14.440 10.078 
113 1 -12.966 5.839 -12.877 
114 1 7.160 5.027 11.128 
115 1 -10.744 -10.547 -12.810 
116 1 0.933 -3.845 -1.288 
117 1 10.728 -3.114 3.625 
118 1 -6.191 -3.589 -3.674 
119 1 11.210 -12.983 -9.500 
120 1 -5.891 -2.374 8.407 
121 1 5.124 3.557 -15.053 
122 1 -7.695 8.540 -6.645 
123 1 -4.057 11.306 1.974 
124 1 5.797 3.356 8.208 
125 1 2.516 -4.766 -8.523 
126 1 -10.552 -7.068 7.519 
127 1 -3.632 2.724 8.982 
128 1 15.263 13.273 -6.633 
129 1 -1.815 13.485 14.865 
130 1 11.959 -5.442 -13.265 
131 1 -5.838 0.143 5.685 
132 1 -10.295 12.320 7.436 
133 1 7.452 -5.042 -10.585 
134 1 14.163 15.177 13.769 
135 1 13.938 -3.221 5.840 
136 1 -4.657 0.077 11.610 
137 1 0.353 5.308 1.902 
138 1 -3.574 13.525 -5.163 
139 1 -6.292 -11.311 -12.656 
140 1 -1.969 16.057 11.259 
141 1 -5.438 -2.203 -6.666 
142 1 -10.239 -0.288 7.537 
143 1 -5.103 -8.281 -4.381 
144 1 -4.344 15.293 9.090 
145 1 -8.789 8.874 7.840 
146 1 -6.351 -5.905 -6.332 
147 1 -13.622 -4.585 -7.222 
148 1 -0.077 8.528 7.438 
149 1 -7.022 -2.396 -13.958 
150 1 -4.915 -12.853 8.079 
151 1 6.159 2.944 0.291 
152 1 -9.797 5.546 6.403 
153 1 2.473 -0.875 6.497 
154 1 -3.200 -12.936 -15.881 
155 1 -6.088 7.522 14.901 
156 1 0.553 5.495 -3.680 
157 1 12.891 8.549 -14.592 
158 1 -3.224 -2.955 14.629 
159 1 -15.654 8.406 -11.674 
160 1 -7.976 -3.638 11.534 
161 1 -6.741 -14.288 15.919 
162 1 5.474 -12.710 5.812 
163 1 -0.263 -7.089 -7.331 
164 1 7.154 13.871 11.832 
165 1 -6.972 12.679 -6.894 
166 1 -4.231 -5.768 -14.063 
167 1 -6.485 5.150 4.476 
168 1 -0.423 8.653 -0.023 
169 1 -8.608 0.877 3.944 
170 1 -9.201 10.525 4.651 
171 1 3.052 -0.375 -2.434 
172 1 3.951 11.659 7.751 
173 1 -3.542 8.165 -3.603 
174 1 -15.282 -4.639 -14.651 
175 1 11.302 -3.059 12.854 
176 1 3.762 2.881 14.658 
177 1 10.934 14.027 -10.392 
178 1 2.465 1.670 2.242 
179 1 -8.995 -15.367 7.470 
180 1 -3.106 -5.070 -5.208 
181 1 12.571 -14.516 11.012 
182 1 -7.530 -6.101 5.501 
183 1 8.846 3.951 2.887 
184 1 -4.058 10.307 -6.957 
185 1 12.414 -1.658 0.899 
186 1 -2.270 13.689 -8.820 
187 1 -4.081 -15.045 13.479 
188 1 8.409 6.676 5.929 
189 1 9.780 11.217 11.740 
190 1 1.951 -14.491 7.653 
191 1 -4.882 16.405 4.932 
192 1 -5.041 -3.109 -11.127 
193 1 -10.078 -14.515 -13.975 
194 1 4.467 12.696 -4.552 
195 1 -14.800 3.840 9.429 
196 1 -6.206 13.204 12.044 
197 1 -5.701 3.527 11.770 
198 1 -2.824 3.574 13.630 
199 1 7.759 -0.330 2.126 
200 1 5.251 -12.969 -7.606 
ITEM: TIMESTEP
3000
ITEM: NUMBER OF ATOMS
200
ITEM: BOX BOUNDS pp pp pp
-16.49818434247616 16.49818434247616
-16.49818434247616 16.49818434247616
-16.49818434247616 16.49818434247616
ITEM: ATOMS id type x y z
1 1 4.036 6.883 2.304 
2 1 2.372 15.776 0.393 
3 1 0.526 1.141 -12.194 
4 1 -4.144 10.112 8.056 
5 1 -11.289 -0.709 3.693 
6 1 1.704 14.961 10.026 
7 1 5.473 -5.300 5.810 
8 1 1.971 10.525 11.087 
9 1 2.772 15.477 4.531 
10 1 -6.470 9.625 -4.023 
11 1 -1.462 -14.990 5.811 
12 1 14.184 13.006 9.638 
13 1 -9.271 -7.071 -1.735 
14 1 -14.410 -9.502 7.771 
15 1 7.344 5.328 14.156 
16 1 0.413 14.526 -13.488 
17 1 -4.016 -13.230 -0.020 
18 1 -1.759 -12.765 -5.327 
19 1 -7.649 2.960 7.522 
20 1 -2.873 0.020 -4.384 
21 1 0.757 -4.905 -13.281 
22 1 -1.991 -10.661 -9.720 
23 1 10.986 10.968 -11.309 
24 1 14.258 10.578 -10.641 
25 1 -9.542 12.110 12.948 
26 1 8.109 -13.577 -11.351 
27 1 -13.995 1.460 7.171 
28 1 -14.588 13.244 -9.401 
29 1 -2.147 6.131 -5.471 
30 1 -10.067 -3.349 7.407 
31 1 -11.251 2.754 3.654 
32 1 1.121 12.701 6.092 
33 1 -0.289 -2.245 -11.582 
34 1 -11.185 8.598 11.384 
35 1 -2.693 -13.511 10.109 
36 1 -13.084 2.340 13.760 
37 1 5.451 -4.801 -14.754 
38 1 -4.294 -12.040 3.176 
39 1 -9.345 6.198 9.778 
40 1 1.299 4.480 -15.849 
41 1 -1.160 -7.212 -3.042 
42 1 15.697 15.006 -9.958 
43 1 -15.752 -2.607 1.919 
44 1 3.924 -1.719 -10.488 
45 1 6.017 -14.603 -3.969 
46 1 -10.254 14.943 11.351 
47 1 -9.386 -11.789 8.718 
48 1 3.432 -14.215 3.163 
49 1 6.287 0.902 10.988 
50 1 7.875 11.911 -12.715 
51 1 -3.521 13.654 5.431 
52 1 3.620 7.709 9.427 
53 1 6.109 -10.696 -10.663 
54 1 12.149 14.285 1.701 
55 1 3.531 -7.078 -11.582 
56 1 -9.487 0.428 15.392 
57 1 8.402 10.188 7.893 
58 1 14.805 -2.101 -11.789 
59 1 3.703 -10.376 -13.221 
60 1 -1.054 -0.453 0.531 
61 1 11.683 12.605 5.298 
62 1 -13.730 -6.692 -11.531 
63 1 5.010 -15.677 8.258 
64 1 -9.711 -12.328 3.271 
65 1 -6.195 8.464 10.677 
66 1 -9.619 11.108 -4.336 
67 1 12.251 1.909 4.704 
68 1 14.970 6.112 -6.996 
69 1 -1.789 -9.208 -13.591 
70 1 -6.543 11.729 6.802 
71 1 15.720 1.217 4.512 
72 1 8.986 -15.719 3.419 
73 1 -7.311 -14.893 2.962 
74 1 -11.201 2.639 -14.206 
75 1 -0.787 -14.277 2.068 
76 1 10.100 15.396 13.315 
77 1 -4.518 -8.704 2.743 
78 1 1.213 -9.239 -9.822 
79 1 6.185 -12.084 -15.649 
80 1 -13.636 -2.360 5.961 
81 1 -0.550 -5.263 -10.255 
82 1 -6.869 14.737 6.298 
83 1 -2.730 -10.421 -2.889 
84 1 -8.536 -0.400 11.821 
85 1 -15.801 13.120 -14.436 
86 1 -4.100 -8.062 -7.723 
87 1 -5.984 11.200 -10.616 
88 1 0.141 2.204 -3.817 
89 1 -1.002 -1.899 -8.032 
90 1 3.356 5.309 -0.958 
91 1 16.030 -14.495 3.833 
92 1 -1.179 15.912 8.518 
93 1 -11.255 4.417 -8.536 
94 1 13.883 7.299 -11.694 
95 1 -0.482 15.021 3.724 
96 1 -11.538 7.631 -4.867 
97 1 -6.050 6.074 7.907 
98 1 -14.201 5.658 -5.371 
99 1 -3.560 13.131 -1.478 
100 1 3.599 -1.076 -6.546 
101 1 -1.831 11.598 9.702 
102 1 -10.026 -9.091 3.846 
103 1 15.573 -7.757 -12.791 
104 1 -12.516 9.833 -13.459 
105 1 -6.740 -15.775 10.408 
106 1 7.241 -8.177 -13.190 
107 1 1.546 -2.362 1.778 
108 1 11.400 12.505 -14.525 
109 1 -5.821 8.243 5.320 
110 1 -3.461 6.038 10.822 
111 1 1.724 -3.662 12.983 
112 1 9.199 14.665 9.069 
113 1 -12.036 6.597 -13.028 
114 1 6.185 4.782 10.785 
115 1 -10.013 -11.090 -11.807 
116 1 0.937 -4.342 -2.441 
117 1 11.537 -2.896 3.908 
118 1 -6.121 -3.700 -4.429 
119 1 11.740 -13.322 -8.676 
120 1 -6.322 -2.841 7.574 
121 1 6.144 3.607 -14.991 
122 1 -7.411 6.870 -7.607 
123 1 -3.580 10.944 1.656 
124 1 6.372 2.554 6.415 
125 1 3.096 -4.572 -7.412 
126 1 -10.029 -6.654 8.684 
127 1 -3.770 2.798 9.605 
128 1 15.157 12.641 -6.475 
129 1 -2.741 13.391 15.167 
130 1 11.894 -4.920 -12.664 
131 1 -5.522 0.308 5.801 
132 1 -10.211 12.440 7.463 
133 1 7.177 -4.415 -10.054 
134 1 14.017 15.281 15.133 
135 1 14.059 -3.378 5.789 
136 1 -2.920 -0.542 12.179 
137 1 0.500 4.867 1.511 
138 1 -3.231 13.254 -5.766 
139 1 -6.229 -11.119 -13.973 
140 1 -2.307 16.177 11.812 
141 1 -5.449 -1.995 -7.741 
142 1 -10.609 0.115 7.187 
143 1 -5.131 -8.437 -4.353 
144 1 -4.118 14.428 9.150 
145 1 -8.837 9.557 8.711 
146 1 -7.008 -6.024 -6.769 
147 1 -13.563 -4.604 -6.487 
148 1 -0.634 8.908 8.413 
149 1 -7.750 -3.396 -13.745 
150 1 -5.521 -12.344 8.782 
151 1 6.300 3.175 -0.571 
152 1 -9.441 6.320 5.531 
153 1 2.366 -0.562 6.142 
154 1 -3.529 -13.246 -15.766 
155 1 -5.298 7.888 14.183 
156 1 0.152 5.643 -2.743 
157 1 11.998 8.049 -15.975 
158 1 -3.727 -3.067 14.254 
159 1 -15.764 8.142 -10.954 
160 1 -8.139 -4.694 11.060 
161 1 -6.885 -13.346 15.718 
162 1 5.959 -12.612 5.338 
163 1 0.153 -6.832 -6.192 
164 1 7.374 13.329 12.617 
165 1 -7.324 12.982 -6.919 
166 1 -4.051 -6.658 -13.153 
167 1 -6.588 4.445 3.921 
168 1 -0.499 8.075 0.544 
169 1 -7.985 1.302 3.899 
170 1 -8.909 10.287 4.359 
171 1 2.583 0.149 -2.362 
172 1 4.685 11.181 6.658 
173 1 -1.805 9.323 -2.708 
174 1 -15.420 -6.085 -14.546 
175 1 11.048 -2.937 11.737 
176 1 3.105 2.659 13.971 
177 1 11.818 14.071 -9.591 
178 1 2.274 1.076 2.832 
179 1 -9.040 -15.655 7.465 
180 1 -2.934 -5.015 -5.957 
181 1 10.510 -15.158 11.059 
182 1 -8.050 -5.941 4.434 
183 1 9.166 4.552 2.093 
184 1 -4.221 10.165 -7.169 
185 1 13.153 -2.268 -0.049 
186 1 -2.938 13.381 -9.623 
187 1 -4.306 -15.810 14.148 
188 1 7.782 5.908 6.041 
189 1 10.471 11.194 12.076 
190 1 1.571 -13.808 8.006 
191 1 -4.802 -15.836 4.854 
192 1 -4.358 -3.116 -12.011 
193 1 -9.322 -13.973 -14.343 
194 1 3.854 12.504 -4.360 
195 1 -15.009 4.783 9.095 
196 1 -6.749 13.692 12.083 
197 1 -5.502 3.079 12.437 
198 1 -1.936 3.086 13.827 
199 1 7.255 -0.672 0.977 
200 1 6.504 -12.597 -7.636 
ITEM: TIMESTEP
4000
ITEM: NUMBER OF ATOMS
200
ITEM: BOX BOUNDS pp pp pp
-16.49818434247616 16.49818434247616
-16.49818434247616 16.49818434247616
-16.49818434247616 16.49818434247616
ITEM: ATOMS id type x y z
1 1 4.731 6.841 1.989 
2 1 2.478 14.774 1.176 
3 1 0.443 1.378 -11.887 
4 1 -3.859 9.495 7.554 
5 1 -12.219 -0.544 3.474 
6 1 2.916 14.617 10.248 
7 1 5.559 -5.980 7.047 
8 1 1.843 10.898 11.345 
9 1 3.583 14.589 4.743 
10 1 -6.151 7.895 -3.616 
11 1 -1.187 -14.517 5.818 
12 1 14.278 13.897 9.116 
13 1 -9.929 -5.983 -2.671 
14 1 -13.966 -9.798 7.416 
15 1 6.392 6.099 14.660 
16 1 0.133 14.374 -13.977 
17 1 -4.618 -12.712 -0.788 
18 1 -0.628 -11.234 -4.827 
19 1 -7.739 1.973 7.717 
20 1 -2.811 -0.202 -4.838 
21 1 0.917 -4.913 -13.391 
22 1 -2.010 -12.012 -10.074 
23 1 10.610 10.539 -10.231 
24 1 13.784 11.076 -9.816 
25 1 -9.294 11.432 13.978 
26 1 8.072 -14.015 -11.761 
27 1 -13.962 1.623 7.385 
28 1 -14.436 13.123 -10.350 
29 1 -2.667 5.311 -6.595 
30 1 -10.298 -2.496 9.493 
31 1 -12.014 3.118 4.470 
32 1 0.476 12.664 5.706 
33 1 -0.624 -1.674 -11.983 
34 1 -11.447 8.284 10.108 
35 1 -3.420 -14.697 11.146 
36 1 -11.890 2.198 14.888 
37 1 5.386 -4.977 -14.213 
38 1 -3.169 -12.180 3.402 
39 1 -9.243 6.126 8.878 
40 1 1.028 2.502 -15.037 
41 1 -1.824 -6.651 -3.302 
42 1 15.581 15.455 -9.802 
43 1 -14.748 -2.195 1.695 
44 1 3.997 -1.500 -10.938 
45 1 8.015 -13.528 -4.986 
46 1 -10.453 15.402 11.273 
47 1 -10.952 -10.956 9.672 
48 1 2.637 -13.673 4.116 
49 1 5.816 0.746 12.262 
50 1 7.897 12.030 -12.960 
51 1 -3.092 12.378 5.970 
52 1 4.003 7.986 9.396 
53 1 6.882 -10.055 -11.052 
54 1 12.898 13.459 2.317 
55 1 3.408 -6.800 -11.617 
56 1 -8.601 0.633 16.392 
57 1 9.034 9.449 7.884 
58 1 15.367 -2.040 -10.303 
59 1 3.678 -10.185 -13.145 
60 1 -0.529 0.221 0.318 
61 1 11.091 12.358 5.943 
62 1 -12.921 -5.547 -10.160 
63 1 5.460 -16.409 7.165 
64 1 -10.133 -12.102 4.952 
65 1 -6.176 7.752 10.739 
66 1 -9.656 11.587 -4.582 
67 1 12.136 2.611 5.045 
68 1 14.457 5.284 -7.543 
69 1 -1.734 -10.419 -14.219 
70 1 -6.308 11.898 6.727 
71 1 15.389 1.379 5.654 
72 1 9.775 -15.832 2.256 
73 1 -7.080 -14.501 2.920 
74 1 -11.354 1.955 -14.616 
75 1 -0.492 -14.535 2.653 
76 1 9.462 15.635 13.067 
77 1 -4.063 -7.609 4.610 
78 1 0.936 -8.652 -9.747 
79 1 5.901 -12.273 16.112 
80 1 -13.825 -1.380 6.098 
81 1 0.027 -4.249 -8.911 
82 1 -7.099 15.054 6.304 
83 1 -2.091 -10.446 -1.668 
84 1 -8.457 -0.763 12.636 
85 1 -16.308 13.028 -14.858 
86 1 -3.842 -8.132 -7.906 
87 1 -6.235 10.885 -11.328 
88 1 0.428 1.514 -5.071 
89 1 -0.770 -1.420 -7.488 
90 1 3.145 6.006 -0.824 
91 1 16.204 -14.221 3.911 
92 1 -0.570 15.644 8.182 
93 1 -11.240 4.076 -8.256 
94 1 12.912 7.553 -12.115 
95 1 -0.083 15.563 3.303 
96 1 -10.966 7.482 -4.938 
97 1 -6.203 5.989 7.320 
98 1 -14.013 5.540 -5.546 
99 1 -3.925 14.253 -1.947 
100 1 3.990 -1.745 -6.740 
101 1 -1.419 12.122 9.519 
102 1 -9.475 -8.948 3.078 
103 1 15.363 -7.961 -12.931 
104 1 -12.650 10.581 -13.522 
105 1 -6.994 -16.442 9.898 
106 1 7.174 -8.062 -13.736 
107 1 2.452 -2.791 2.621 
108 1 12.467 13.455 -14.634 
109 1 -5.859 8.382 4.702 
110 1 -2.715 5.980 11.570 
111 1 2.242 -3.887 12.450 
112 1 9.292 14.094 9.131 
113 1 -12.937 6.551 -13.454 
114 1 5.809 4.542 11.176 
115 1 -11.327 -11.458 -11.752 
116 1 2.309 -5.904 -2.071 
117 1 11.380 -4.103 3.147 
118 1 -5.240 -3.741 -4.302 
119 1 12.029 -13.052 -9.739 
120 1 -6.248 -3.400 7.904 
121 1 5.822 3.505 -16.063 
122 1 -7.748 6.144 -7.859 
123 1 -4.131 10.498 2.845 
124 1 6.968 2.385 6.541 
125 1 3.173 -4.950 -7.106 
126 1 -9.861 -7.931 7.528 
127 1 -4.013 2.808 9.225 
128 1 14.710 13.675 -5.341 
129 1 -3.322 13.057 14.919 
130 1 11.078 -6.021 -13.722 
131 1 -4.304 -0.725 6.359 
132 1 -9.876 13.401 6.298 
133 1 7.461 -5.136 -11.345 
134 1 13.381 15.189 15.142 
135 1 13.840 -2.220 5.831 
136 1 -3.147 0.853 13.476 
137 1 0.495 5.071 1.396 
138 1 -2.995 13.066 -5.750 
139 1 -6.081 -11.913 -12.149 
140 1 -1.667 15.922 11.712 
141 1 -5.835 -2.185 -7.731 
142 1 -10.527 -0.424 6.901 
143 1 -4.673 -8.707 -4.802 
144 1 -4.655 14.630 9.238 
145 1 -8.634 10.519 9.496 
146 1 -6.805 -6.382 -7.899 
147 1 -14.689 -3.979 -7.144 
148 1 -0.511 8.243 8.993 
149 1 -7.952 -2.169 -14.296 
150 1 -6.314 -11.769 7.260 
151 1 6.045 2.692 -0.219 
152 1 -9.918 6.750 5.775 
153 1 2.773 -0.093 6.388 
154 1 -2.250 -13.688 -15.209 
155 1 -5.741 8.749 14.241 
156 1 0.523 6.082 -3.637 
157 1 11.077 8.406 -15.626 
158 1 -4.359 -2.314 14.926 
159 1 -14.858 8.234 -10.428 
160 1 -7.279 -5.237 11.800 
161 1 -7.330 -13.275 15.269 
162 1 5.910 -12.334 6.289 
163 1 -0.152 -7.329 -6.504 
164 1 7.100 12.906 11.738 
165 1 -7.533 12.074 -7.352 
166 1 -4.249 -6.635 -12.914 
167 1 -6.261 4.290 2.838 
168 1 -0.463 8.303 1.236 
169 1 -7.836 1.053 3.252 
170 1 -9.257 10.210 4.372 
171 1 2.393 0.302 -1.896 
172 1 5.057 10.843 5.696 
173 1 -2.002 9.409 -2.637 
174 1 -15.397 -5.788 -15.451 
175 1 10.640 -3.991 12.135 
176 1 2.447 3.159 14.822 
177 1 10.875 14.756 -10.448 
178 1 3.005 0.763 3.045 
179 1 -9.833 -15.967 7.196 
180 1 -3.532 -4.861 -7.190 
181 1 10.877 -15.792 10.287 
182 1 -7.871 -5.110 4.458 
183 1 8.775 4.831 1.504 
184 1 -5.207 9.346 -7.783 
185 1 12.553 -1.746 -0.476 
186 1 -3.033 12.610 -10.245 
187 1 -3.979 -16.329 14.520 
188 1 7.001 7.077 6.197 
189 1 10.448 11.583 10.480 
190 1 1.840 -13.733 7.729 
191 1 -4.384 -16.123 4.476 
192 1 -3.590 -2.966 -11.828 
193 1 -8.098 -14.532 -14.101 
194 1 4.705 13.085 -4.637 
195 1 -15.867 4.866 10.641 
196 1 -6.874 14.212 13.475 
197 1 -6.082 3.779 12.007 
198 1 -0.773 3.595 13.194 
199 1 7.802 -0.149 1.749 
200 1 5.990 -12.462 -8.149 
ITEM: TIMESTEP
5000
ITEM: NUMBER OF ATOMS
200
ITEM: BOX BOUNDS pp pp pp
-16.49818434247616 16.49818434247616
-16.49818434247616 16.49818434247616
-16.49818434247616 16.49818434247616
ITEM: ATOMS id type x y z
1 1 4.791 7.444 2.207 
2 1 2.543 13.373 0.316 
3 1 0.644 2.023 -10.609 
4 1 -2.667 9.212 7.460 
5 1 -11.453 -0.834 3.196 
6 1 3.628 15.020 8.956 
7 1 5.783 -5.049 6.470 
8 1 3.988 10.604 10.618 
9 1 3.368 13.528 4.528 
10 1 -7.036 8.978 -2.447 
11 1 -0.882 -14.699 6.005 
12 1 15.148 14.078 10.309 
13 1 -9.678 -6.974 -3.283 
14 1 -14.664 -9.106 7.206 
15 1 6.018 6.854 15.390 
16 1 -0.284 13.926 -13.633 
17 1 -3.679 -13.315 0.552 
18 1 0.333 -10.841 -5.464 
19 1 -6.976 2.513 8.271 
20 1 -2.804 -0.235 -4.528 
21 1 0.108 -5.151 -13.107 
22 1 -2.132 -11.442 -9.731 
23 1 10.122 10.425 -10.131 
24 1 14.114 12.358 -9.158 
25 1 -9.270 10.425 15.496 
26 1 7.968 -13.549 -11.902 
27 1 -13.339 1.726 7.169 
28 1 -13.479 12.700 -9.283 
29 1 -0.524 4.067 -7.128 
30 1 -9.949 -1.996 8.982 
31 1 -11.940 2.905 4.166 
32 1 0.305 12.116 4.847 
33 1 0.565 -1.921 -11.825 
34 1 -12.285 7.567 11.333 
35 1 -3.060 -13.983 11.165 
36 1 -12.208 2.147 14.622 
37 1 5.137 -3.711 -14.785 
38 1 -2.606 -10.637 3.339 
39 1 -9.256 5.768 9.007 
40 1 0.690 3.291 -14.813 
41 1 -2.276 -5.650 -4.076 
42 1 -16.465 16.263 -9.552 
43 1 -15.061 -2.504 2.279 
44 1 3.779 -3.290 -11.196 
45 1 8.331 -12.696 -6.237 
46 1 -10.252 16.225 12.324 
47 1 -11.228 -11.571 9.387 
48 1 2.911 -13.975 5.175 
49 1 6.577 1.445 12.713 
50 1 7.610 10.569 -13.551 
51 1 -2.771 13.137 5.081 
52 1 4.046 8.069 8.497 
53 1 7.455 -10.523 -9.953 
54 1 13.058 13.419 2.116 
55 1 3.086 -6.705 -12.286 
56 1 -8.303 0.317 16.108 
57 1 8.354 9.661 8.362 
58 1 15.098 -1.977 -10.548 
59 1 3.498 -10.684 -13.013 
60 1 -0.757 1.042 -0.027 
61 1 12.146 12.765 7.144 
62 1 -13.509 -5.411 -10.186 
63 1 6.091 16.139 6.446 
64 1 -11.606 -12.974 5.401 
65 1 -5.174 7.969 11.277 
66 1 -9.432 12.093 -3.915 
67 1 12.138 3.170 5.779 
68 1 14.826 6.188 -7.563 
69 1 -1.813 -10.196 -15.138 
70 1 -6.211 11.614 7.017 
71 1 15.209 0.765 5.291 
72 1 10.704 -14.974 2.492 
73 1 -7.416 -14.830 1.717 
74 1 -10.534 2.793 -13.179 
75 1 0.425 -13.605 2.410 
76 1 9.326 15.297 12.373 
77 1 -4.804 -6.849 5.967 
78 1 0.807 -8.683 -10.130 
79 1 7.020 -13.454 15.893 
80 1 -13.348 -2.016 5.754 
81 1 0.142 -4.303 -8.717 
82 1 -6.811 15.106 6.874 
83 1 -1.354 -9.951 -0.401 
84 1 -8.729 -1.167 12.391 
85 1 -16.071 12.148 -14.223 
86 1 -2.563 -7.815 -7.673 
87 1 -5.166 9.906 -13.255 
88 1 0.755 1.103 -4.816 
89 1 -0.439 -1.289 -7.411 
90 1 2.897 5.758 -0.644 
91 1 15.688 -14.380 3.400 
92 1 0.925 15.861 7.310 
93 1 -10.841 3.402 -8.961 
94 1 12.582 7.457 -12.835 
95 1 0.027 15.435 3.470 
96 1 -10.470 7.587 -4.376 
97 1 -6.752 6.423 6.631 
98 1 -13.759 5.533 -5.193 
99 1 -3.134 14.977 -2.162 
100 1 4.150 -1.204 -7.553 
101 1 -1.316 12.264 9.374 
102 1 -8.592 -9.051 2.321 
103 1 15.463 -9.084 -12.311 
104 1 -11.753 11.300 -12.533 
105 1 -7.016 -16.315 10.034 
106 1 6.582 -7.970 -13.690 
107 1 1.885 -2.598 1.775 
108 1 12.242 12.707 -16.197 
109 1 -5.860 8.610 3.845 
110 1 -2.242 6.304 11.284 
111 1 3.272 -4.215 12.066 
112 1 9.198 14.650 8.805 
113 1 -12.515 7.061 -12.706 
114 1 5.537 4.750 11.386 
115 1 -10.971 -11.180 -10.670 
116 1 2.400 -5.100 -2.011 
117 1 11.319 -3.490 3.052 
118 1 -6.113 -2.803 -4.060 
119 1 10.801 -12.575 -9.397 
120 1 -6.648 -4.347 8.127 
121 1 6.184 3.385 16.383 
122 1 -8.450 6.527 -6.774 
123 1 -2.667 10.133 2.216 
124 1 6.600 2.270 5.264 
125 1 3.129 -4.547 -6.866 
126 1 -10.620 -7.849 8.416 
127 1 -3.663 3.547 9.282 
128 1 14.529 13.770 -5.168 
129 1 -3.596 11.576 14.151 
130 1 11.250 -6.885 -12.868 
131 1 -5.331 -1.068 7.459 
132 1 -10.246 13.067 7.007 
133 1 8.154 -5.141 -11.003 
134 1 13.726 15.986 15.659 
135 1 13.548 -2.330 6.556 
136 1 -3.874 1.465 13.620 
137 1 0.095 5.114 1.018 
138 1 -2.692 12.031 -5.518 
139 1 -5.438 -11.704 -11.758 
140 1 -1.220 15.615 10.513 
141 1 -6.984 -2.205 -7.842 
142 1 -10.059 0.326 6.864 
143 1 -4.524 -9.767 -4.968 
144 1 -4.102 14.222 8.944 
145 1 -9.308 10.902 11.050 
146 1 -6.979 -6.002 -8.470 
147 1 -15.197 -4.616 -6.215 
148 1 0.209 8.270 9.756 
149 1 -7.503 -1.933 -13.690 
150 1 -7.354 -12.502 8.290 
151 1 5.584 3.334 -0.130 
152 1 -10.894 6.857 5.558 
153 1 3.344 -1.474 5.768 
154 1 -1.187 -13.796 -14.053 
155 1 -5.496 8.613 14.687 
156 1 -0.760 6.062 -3.685 
157 1 9.938 9.334 -15.809 
158 1 -4.692 -2.154 12.889 
159 1 -14.690 8.808 -10.598 
160 1 -7.664 -5.288 11.484 
161 1 -8.052 -12.689 15.920 
162 1 6.419 -11.835 7.453 
163 1 0.137 -7.106 -5.896 
164 1 6.968 12.865 10.698 
165 1 -7.323 12.413 -7.042 
166 1 -3.636 -7.828 -11.797 
167 1 -5.780 5.293 2.022 
168 1 0.494 8.548 -0.030 
169 1 -7.287 2.565 2.815 
170 1 -10.461 9.993 5.185 
171 1 2.581 1.000 -0.314 
172 1 4.858 10.303 5.281 
173 1 -3.026 9.615 -2.106 
174 1 16.444 -5.563 -16.299 
175 1 10.386 -3.108 13.508 
176 1 2.793 2.552 14.608 
177 1 10.981 14.454 -10.090 
178 1 3.327 1.346 3.050 
179 1 -9.801 -15.185 6.946 
180 1 -3.593 -4.667 -7.743 
181 1 12.347 -16.466 10.450 
182 1 -7.352 -4.547 4.941 
183 1 8.326 5.319 0.892 
184 1 -4.791 9.132 -7.704 
185 1 11.610 -1.346 -0.186 
186 1 -4.093 12.358 -11.122 
187 1 -4.008 16.288 14.922 
188 1 7.035 7.092 5.625 
189 1 10.207 12.037 11.195 
190 1 1.528 -13.615 8.519 
191 1 -4.305 16.170 4.578 
192 1 -3.680 -3.529 -12.795 
193 1 -8.772 -14.150 -14.183 
194 1 5.312 12.748 -7.378 
195 1 -15.611 5.905 9.853 
196 1 -7.028 14.082 13.642 
197 1 -6.085 3.689 12.310 
198 1 -0.184 3.726 12.738 
199 1 6.155 0.338 1.636 
200 1 5.246 -13.359 -7.009 
ITEM: TIMESTEP
6000
ITEM: NUMBER OF ATOMS
200
ITEM: BOX BOUNDS pp pp pp
-16.49818434247616 16.49818434247616
-16.49818434247616 16.49818434247616
-16.49818434247616 16.49818434247616
ITEM: ATOMS id type x y z
1 1 4.598 7.753 1.871 
2 1 1.821 13.104 1.336 
3 1 0.200 2.616 -10.475 
4 1 -1.554 9.141 7.272 
5 1 -10.883 -1.059 3.751 
6 1 3.596 14.993 9.038 
7 1 7.503 -4.588 6.492 
8 1 3.589 11.637 9.862 
9 1 4.309 14.747 3.368 
10 1 -7.370 8.303 -2.305 
11 1 -1.287 -13.497 6.597 
12 1 15.398 14.188 11.310 
13 1 -9.552 -6.764 -2.910 
14 1 -15.979 -9.313 7.119 
15 1 5.888 6.260 15.311 
16 1 -0.286 13.485 -13.601 
17 1 -3.386 -13.582 0.965 
18 1 0.539 -11.180 -6.158 
19 1 -7.100 2.837 7.687 
20 1 -2.743 -0.019 -4.892 
21 1 -0.353 -4.831 -13.900 
22 1 -0.485 -11.555 -9.855 
23 1 10.685 10.672 -9.605 
24 1 14.467 12.175 -8.792 
25 1 -8.967 11.065 14.311 
26 1 7.727 -14.220 -11.771 
27 1 -13.320 2.515 7.788 
28 1 -13.823 12.876 -9.541 
29 1 -0.320 3.553 -7.028 
30 1 -9.872 -1.508 8.879 
31 1 -12.061 2.759 3.685 
32 1 1.565 12.822 5.229 
33 1 0.905 -0.848 -13.111 
34 1 -12.179 7.950 12.341 
35 1 -2.105 -13.798 11.309 
36 1 -13.081 2.848 13.872 
37 1 4.849 -2.399 -14.400 
38 1 -2.813 -10.477 2.658 
39 1 -10.120 7.313 8.824 
40 1 0.654 2.311 -14.843 
41 1 -2.513 -4.871 -4.475 
42 1 15.755 15.809 -8.953 
43 1 -15.282 -3.090 2.332 
44 1 4.338 -1.863 -11.324 
45 1 9.359 -13.066 -6.060 
46 1 -10.374 15.183 14.169 
47 1 -10.805 -10.349 10.375 
48 1 3.126 -13.200 4.617 
49 1 6.099 1.412 12.529 
50 1 7.510 12.511 -12.916 
51 1 -2.147 13.781 5.130 
52 1 3.698 7.853 7.600 
53 1 8.153 -10.338 -9.849 
54 1 12.253 14.214 0.659 
55 1 3.500 -6.196 -12.986 
56 1 -8.489 0.557 16.093 
57 1 8.574 10.353 8.260 
58 1 14.656 -1.908 -10.131 
59 1 2.984 -10.314 -13.944 
60 1 -1.401 1.035 0.725 
61 1 12.526 14.013 6.537 
62 1 -13.538 -5.167 -10.146 
63 1 5.662 16.078 6.016 
64 1 -12.100 -12.110 5.244 
65 1 -4.882 8.412 10.741 
66 1 -9.228 12.690 -4.687 
67 1 12.776 3.602 7.137 
68 1 15.706 6.308 -8.213 
69 1 0.355 -9.759 -15.693 
70 1 -6.732 10.655 6.566 
71 1 -15.938 0.564 4.813 
72 1 9.978 -13.449 0.799 
73 1 -7.085 -15.405 1.960 
74 1 -10.364 3.027 -12.962 
75 1 0.177 -13.393 2.393 
76 1 10.027 15.118 12.100 
77 1 -4.150 -6.424 6.189 
78 1 0.926 -8.013 -10.629 
79 1 8.377 -13.488 15.330 
80 1 -13.533 -2.422 5.197 
81 1 0.752 -5.060 -9.121 
82 1 -7.423 15.029 7.200 
83 1 -0.303 -10.149 0.142 
84 1 -8.453 -0.017 11.866 
85 1 15.906 12.125 -14.692 
86 1 -4.135 -8.268 -7.812 
87 1 -5.906 9.025 -13.228 
88 1 0.992 1.644 -3.889 
89 1 0.473 -1.051 -8.422 
90 1 3.138 5.986 -0.768 
91 1 -15.681 -13.719 2.986 
92 1 1.269 -16.479 7.260 
93 1 -10.128 2.755 -9.479 
94 1 12.392 7.128 -12.604 
95 1 0.695 15.490 3.369 
96 1 -10.762 7.430 -4.398 
97 1 -6.082 5.853 6.149 
98 1 -14.210 6.535 -5.110 
99 1 -3.655 14.727 -1.852 
100 1 5.874 -1.046 -8.087 
101 1 -0.421 12.619 8.784 
102 1 -9.244 -8.716 1.541 
103 1 16.273 -8.936 -12.174 
104 1 -11.520 9.814 -12.256 
105 1 -6.765 16.477 10.111 
106 1 6.801 -8.236 -14.304 
107 1 1.048 -2.790 0.850 
108 1 12.618 12.284 -16.228 
109 1 -5.147 8.698 3.962 
110 1 -0.973 6.541 12.094 
111 1 2.110 -4.454 12.948 
112 1 8.175 14.873 8.269 
113 1 -13.129 6.424 -12.320 
114 1 5.598 6.024 11.642 
115 1 -10.446 -11.405 -10.153 
116 1 1.488 -5.243 -1.530 
117 1 11.459 -3.797 3.643 
118 1 -6.012 -2.297 -4.719 
119 1 10.666 -12.526 -9.692 
120 1 -7.082 -4.104 8.508 
121 1 6.091 2.781 -15.861 
122 1 -8.212 5.908 -7.486 
123 1 -1.610 10.560 2.669 
124 1 5.079 2.760 5.856 
125 1 2.775 -4.635 -5.546 
126 1 -10.601 -7.160 7.334 
127 1 -2.883 3.546 9.185 
128 1 14.769 12.823 -5.380 
129 1 -3.875 11.825 12.974 
130 1 10.420 -7.108 -14.469 
131 1 -4.529 -0.979 6.729 
132 1 -10.243 13.740 6.580 
133 1 8.176 -5.687 -10.495 
134 1 14.734 15.738 16.079 
135 1 13.651 -1.549 6.798 
136 1 -4.301 2.201 15.318 
137 1 0.056 4.521 1.519 
138 1 -2.106 10.881 -5.148 
139 1 -6.130 -10.630 -11.058 
140 1 -0.379 16.194 10.731 
141 1 -8.049 -2.603 -7.548 
142 1 -10.644 0.832 6.427 
143 1 -2.890 -10.746 -5.261 
144 1 -4.456 14.615 7.918 
145 1 -9.363 11.050 10.704 
146 1 -7.008 -5.841 -7.791 
147 1 -15.250 -3.520 -6.469 
148 1 0.693 8.954 10.082 
149 1 -6.892 -1.235 -14.302 
150 1 -6.518 -12.408 8.035 
151 1 5.506 3.287 0.178 
152 1 -10.299 6.728 5.365 
153 1 3.623 -0.370 5.951 
154 1 -0.945 -14.055 -14.228 
155 1 -5.056 8.757 15.139 
156 1 -0.061 5.478 -4.019 
157 1 9.979 9.191 16.450 
158 1 -5.600 -2.541 13.210 
159 1 -14.964 9.867 -11.205 
160 1 -8.332 -5.901 12.627 
161 1 -8.116 -12.516 -16.201 
162 1 5.957 -11.049 8.224 
163 1 -0.318 -7.250 -7.027 
164 1 6.248 12.983 11.176 
165 1 -6.511 13.493 -7.026 
166 1 -5.034 -7.001 -11.089 
167 1 -5.589 5.845 1.996 
168 1 0.229 7.908 0.702 
169 1 -7.745 3.112 2.818 
170 1 -10.344 10.762 4.605 
171 1 2.984 -0.734 -0.966 
172 1 6.118 12.556 6.326 
173 1 -2.925 10.136 -0.164 
174 1 16.077 -6.542 -15.958 
175 1 11.372 -3.107 13.536 
176 1 2.902 2.838 14.921 
177 1 12.424 14.730 -9.991 
178 1 2.542 3.613 3.701 
179 1 -10.347 -16.122 7.880 
180 1 -3.943 -4.373 -7.312 
181 1 13.014 -16.323 11.139 
182 1 -7.116 -4.897 4.974 
183 1 8.513 4.811 1.469 
184 1 -3.994 8.797 -7.778 
185 1 8.988 -1.339 1.229 
186 1 -4.033 12.237 -9.763 
187 1 -4.073 16.023 15.509 
188 1 6.579 6.764 4.905 
189 1 10.688 11.696 10.808 
190 1 3.257 -13.088 9.542 
191 1 -4.170 -16.413 4.360 
192 1 -2.925 -3.265 -13.027 
193 1 -8.048 -12.743 -12.790 
194 1 5.513 12.345 -8.139 
195 1 -14.934 6.020 10.781 
196 1 -6.982 13.757 13.230 
197 1 -6.049 4.154 12.210 
198 1 0.477 3.307 12.838 
199 1 6.390 0.737 1.656 
200 1 5.539 -13.903 -6.622 
ITEM: TIMESTEP
7000
ITEM: NUMBER OF ATOMS
200
ITEM: BOX BOUNDS pp pp pp
-16.49818434247616 16.49818434247616
-16.49818434247616 16.49818434247616
-16.49818434247616 16.49818434247616
ITEM: ATOMS id type x y z
1 1 4.955 7.470 1.976 
2 1 1.728 12.247 0.605 
3 1 1.000 3.787 -10.740 
4 1 -0.501 8.177 6.117 
5 1 -10.603 -0.482 4.012 
6 1 4.494 15.299 8.980 
7 1 7.051 -3.819 6.621 
8 1 4.100 10.505 9.223 
9 1 5.111 14.556 2.493 
10 1 -7.097 7.968 -2.490 
11 1 -2.241 -13.204 5.402 
12 1 14.902 13.877 11.364 
13 1 -9.706 -7.147 -2.433 
14 1 -15.874 -8.253 7.460 
15 1 6.212 7.623 14.748 
16 1 -0.623 13.104 -14.418 
17 1 -4.659 -12.963 0.375 
18 1 1.303 -11.679 -6.494 
19 1 -7.552 2.428 7.652 
20 1 -1.995 -0.758 -5.241 
21 1 -0.195 -4.913 -13.341 
22 1 -1.105 -12.237 -9.243 
23 1 10.881 10.854 -9.641 
24 1 14.964 12.286 -9.670 
25 1 -8.076 10.779 14.152 
26 1 7.553 -14.448 -11.210 
27 1 -13.278 3.554 7.662 
28 1 -14.545 13.350 -9.958 
29 1 -1.267 3.645 -6.860 
30 1 -10.049 -1.881 9.286 
31 1 -12.360 3.347 3.342 
32 1 2.729 13.053 5.949 
33 1 -0.677 -0.589 -12.708 
34 1 -12.466 8.536 11.814 
35 1 -2.596 -14.114 11.408 
36 1 -14.794 2.252 13.898 
37 1 5.181 -2.588 -14.012 
38 1 -2.839 -10.646 3.008 
39 1 -9.661 7.682 8.991 
40 1 0.142 2.556 -15.975 
41 1 -2.409 -5.149 -4.658 
42 1 14.596 15.319 -7.957 
43 1 -15.861 -4.102 1.408 
44 1 3.183 -1.080 -11.291 
45 1 9.005 -12.728 -6.535 
46 1 -9.563 14.745 14.487 
47 1 -10.135 -9.967 9.383 
48 1 2.281 -13.577 4.586 
49 1 4.995 0.748 12.879 
50 1 7.302 12.191 -11.847 
51 1 -1.744 13.447 5.971 
52 1 2.877 6.282 7.326 
53 1 8.793 -9.360 -9.986 
54 1 12.547 14.320 -0.541 
55 1 3.836 -5.766 -14.083 
56 1 -8.075 1.981 15.430 
57 1 8.387 10.069 8.366 
58 1 15.275 -1.879 -9.505 
59 1 2.622 -9.730 -14.136 
60 1 -1.120 0.754 0.552 
61 1 11.753 13.148 6.754 
62 1 -13.636 -4.918 -10.149 
63 1 6.049 -15.802 6.620 
64 1 -12.454 -12.057 5.191 
65 1 -5.223 8.069 11.276 
66 1 -8.700 14.079 -3.581 
67 1 12.083 4.039 6.876 
68 1 14.403 6.273 -7.687 
69 1 -0.395 -9.047 16.491 
70 1 -6.616 10.781 6.928 
71 1 -16.087 1.400 4.065 
72 1 9.199 -13.394 -0.160 
73 1 -8.000 -15.401 2.777 
74 1 -10.705 3.995 -12.716 
75 1 0.041 -13.517 2.025 
76 1 9.748 15.341 12.441 
77 1 -5.274 -7.359 7.778 
78 1 2.011 -8.208 -10.944 
79 1 8.738 -13.017 16.041 
80 1 -12.927 -2.779 5.234 
81 1 0.891 -4.697 -8.265 
82 1 -7.216 15.224 6.500 
83 1 -0.784 -9.690 0.019 
84 1 -8.415 -0.103 11.990 
85 1 -16.255 10.347 -14.534 
86 1 -4.313 -7.679 -6.984 
87 1 -5.118 9.475 -14.315 
88 1 2.657 1.818 -4.290 
89 1 0.065 0.293 -7.837 
90 1 3.026 5.146 -1.203 
91 1 -16.474 -14.018 3.134 
92 1 0.895 16.210 6.581 
93 1 -10.517 2.369 -9.059 
94 1 12.366 8.827 -12.263 
95 1 0.792 15.666 2.149 
96 1 -10.860 7.003 -3.830 
97 1 -4.528 6.157 6.787 
98 1 -14.919 6.990 -5.743 
99 1 -3.953 15.534 -1.576 
100 1 5.880 0.054 -8.983 
101 1 -0.046 12.929 9.100 
102 1 -9.120 -11.059 1.408 
103 1 -16.080 -9.080 -12.220 
104 1 -11.292 10.469 -12.161 
105 1 -7.916 -15.732 10.592 
106 1 6.020 -9.042 -14.425 
107 1 0.895 -2.386 0.916 
108 1 11.910 12.545 -15.713 
109 1 -5.614 8.831 3.687 
110 1 -1.110 6.507 11.958 
111 1 1.444 -4.310 12.813 
112 1 8.298 14.354 7.884 
113 1 -13.389 6.428 -12.436 
114 1 3.858 4.597 10.330 
115 1 -9.085 -11.007 -9.901 
116 1 2.268 -4.926 -1.110 
117 1 11.625 -4.141 3.544 
118 1 -5.202 -3.297 -4.120 
119 1 11.691 -12.970 -9.282 
120 1 -7.027 -4.653 8.474 
121 1 6.571 4.118 -15.700 
122 1 -8.610 5.197 -7.047 
123 1 -1.853 11.129 2.752 
124 1 5.199 3.364 6.383 
125 1 3.966 -3.288 -5.678 
126 1 -9.607 -7.401 7.448 
127 1 -1.817 3.457 9.325 
128 1 14.936 11.906 -5.831 
129 1 -4.184 11.628 12.328 
130 1 10.031 -8.257 -14.466 
131 1 -5.066 -1.147 6.032 
132 1 -11.666 13.458 6.319 
133 1 6.825 -5.747 -10.035 
134 1 14.263 16.189 -15.989 
135 1 14.205 -1.228 7.260 
136 1 -3.924 1.621 15.432 
137 1 -0.072 4.652 -0.161 
138 1 -3.104 10.594 -5.102 
139 1 -5.928 -10.558 -11.508 
140 1 0.468 -16.493 10.954 
141 1 -6.574 -1.640 -7.140 
142 1 -10.440 1.673 6.661 
143 1 -2.355 -9.907 -3.670 
144 1 -3.668 15.442 7.973 
145 1 -9.324 11.988 10.901 
146 1 -7.573 -5.251 -7.847 
147 1 -13.804 -2.601 -6.103 
148 1 0.399 9.481 10.640 
149 1 -6.778 -1.231 -14.963 
150 1 -6.613 -12.549 7.797 
151 1 5.645 3.290 0.207 
152 1 -10.914 6.822 5.274 
153 1 1.678 0.283 6.203 
154 1 -0.883 -14.354 -13.400 
155 1 -4.856 8.549 15.200 
156 1 -0.701 6.334 -4.190 
157 1 9.201 10.019 15.663 
158 1 -5.775 -1.739 13.535 
159 1 -14.976 9.004 -10.344 
160 1 -7.875 -5.647 12.839 
161 1 -8.487 -13.045 16.211 
162 1 6.744 -11.817 9.275 
163 1 0.074 -7.447 -6.366 
164 1 5.879 11.899 11.810 
165 1 -6.195 14.298 -6.037 
166 1 -5.057 -7.177 -11.457 
167 1 -5.909 5.622 3.190 
168 1 0.890 8.315 0.087 
169 1 -8.328 2.980 3.259 
170 1 -10.146 10.587 4.191 
171 1 3.048 -0.519 -1.713 
172 1 5.867 12.410 6.459 
173 1 -2.797 9.552 -0.870 
174 1 -15.610 -5.359 -16.414 
175 1 11.620 -3.878 13.162 
176 1 3.638 3.683 15.646 
177 1 12.040 13.883 -10.081 
178 1 3.324 3.053 3.080 
179 1 -11.175 -15.521 8.001 
180 1 -3.669 -3.611 -7.578 
181 1 12.780 -15.781 12.109 
182 1 -7.459 -4.666 4.671 
183 1 8.515 5.185 1.778 
184 1 -3.834 8.426 -8.257 
185 1 9.400 -0.916 2.078 
186 1 -2.984 12.431 -9.390 
187 1 -3.528 15.988 16.390 
188 1 6.311 7.247 5.998 
189 1 10.928 11.739 10.991 
190 1 2.616 -13.552 8.329 
191 1 -4.816 15.200 3.115 
192 1 -3.402 -2.894 -11.685 
193 1 -8.230 -12.793 -13.537 
194 1 4.862 12.148 -8.655 
195 1 -15.184 5.810 10.852 
196 1 -6.304 13.895 14.829 
197 1 -6.889 4.729 12.342 
198 1 0.252 3.174 12.781 
199 1 6.684 0.590 2.079 
200 1 5.628 -13.793 -7.654 
ITEM: TIMESTEP
8000
ITEM: NUMBER OF ATOMS
200
ITEM: BOX BOUNDS pp pp pp
-16.49818434247616 16.49818434247616
-16.49818434247616 16.49818434247616
-16.49818434247616 16.49818434247616
ITEM: ATOMS id type x y z
1 1 6.176 8.225 2.381 
2 1 1.685 11.917 0.505 
3 1 0.946 4.663 -10.448 
4 1 -0.379 7.539 6.017 
5 1 -11.171 -0.198 3.901 
6 1 3.896 15.207 9.196 
7 1 6.054 -4.860 7.147 
8 1 4.513 10.623 10.480 
9 1 6.256 14.759 2.330 
10 1 -7.611 9.502 -2.891 
11 1 -2.165 -13.871 5.634 
12 1 15.011 14.906 11.197 
13 1 -8.829 -8.281 -2.797 
14 1 -14.470 -6.869 7.371 
15 1 6.551 8.237 13.938 
16 1 -0.025 11.529 -12.640 
17 1 -5.670 -13.322 0.742 
18 1 2.743 -12.216 -6.876 
19 1 -7.661 3.048 8.813 
20 1 -2.371 -0.965 -5.041 
21 1 1.348 -3.795 -13.579 
22 1 -1.298 -11.674 -9.629 
23 1 11.096 11.217 -10.959 
24 1 14.753 11.408 -9.692 
25 1 -7.707 11.433 13.962 
26 1 8.603 -14.099 -10.806 
27 1 -13.734 3.839 7.370 
28 1 -13.852 13.735 -9.903 
29 1 -0.483 3.300 -6.864 
30 1 -11.446 -0.676 9.504 
31 1 -12.073 3.342 2.286 
32 1 2.595 12.024 5.186 
33 1 -1.615 0.731 -13.098 
34 1 -11.234 8.032 12.280 
35 1 -2.045 -12.437 11.564 
36 1 -14.898 2.922 13.008 
37 1 5.508 -1.373 -16.016 
38 1 -2.566 -10.025 3.317 
39 1 -8.649 7.664 9.736 
40 1 -0.287 2.631 -15.738 
41 1 -1.328 -4.838 -3.200 
42 1 14.666 15.371 -6.614 
43 1 -15.492 -4.628 1.201 
44 1 3.310 -0.472 -10.932 
45 1 9.411 -12.193 -7.143 
46 1 -10.206 14.139 14.361 
47 1 -10.022 -10.794 9.465 
48 1 2.458 -13.576 4.796 
49 1 6.338 1.241 13.225 
50 1 6.370 11.442 -12.645 
51 1 -1.720 14.132 5.213 
52 1 3.146 7.261 7.888 
53 1 8.971 -9.286 -10.399 
54 1 13.117 14.356 -0.670 
55 1 4.255 -5.201 -15.372 
56 1 -7.753 2.522 15.817 
57 1 7.842 9.753 7.995 
58 1 14.183 -2.285 -10.296 
59 1 2.410 -10.281 -13.938 
60 1 -1.247 1.541 1.694 
61 1 11.900 12.664 7.492 
62 1 -13.075 -4.444 -10.100 
63 1 6.316 -16.398 6.292 
64 1 -12.048 -11.754 6.031 
65 1 -5.831 8.192 11.781 
66 1 -8.756 14.137 -2.939 
67 1 12.316 3.592 5.957 
68 1 14.189 5.982 -8.022 
69 1 -0.763 -7.952 16.109 
70 1 -6.700 10.778 6.827 
71 1 -15.175 1.586 3.459 
72 1 9.594 -14.263 0.369 
73 1 -8.773 16.411 2.970 
74 1 -10.899 4.553 -12.230 
75 1 0.033 -13.866 1.454 
76 1 8.225 16.394 11.977 
77 1 -4.024 -6.614 7.721 
78 1 0.965 -8.098 -11.096 
79 1 8.051 -12.316 -16.059 
80 1 -11.824 -3.222 5.378 
81 1 2.240 -4.121 -8.830 
82 1 -7.668 16.496 6.306 
83 1 1.309 -10.851 1.401 
84 1 -7.569 0.267 11.288 
85 1 15.967 10.454 -14.774 
86 1 -3.983 -8.866 -7.788 
87 1 -5.291 8.695 -13.788 
88 1 1.766 2.548 -4.323 
89 1 1.007 -0.333 -7.778 
90 1 2.953 5.323 -1.756 
91 1 -15.471 -14.885 3.883 
92 1 1.202 16.133 6.758 
93 1 -10.779 1.698 -9.270 
94 1 13.446 7.894 -12.224 
95 1 0.876 16.076 1.925 
96 1 -11.236 7.111 -3.479 
97 1 -4.021 5.772 6.034 
98 1 -15.365 7.401 -5.442 
99 1 -3.640 15.792 -2.886 
100 1 6.030 0.453 -8.809 
101 1 -0.205 12.813 8.718 
102 1 -8.950 -11.443 1.575 
103 1 -14.588 -8.875 -11.503 
104 1 -10.680 10.381 -10.247 
105 1 -7.296 -14.182 10.189 
106 1 6.211 -9.004 -13.824 
107 1 0.824 -2.884 0.287 
108 1 11.792 12.756 -15.227 
109 1 -6.134 8.711 3.481 
110 1 -1.665 5.881 11.732 
111 1 -0.371 -4.123 12.946 
112 1 8.064 14.647 8.436 
113 1 -14.339 5.346 -11.729 
114 1 3.588 4.765 10.520 
115 1 -8.401 -10.670 -9.070 
116 1 2.350 -5.593 -1.362 
117 1 11.384 -3.258 3.916 
118 1 -5.387 -4.018 -3.429 
119 1 11.904 -12.441 -9.608 
120 1 -8.816 -4.657 8.376 
121 1 8.137 4.149 -16.152 
122 1 -8.697 6.120 -7.156 
123 1 -3.060 12.040 2.941 
124 1 5.362 2.143 6.622 
125 1 3.908 -3.099 -5.586 
126 1 -10.559 -7.786 6.996 
127 1 -2.887 3.385 8.602 
128 1 15.485 10.864 -5.624 
129 1 -3.732 11.078 12.406 
130 1 9.220 -7.579 -14.884 
131 1 -5.698 0.194 5.739 
132 1 -10.424 13.395 5.920 
133 1 5.984 -5.959 -9.089 
134 1 13.953 15.529 -15.312 
135 1 14.034 -1.613 7.238 
136 1 -3.662 1.770 14.544 
137 1 -2.051 6.025 1.879 
138 1 -3.041 11.578 -4.188 
139 1 -5.914 -11.177 -11.869 
140 1 0.340 15.473 10.322 
141 1 -5.256 -0.133 -7.459 
142 1 -11.044 1.948 6.899 
143 1 -2.422 -10.091 -4.191 
144 1 -3.468 14.063 10.214 
145 1 -8.625 12.671 10.752 
146 1 -6.960 -5.453 -7.190 
147 1 -13.680 -3.481 -5.119 
148 1 0.152 9.158 10.885 
149 1 -6.385 -0.976 -14.516 
150 1 -7.048 -13.005 7.169 
151 1 5.786 3.051 -0.211 
152 1 -11.565 6.096 4.555 
153 1 1.965 0.651 8.150 
154 1 -0.676 -13.813 -13.500 
155 1 -4.107 8.191 15.116 
156 1 -0.860 5.654 -3.455 
157 1 9.085 10.514 16.450 
158 1 -5.916 -3.083 12.982 
159 1 -14.604 8.855 -10.232 
160 1 -8.490 -5.618 13.152 
161 1 -9.432 -12.701 15.166 
162 1 6.347 -12.065 9.207 
163 1 -0.131 -8.168 -5.800 
164 1 6.868 11.497 12.804 
165 1 -5.731 13.534 -5.819 
166 1 -4.772 -7.178 -10.968 
167 1 -5.538 5.069 2.371 
168 1 0.992 8.065 1.259 
169 1 -8.463 3.682 4.088 
170 1 -9.827 9.866 3.675 
171 1 2.040 -0.626 -2.108 
172 1 5.684 12.603 6.586 
173 1 -3.479 10.152 -0.387 
174 1 -15.403 -5.286 16.426 
175 1 12.581 -3.818 13.246 
176 1 3.590 3.832 16.194 
177 1 12.372 14.403 -10.660 
178 1 2.525 3.352 3.347 
179 1 -12.314 16.232 7.954 
180 1 -3.906 -3.559 -7.243 
181 1 12.723 -15.936 11.708 
182 1 -7.309 -4.574 4.804 
183 1 8.103 4.930 2.701 
184 1 -3.280 8.717 -8.990 
185 1 10.919 -0.135 1.863 
186 1 -3.348 12.823 -11.013 
187 1 -2.973 15.303 -15.897 
188 1 6.515 7.233 6.279 
189 1 10.194 11.655 10.807 
190 1 3.585 -13.955 8.336 
191 1 -4.524 15.471 3.455 
192 1 -3.199 -2.981 -12.563 
193 1 -8.621 -13.417 -13.584 
194 1 4.486 11.985 -8.635 
195 1 -14.983 5.361 10.302 
196 1 -6.192 14.484 14.517 
197 1 -6.997 4.027 12.094 
198 1 -0.219 2.196 13.740 
199 1 6.427 0.363 2.626 
200 1 5.505 -13.803 -6.909 
ITEM: TIMESTEP
9000
ITEM: NUMBER OF ATOMS
200
ITEM: BOX BOUNDS pp pp pp
-16.49818434247616 16.49818434247616
-16.49818434247616 16.49818434247616
-16.49818434247616 16.49818434247616
ITEM: ATOMS id type x y z
1 1 5.896 8.295 2.148 
2 1 2.284 12.229 -0.337 
3 1 0.857 4.274 -10.231 
4 1 -0.897 8.108 6.440 
5 1 -10.758 0.515 3.766 
6 1 3.597 15.015 9.456 
7 1 6.495 -3.211 6.917 
8 1 4.104 10.296 12.110 
9 1 6.018 14.753 2.980 
10 1 -8.939 10.572 -2.925 
11 1 -2.446 -13.900 5.506 
12 1 14.961 15.478 10.156 
13 1 -8.455 -8.553 -2.999 
14 1 -14.372 -7.276 6.668 
15 1 6.669 7.077 15.210 
16 1 0.093 12.200 -13.065 
17 1 -4.834 -13.021 0.535 
18 1 2.666 -12.371 -6.781 
19 1 -8.502 3.469 8.923 
20 1 -2.306 -1.274 -4.188 
21 1 0.536 -3.451 -12.867 
22 1 -1.412 -12.310 -9.744 
23 1 10.714 10.464 -11.782 
24 1 16.048 11.600 -10.364 
25 1 -7.818 10.478 14.314 
26 1 8.640 -13.706 -11.076 
27 1 -14.079 2.449 6.754 
28 1 -13.574 14.277 -9.867 
29 1 -1.224 3.041 -6.856 
30 1 -12.104 -1.109 8.935 
31 1 -11.863 3.180 1.741 
32 1 2.601 12.467 4.992 
33 1 -0.769 1.758 -12.751 
34 1 -11.519 7.397 11.998 
35 1 -1.994 -13.165 11.534 
36 1 -15.108 2.230 12.581 
37 1 5.951 -1.318 -15.407 
38 1 -2.961 -8.362 2.746 
39 1 -8.165 7.453 9.099 
40 1 0.120 3.481 -16.095 
41 1 -1.114 -5.533 -2.442 
42 1 15.509 16.008 -6.843 
43 1 -14.020 -4.653 1.266 
44 1 3.724 -0.378 -10.782 
45 1 9.083 -12.486 -8.022 
46 1 -10.035 13.948 13.871 
47 1 -9.824 -10.356 9.361 
48 1 2.634 -14.133 4.711 
49 1 6.972 1.391 13.392 
50 1 5.794 9.445 -11.654 
51 1 -0.763 13.793 5.115 
52 1 3.238 6.816 7.254 
53 1 10.001 -8.492 -9.439 
54 1 12.412 14.562 -1.271 
55 1 3.722 -3.904 -15.554 
56 1 -7.880 2.500 16.179 
57 1 8.790 11.026 7.508 
58 1 12.539 -2.490 -10.456 
59 1 1.788 -9.792 -14.878 
60 1 -0.686 1.413 1.687 
61 1 11.858 13.301 7.372 
62 1 -12.305 -5.390 -9.900 
63 1 6.052 16.055 6.583 
64 1 -10.995 -11.477 6.109 
65 1 -5.256 9.001 10.492 
66 1 -7.865 15.367 -2.913 
67 1 11.546 4.286 6.803 
68 1 12.782 6.483 -6.074 
69 1 0.173 -6.727 15.807 
70 1 -6.834 11.078 6.431 
71 1 -15.409 2.046 2.956 
72 1 9.645 -13.809 0.633 
73 1 -10.140 -15.046 2.667 
74 1 -12.030 3.515 -12.323 
75 1 0.362 -13.386 1.983 
76 1 8.544 -16.361 11.713 
77 1 -2.975 -7.113 7.697 
78 1 1.675 -7.889 -10.440 
79 1 7.998 -11.885 -15.748 
80 1 -12.904 -3.696 5.458 
81 1 2.822 -3.715 -9.388 
82 1 -7.230 16.183 6.558 
83 1 1.485 -9.980 0.129 
84 1 -7.882 0.289 12.114 
85 1 16.111 10.541 -14.296 
86 1 -3.075 -8.491 -6.739 
87 1 -4.143 8.257 -13.507 
88 1 1.170 2.510 -4.421 
89 1 1.018 -0.554 -7.124 
90 1 2.219 5.852 -1.557 
91 1 -15.228 -15.399 4.393 
92 1 1.274 -16.140 7.669 
93 1 -11.670 0.906 -9.762 
94 1 13.799 7.828 -13.816 
95 1 1.071 15.585 2.023 
96 1 -11.962 7.017 -3.850 
97 1 -3.757 5.093 6.197 
98 1 -15.308 7.909 -4.681 
99 1 -4.273 14.936 -2.728 
100 1 6.327 1.242 -7.899 
101 1 0.351 12.117 8.042 
102 1 -7.311 -11.947 3.351 
103 1 -14.625 -9.044 -10.617 
104 1 -9.005 10.532 -10.477 
105 1 -5.897 -13.523 11.777 
106 1 4.785 -8.673 -13.773 
107 1 0.542 -2.451 0.370 
108 1 11.823 12.817 -15.873 
109 1 -5.253 9.334 3.919 
110 1 -1.432 6.031 12.257 
111 1 -0.605 -4.394 13.229 
112 1 7.247 13.745 9.278 
113 1 -15.110 5.431 -11.723 
114 1 2.419 5.980 11.446 
115 1 -8.961 -8.743 -9.380 
116 1 2.316 -5.035 -1.248 
117 1 11.425 -3.601 3.876 
118 1 -4.469 -3.969 -3.737 
119 1 12.286 -14.089 -8.465 
120 1 -8.389 -4.885 7.719 
121 1 8.011 4.108 -16.330 
122 1 -7.647 5.398 -8.595 
123 1 -3.224 12.566 3.166 
124 1 3.841 2.420 6.673 
125 1 4.355 -2.272 -6.467 
126 1 -10.446 -7.630 6.960 
127 1 -3.136 2.908 9.056 
128 1 16.006 10.836 -6.903 
129 1 -2.502 12.065 12.817 
130 1 9.548 -8.759 -14.470 
131 1 -5.978 0.329 4.653 
132 1 -10.918 13.977 5.794 
133 1 6.667 -6.230 -7.432 
134 1 14.067 -16.246 -15.750 
135 1 12.835 -1.796 6.994 
136 1 -4.257 0.145 14.745 
137 1 -1.868 5.599 2.049 
138 1 -2.569 11.976 -3.791 
139 1 -4.749 -10.791 -12.455 
140 1 0.291 16.294 10.796 
141 1 -3.764 -0.479 -8.497 
142 1 -10.441 1.431 7.108 
143 1 -2.611 -11.516 -4.685 
144 1 -3.032 13.830 10.066 
145 1 -9.330 12.492 9.158 
146 1 -7.208 -4.682 -8.649 
147 1 -14.136 -2.950 -4.845 
148 1 -1.055 9.066 9.972 
149 1 -6.285 -0.968 -14.505 
150 1 -7.612 -12.246 7.017 
151 1 5.166 3.378 -0.153 
152 1 -12.868 7.982 3.987 
153 1 2.026 -0.348 8.540 
154 1 0.004 -13.788 -14.052 
155 1 -4.061 6.892 14.394 
156 1 -0.452 5.570 -3.558 
157 1 8.616 10.551 15.728 
158 1 -5.253 -1.833 12.232 
159 1 -13.974 8.993 -9.929 
160 1 -8.249 -6.061 13.000 
161 1 -7.958 -13.414 15.165 
162 1 5.619 -11.387 9.967 
163 1 0.308 -8.146 -5.968 
164 1 6.747 12.431 13.359 
165 1 -5.944 14.396 -6.328 
166 1 -4.347 -6.600 -10.411 
167 1 -5.859 5.063 1.828 
168 1 -0.491 9.111 0.359 
169 1 -8.438 3.863 4.891 
170 1 -8.965 8.727 2.043 
171 1 2.455 -1.164 -2.974 
172 1 5.472 11.310 6.299 
173 1 -3.613 10.179 -1.160 
174 1 -16.121 -5.731 -16.011 
175 1 13.003 -3.107 12.806 
176 1 3.637 3.396 -16.295 
177 1 11.195 13.903 -11.449 
178 1 2.265 1.838 3.291 
179 1 -11.916 15.789 8.158 
180 1 -3.434 -3.654 -7.220 
181 1 12.085 16.423 12.318 
182 1 -7.515 -4.822 4.191 
183 1 9.028 4.822 2.949 
184 1 -2.649 8.216 -9.233 
185 1 11.266 -0.728 1.521 
186 1 -3.577 12.320 -12.263 
187 1 -3.355 14.823 16.305 
188 1 6.583 7.343 6.027 
189 1 10.932 12.268 11.419 
190 1 3.494 -13.673 8.680 
191 1 -4.779 16.057 3.829 
192 1 -3.056 -1.974 -13.422 
193 1 -8.272 -14.477 -13.753 
194 1 3.914 11.657 -8.134 
195 1 -14.101 4.452 9.714 
196 1 -6.629 14.662 14.192 
197 1 -7.802 3.589 12.761 
198 1 -0.850 2.411 13.427 
199 1 5.074 -0.638 2.616 
200 1 5.328 -14.468 -7.709 
ITEM: TIMESTEP
10000
ITEM: NUMBER OF ATOMS
200
ITEM: BOX BOUNDS pp pp pp
-16.49818434247616 16.49818434247616
-16.49818434247616 16.49818434247616
-16.49818434247616 16.49818434247616
ITEM: ATOMS id type x y z
1 1 5.563 6.974 2.038 
2 1 2.220 12.376 -0.620 
3 1 0.946 3.827 -10.109 
4 1 -0.885 7.886 6.261 
5 1 -11.385 -0.472 3.833 
6 1 5.547 16.228 8.738 
7 1 6.856 -3.639 6.922 
8 1 4.933 9.409 11.945 
9 1 4.980 13.669 1.951 
10 1 -8.658 10.278 -4.385 
11 1 -2.525 -13.809 4.273 
12 1 14.267 15.081 9.918 
13 1 -8.945 -8.469 -3.346 
14 1 -14.758 -7.984 7.169 
15 1 6.270 6.493 -16.299 
16 1 -0.698 12.522 -13.031 
17 1 -4.747 -12.669 -0.132 
18 1 1.645 -13.306 -7.547 
19 1 -8.246 3.067 8.903 
20 1 -2.191 -0.780 -4.993 
21 1 0.664 -4.658 -12.203 
22 1 -0.807 -11.589 -9.967 
23 1 11.706 10.593 -12.144 
24 1 15.115 12.687 -9.930 
25 1 -9.268 10.667 15.553 
26 1 8.984 -13.026 -11.395 
27 1 -15.532 0.945 5.637 
28 1 -14.149 12.330 -9.433 
29 1 -2.000 4.570 -7.742 
30 1 -12.294 -1.772 9.227 
31 1 -11.974 3.882 1.543 
32 1 2.277 12.735 4.813 
33 1 -1.316 2.035 -12.656 
34 1 -11.233 7.542 12.265 
35 1 -2.502 -13.284 10.595 
36 1 -14.465 1.736 13.171 
37 1 6.163 -1.152 -15.260 
38 1 -3.518 -9.667 1.565 
39 1 -9.225 6.765 9.450 
40 1 -0.248 3.501 -15.784 
41 1 -1.427 -5.640 -2.530 
42 1 16.370 16.163 -5.867 
43 1 -13.645 -4.431 2.496 
44 1 2.742 0.063 -10.499 
45 1 8.874 -13.017 -7.127 
46 1 -9.913 13.864 13.456 
47 1 -9.803 -10.251 9.703 
48 1 2.335 -15.053 4.488 
49 1 6.590 0.952 13.739 
50 1 5.436 9.506 -10.953 
51 1 -1.144 14.376 6.078 
52 1 3.140 7.081 8.314 
53 1 9.052 -9.365 -8.633 
54 1 13.124 16.252 -2.060 
55 1 3.691 -4.164 -15.647 
56 1 -8.417 3.269 -16.098 
57 1 8.887 9.597 7.379 
58 1 13.402 -2.487 -10.394 
59 1 1.626 -9.844 -14.799 
60 1 -0.070 0.174 2.054 
61 1 12.365 13.533 7.632 
62 1 -10.656 -4.838 -9.133 
63 1 6.799 16.094 5.104 
64 1 -10.667 -11.047 6.173 
65 1 -4.631 9.065 9.980 
66 1 -7.643 14.629 -2.918 
67 1 12.758 3.690 7.855 
68 1 12.327 6.521 -6.149 
69 1 0.405 -6.104 15.466 
70 1 -7.390 9.503 7.702 
71 1 -15.307 2.433 2.336 
72 1 10.958 -14.060 0.539 
73 1 -10.849 -14.272 2.302 
74 1 -11.775 3.114 -13.355 
75 1 -0.668 -13.828 1.437 
76 1 8.113 15.960 11.633 
77 1 -3.637 -7.073 6.603 
78 1 2.598 -8.063 -10.289 
79 1 7.193 -12.314 16.470 
80 1 -12.533 -2.971 5.576 
81 1 2.676 -3.306 -9.427 
82 1 -7.560 15.866 7.156 
83 1 2.492 -10.515 -0.095 
84 1 -8.715 0.024 11.569 
85 1 -16.250 10.431 -16.376 
86 1 -3.093 -9.519 -6.748 
87 1 -4.159 8.022 -13.735 
88 1 1.550 2.615 -5.162 
89 1 1.187 -1.276 -7.268 
90 1 2.238 5.772 -2.827 
91 1 -16.152 -15.093 4.186 
92 1 1.772 16.169 7.463 
93 1 -10.341 0.342 -9.962 
94 1 14.929 7.517 -15.172 
95 1 0.946 15.370 2.606 
96 1 -11.704 7.500 -3.550 
97 1 -3.861 6.020 6.090 
98 1 -15.031 7.559 -5.507 
99 1 -3.327 15.416 -2.470 
100 1 5.637 0.445 -7.775 
101 1 0.111 11.649 8.364 
102 1 -6.212 -11.056 2.716 
103 1 -14.925 -9.558 -10.347 
104 1 -7.695 7.620 -11.566 
105 1 -5.931 -13.448 11.584 
106 1 5.667 -8.581 -12.888 
107 1 1.149 -2.735 0.395 
108 1 11.354 12.086 -15.310 
109 1 -5.176 9.744 4.907 
110 1 -1.157 5.840 12.737 
111 1 0.144 -3.650 13.116 
112 1 7.498 13.491 9.251 
113 1 -14.848 6.170 -12.833 
114 1 2.515 5.868 11.503 
115 1 -7.771 -9.048 -9.316 
116 1 3.128 -5.597 -1.269 
117 1 11.074 -4.065 2.055 
118 1 -4.259 -3.923 -3.793 
119 1 11.524 -14.990 -8.440 
120 1 -8.205 -4.741 7.508 
121 1 8.420 3.759 -16.390 
122 1 -8.110 5.514 -7.798 
123 1 -2.402 11.570 3.018 
124 1 3.697 2.065 6.826 
125 1 4.414 -3.822 -6.126 
126 1 -11.276 -7.257 6.603 
127 1 -3.782 3.247 8.979 
128 1 -16.494 10.962 -7.230 
129 1 -2.717 11.300 13.308 
130 1 9.816 -9.211 -14.955 
131 1 -5.544 -0.101 4.608 
132 1 -10.553 13.765 5.924 
133 1 6.682 -7.024 -6.764 
134 1 16.479 -16.139 -15.704 
135 1 12.622 -2.412 7.569 
136 1 -3.637 1.225 -16.471 
137 1 -2.930 4.814 2.576 
138 1 -3.428 11.319 -4.428 
139 1 -5.098 -10.411 -13.537 
140 1 -0.234 15.846 10.691 
141 1 -3.700 -0.668 -9.074 
142 1 -10.954 1.600 6.454 
143 1 -2.118 -12.594 -4.150 
144 1 -3.645 14.062 10.282 
145 1 -8.696 12.877 8.804 
146 1 -7.228 -5.374 -8.919 
147 1 -13.795 -2.831 -4.110 
148 1 -1.087 8.874 9.645 
149 1 -6.899 0.558 -14.577 
150 1 -6.907 -13.134 6.977 
151 1 5.304 2.847 -0.161 
152 1 -13.590 8.463 2.833 
153 1 3.525 -1.769 7.365 
154 1 -0.525 -14.738 -14.406 
155 1 -4.972 6.469 14.668 
156 1 -1.018 5.325 -3.863 
157 1 8.435 10.232 16.069 
158 1 -4.528 -1.555 12.494 
159 1 -14.438 8.731 -9.612 
160 1 -8.504 -5.712 10.758 
161 1 -7.018 -14.619 15.510 
162 1 5.235 -10.938 10.626 
163 1 0.449 -8.655 -5.745 
164 1 5.009 12.127 14.345 
165 1 -5.413 14.345 -6.375 
166 1 -5.021 -7.255 -10.009 
167 1 -6.075 6.668 2.431 
168 1 -0.190 8.924 0.236 
169 1 -7.740 2.668 4.567 
170 1 -10.055 9.434 1.530 
171 1 2.933 -2.203 -2.736 
172 1 5.446 11.926 6.368 
173 1 -3.456 10.047 -0.768 
174 1 16.226 -6.152 -13.707 
175 1 12.309 -2.852 13.344 
176 1 3.653 3.371 -15.951 
177 1 10.154 14.063 -12.808 
178 1 3.590 2.470 3.381 
179 1 -11.123 15.524 9.092 
180 1 -3.584 -4.875 -7.344 
181 1 12.943 -16.143 13.096 
182 1 -6.968 -5.385 3.989 
183 1 10.338 5.566 1.438 
184 1 -3.030 8.638 -9.803 
185 1 11.253 -0.539 0.976 
186 1 -3.797 11.477 -12.405 
187 1 -2.687 13.719 16.110 
188 1 6.118 6.879 7.150 
189 1 11.496 13.507 12.122 
190 1 3.114 -13.767 8.091 
191 1 -4.653 15.531 3.790 
192 1 -3.926 -1.891 -13.420 
193 1 -8.011 -15.389 -14.045 
194 1 3.862 12.245 -8.087 
195 1 -14.078 5.898 9.293 
196 1 -6.734 14.633 15.502 
197 1 -7.593 3.431 12.218 
198 1 -0.995 2.009 13.567 
199 1 5.464 -0.457 2.315 
200 1 4.939 -14.420 -8.688 
ITEM: TIMESTEP
11000
ITEM: NUMBER OF ATOMS
200
ITEM: BOX BOUNDS pp pp pp
-16.49818434247616 16.49818434247616
-16.49818434247616 16.49818434247616
-16.49818434247616 16.49818434247616
ITEM: ATOMS id type x y z
1 1 6.001 6.449 1.355 
2 1 1.589 12.708 -0.156 
3 1 1.672 4.291 -9.930 
4 1 -0.816 7.896 6.045 
5 1 -12.077 -1.175 3.740 
6 1 6.728 -16.495 8.849 
7 1 5.580 -4.601 7.260 
8 1 5.260 9.983 12.678 
9 1 5.702 13.768 1.571 
10 1 -9.085 11.085 -4.240 
11 1 -3.412 -12.748 3.843 
12 1 14.780 15.921 9.596 
13 1 -9.349 -9.372 -2.222 
14 1 -14.135 -7.445 8.678 
15 1 6.637 6.531 -16.342 
16 1 -0.894 12.773 -12.211 
17 1 -4.963 -12.549 0.310 
18 1 1.422 -12.564 -7.117 
19 1 -8.223 2.661 8.206 
20 1 -2.582 1.112 -3.680 
21 1 0.787 -3.981 -12.503 
22 1 -0.806 -11.205 -10.378 
23 1 11.779 10.929 -11.087 
24 1 14.807 11.891 -10.398 
25 1 -9.357 11.331 16.326 
26 1 9.516 -12.031 -10.227 
27 1 -15.774 -0.389 6.304 
28 1 -14.336 12.880 -8.988 
29 1 -2.078 4.264 -7.621 
30 1 -12.038 -2.211 8.658 
31 1 -11.331 2.790 1.972 
32 1 2.732 12.962 4.499 
33 1 -0.726 2.262 -12.179 
34 1 -10.978 7.178 13.400 
35 1 -2.027 -13.071 10.732 
36 1 -15.304 0.790 13.311 
37 1 5.153 -1.322 -14.661 
38 1 -1.921 -10.611 0.905 
39 1 -10.304 5.887 10.164 
40 1 -0.256 3.258 -15.780 
41 1 -1.614 -5.513 -1.923 
42 1 15.869 15.735 -5.243 
43 1 -14.481 -3.391 2.742 
44 1 2.692 -0.270 -9.020 
45 1 9.709 -12.066 -6.425 
46 1 -9.210 13.697 12.318 
47 1 -8.911 -10.504 9.696 
48 1 2.527 -14.546 3.936 
49 1 5.616 0.757 13.357 
50 1 3.485 10.657 -10.292 
51 1 -1.963 14.340 6.947 
52 1 2.815 5.956 8.198 
53 1 8.400 -9.234 -8.700 
54 1 12.087 16.253 -2.352 
55 1 3.782 -6.273 -15.468 
56 1 -8.521 2.799 15.744 
57 1 8.191 9.504 7.486 
58 1 12.333 -1.096 -11.599 
59 1 1.140 -10.085 -15.618 
60 1 -1.049 1.292 1.415 
61 1 11.345 12.699 7.828 
62 1 -10.887 -5.633 -9.534 
63 1 6.019 -15.516 4.943 
64 1 -11.231 -11.198 6.077 
65 1 -4.556 9.119 9.643 
66 1 -7.578 14.357 -3.304 
67 1 13.336 4.402 7.735 
68 1 12.161 5.732 -5.792 
69 1 1.016 -7.009 14.884 
70 1 -7.848 8.685 7.178 
71 1 -14.962 3.424 2.548 
72 1 10.501 -12.318 0.668 
73 1 -10.213 -15.556 2.160 
74 1 -12.079 3.137 -13.308 
75 1 -0.092 -14.420 0.969 
76 1 7.573 15.806 12.434 
77 1 -3.487 -6.346 6.499 
78 1 2.612 -7.024 -10.715 
79 1 6.639 -12.998 -16.213 
80 1 -12.705 -3.891 5.780 
81 1 2.168 -3.563 -9.548 
82 1 -7.918 15.606 6.874 
83 1 2.938 -10.659 -0.769 
84 1 -7.945 -0.064 11.246 
85 1 -16.410 10.185 -15.431 
86 1 -2.919 -10.693 -6.798 
87 1 -4.664 7.857 -14.722 
88 1 1.698 2.130 -6.054 
89 1 1.091 -1.589 -6.703 
90 1 2.621 5.741 -2.433 
91 1 -15.072 -16.305 4.492 
92 1 2.040 -16.489 6.809 
93 1 -10.363 0.788 -10.735 
94 1 14.317 7.464 -15.968 
95 1 2.420 15.735 1.509 
96 1 -11.528 7.083 -3.248 
97 1 -4.197 6.236 6.137 
98 1 -14.058 7.752 -5.916 
99 1 -3.721 14.556 -2.120 
100 1 6.948 0.069 -6.934 
101 1 0.237 11.912 8.555 
102 1 -6.888 -10.052 3.238 
103 1 -15.672 -9.741 -11.116 
104 1 -8.403 8.880 -10.660 
105 1 -5.288 -13.264 12.263 
106 1 5.476 -9.045 -12.301 
107 1 -0.099 -2.515 1.131 
108 1 11.801 12.029 -14.731 
109 1 -3.843 9.869 5.033 
110 1 -2.154 5.526 12.196 
111 1 0.750 -3.305 12.422 
112 1 7.921 12.363 8.920 
113 1 -14.724 6.534 -13.542 
114 1 2.639 6.140 12.763 
115 1 -5.765 -12.106 -9.465 
116 1 2.593 -6.301 0.057 
117 1 10.705 -4.079 2.726 
118 1 -4.884 -3.317 -4.341 
119 1 11.528 -15.560 -9.085 
120 1 -8.295 -3.533 7.712 
121 1 9.182 3.258 -16.201 
122 1 -8.287 6.712 -8.106 
123 1 -1.959 11.713 2.724 
124 1 3.049 1.850 6.907 
125 1 5.176 -4.239 -6.305 
126 1 -11.255 -7.098 5.310 
127 1 -3.417 2.408 8.307 
128 1 -16.033 10.858 -7.171 
129 1 -2.865 11.272 14.380 
130 1 9.217 -9.755 -15.347 
131 1 -4.743 -1.424 5.222 
132 1 -11.024 15.524 4.833 
133 1 7.218 -7.784 -5.770 
134 1 -16.170 -15.027 -16.347 
135 1 13.258 -1.417 7.513 
136 1 -3.574 0.954 16.367 
137 1 -3.466 5.748 2.228 
138 1 -2.576 11.304 -4.511 
139 1 -4.804 -10.519 -12.839 
140 1 -0.679 15.694 10.269 
141 1 -3.620 -0.092 -8.923 
142 1 -11.732 2.227 5.918 
143 1 -1.644 -12.426 -4.120 
144 1 -3.018 12.513 9.892 
145 1 -8.556 12.452 9.164 
146 1 -7.815 -5.768 -7.213 
147 1 -13.040 -3.323 -4.184 
148 1 -0.419 8.378 9.440 
149 1 -6.997 -0.632 -13.687 
150 1 -5.969 -13.207 7.546 
151 1 4.302 3.654 -0.533 
152 1 -13.292 9.219 4.550 
153 1 2.571 -1.136 8.609 
154 1 -1.843 -14.405 -14.338 
155 1 -6.091 5.904 14.537 
156 1 -0.845 4.651 -3.494 
157 1 9.606 10.691 15.973 
158 1 -3.958 -1.050 13.520 
159 1 -15.304 9.334 -10.793 
160 1 -7.641 -5.023 10.829 
161 1 -6.105 -14.335 15.842 
162 1 5.295 -10.877 11.621 
163 1 0.335 -9.294 -5.331 
164 1 4.404 12.786 15.059 
165 1 -6.004 14.407 -7.853 
166 1 -3.956 -6.231 -10.938 
167 1 -6.559 7.070 3.034 
168 1 0.714 8.259 -0.570 
169 1 -8.056 3.419 4.331 
170 1 -9.572 8.504 1.589 
171 1 3.012 -2.458 -3.319 
172 1 5.762 11.603 5.960 
173 1 -3.522 9.660 -1.608 
174 1 -16.367 -7.238 -14.020 
175 1 12.566 -2.908 11.831 
176 1 4.225 2.136 -16.213 
177 1 9.508 14.498 -12.661 
178 1 2.874 2.565 2.514 
179 1 -10.510 15.731 8.840 
180 1 -3.680 -5.016 -6.933 
181 1 14.123 -15.900 13.363 
182 1 -6.086 -5.697 4.594 
183 1 10.318 6.088 1.081 
184 1 -4.210 8.373 -11.086 
185 1 11.715 -1.227 0.943 
186 1 -4.083 11.711 -11.854 
187 1 -2.715 13.463 -16.284 
188 1 6.219 6.782 7.316 
189 1 11.023 13.308 12.676 
190 1 3.391 -12.777 7.116 
191 1 -4.985 16.386 3.546 
192 1 -3.671 -1.633 -14.095 
193 1 -7.827 -15.521 -14.404 
194 1 4.452 12.745 -7.259 
195 1 -13.904 6.228 8.713 
196 1 -6.638 14.086 14.611 
197 1 -7.536 3.496 12.406 
198 1 0.001 0.216 13.736 
199 1 5.968 -0.552 1.243 
200 1 4.499 -12.242 -8.828 
ITEM: TIMESTEP
12000
ITEM: NUMBER OF ATOMS
200
ITEM: BOX BOUNDS pp pp pp
-16.49818434247616 16.49818434247616
-16.49818434247616 16.49818434247616
-16.49818434247616 16.49818434247616
ITEM: ATOMS id type x y z
1 1 6.768 6.841 0.974 
2 1 1.121 12.348 -0.281 
3 1 1.704 3.628 -10.109 
4 1 -0.232 8.269 5.650 
5 1 -11.296 -0.582 3.973 
6 1 6.918 15.951 8.595 
7 1 6.265 -4.490 8.097 
8 1 6.195 9.145 14.141 
9 1 5.193 12.946 0.463 
10 1 -8.986 11.699 -3.894 
11 1 -2.872 -12.973 4.521 
12 1 13.877 15.288 9.389 
13 1 -9.899 -9.937 -2.230 
14 1 -15.580 -7.058 7.289 
15 1 6.720 6.405 -15.851 
16 1 -0.477 12.732 -10.951 
17 1 -5.471 -12.775 0.766 
18 1 0.851 -12.619 -6.953 
19 1 -8.390 2.754 8.545 
20 1 -3.209 0.155 -3.038 
21 1 0.892 -4.539 -13.203 
22 1 -0.264 -12.395 -10.596 
23 1 10.929 11.025 -11.685 
24 1 14.538 11.657 -11.187 
25 1 -9.455 12.126 16.072 
26 1 8.853 -11.676 -11.130 
27 1 -16.366 0.446 6.022 
28 1 -13.166 12.840 -8.743 
29 1 -2.011 5.278 -7.949 
30 1 -11.917 -1.792 8.230 
31 1 -11.388 3.164 1.449 
32 1 3.331 12.421 4.238 
33 1 0.230 1.981 -12.348 
34 1 -11.658 8.110 13.255 
35 1 -1.504 -13.457 10.305 
36 1 -14.943 0.343 14.245 
37 1 5.800 -0.888 -14.773 
38 1 -0.504 -10.755 0.502 
39 1 -9.863 6.264 9.885 
40 1 -1.182 3.251 -16.174 
41 1 -1.818 -5.369 -2.826 
42 1 15.987 16.357 -6.103 
43 1 -13.791 -2.887 2.010 
44 1 3.568 0.413 -9.221 
45 1 10.174 -12.978 -6.416 
46 1 -10.532 12.811 12.289 
47 1 -8.797 -10.740 10.956 
48 1 2.242 -15.448 3.911 
49 1 5.618 -0.844 14.784 
50 1 3.486 10.226 -10.651 
51 1 -0.487 13.741 5.378 
52 1 2.787 6.554 8.526 
53 1 8.938 -8.798 -8.504 
54 1 11.943 -15.369 -3.948 
55 1 3.907 -6.009 -14.611 
56 1 -8.077 2.222 -14.510 
57 1 9.565 9.291 6.412 
58 1 12.537 -1.089 -12.866 
59 1 1.441 -10.230 16.341 
60 1 -0.044 1.056 1.558 
61 1 11.443 13.160 7.825 
62 1 -11.741 -5.474 -9.603 
63 1 5.562 16.123 3.707 
64 1 -10.395 -11.142 5.706 
65 1 -4.623 8.884 8.695 
66 1 -7.527 14.533 -3.066 
67 1 13.262 4.704 8.355 
68 1 11.440 5.173 -7.018 
69 1 1.514 -5.809 15.563 
70 1 -7.619 9.107 7.119 
71 1 -14.235 1.665 2.184 
72 1 11.011 -12.686 1.507 
73 1 -10.511 -14.302 1.996 
74 1 -12.448 3.294 -13.976 
75 1 -1.893 -14.780 0.161 
76 1 7.886 15.998 13.099 
77 1 -3.561 -7.054 7.650 
78 1 2.557 -7.220 -11.737 
79 1 6.341 -12.923 -16.215 
80 1 -12.781 -4.391 5.144 
81 1 1.512 -3.257 -10.363 
82 1 -7.448 15.741 6.182 
83 1 2.979 -10.729 0.203 
84 1 -7.572 0.126 11.242 
85 1 -15.714 10.627 -15.049 
86 1 -3.230 -10.537 -7.391 
87 1 -4.866 7.469 -14.976 
88 1 1.573 2.610 -6.165 
89 1 0.696 -2.079 -6.153 
90 1 2.703 6.127 -2.072 
91 1 -14.922 -14.676 3.417 
92 1 1.199 -15.932 7.365 
93 1 -10.086 1.524 -11.127 
94 1 14.714 7.601 -15.345 
95 1 2.170 14.988 1.437 
96 1 -12.153 6.591 -2.322 
97 1 -4.206 6.230 6.240 
98 1 -14.025 7.652 -6.232 
99 1 -3.697 14.517 -1.966 
100 1 7.649 0.305 -6.851 
101 1 1.304 12.079 9.600 
102 1 -6.838 -10.123 3.100 
103 1 -13.767 -10.279 -10.285 
104 1 -8.268 10.949 -10.094 
105 1 -5.009 -14.478 12.430 
106 1 5.477 -10.353 -13.375 
107 1 0.285 -3.318 1.525 
108 1 13.103 11.995 -15.249 
109 1 -3.926 9.770 5.406 
110 1 -2.541 5.068 12.429 
111 1 0.980 -3.764 12.630 
112 1 7.674 12.585 8.852 
113 1 -14.888 6.112 -14.048 
114 1 1.803 6.868 13.960 
115 1 -4.933 -11.026 -10.476 
116 1 2.424 -5.981 0.751 
117 1 11.208 -4.916 3.480 
118 1 -5.268 -4.269 -3.938 
119 1 11.322 -15.184 -9.540 
120 1 -9.337 -4.463 7.322 
121 1 9.952 2.021 -15.504 
122 1 -8.885 5.501 -8.850 
123 1 -2.148 10.637 1.498 
124 1 2.745 0.197 6.952 
125 1 5.377 -4.061 -6.330 
126 1 -11.531 -7.490 5.728 
127 1 -3.660 2.336 8.839 
128 1 -15.399 11.084 -6.623 
129 1 -4.638 11.056 14.951 
130 1 8.907 -10.241 -14.106 
131 1 -3.899 -1.340 3.698 
132 1 -11.338 15.597 4.395 
133 1 6.390 -8.786 -5.142 
134 1 -16.409 -14.693 -14.768 
135 1 13.548 -1.706 8.284 
136 1 -3.568 0.674 15.856 
137 1 -3.531 5.996 2.655 
138 1 -1.690 12.071 -4.372 
139 1 -3.883 -10.557 -13.684 
140 1 -0.668 15.111 11.421 
141 1 -3.525 -0.336 -8.264 
142 1 -11.492 1.645 7.212 
143 1 -1.904 -11.730 -4.258 
144 1 -3.272 12.518 12.008 
145 1 -9.201 11.402 9.127 
146 1 -8.172 -6.137 -7.264 
147 1 -12.945 -2.827 -3.644 
148 1 -0.185 9.080 9.709 
149 1 -8.079 -1.535 -12.871 
150 1 -5.828 -13.324 6.681 
151 1 5.121 3.763 -0.629 
152 1 -12.721 8.929 4.093 
153 1 2.689 -1.792 9.126 
154 1 -2.355 -14.082 -15.351 
155 1 -5.831 6.016 14.213 
156 1 -0.536 5.378 -3.150 
157 1 9.678 9.225 15.118 
158 1 -4.584 -0.011 12.869 
159 1 -15.531 9.177 -11.353 
160 1 -7.403 -3.932 12.462 
161 1 -5.897 -14.685 15.629 
162 1 5.102 -12.625 12.951 
163 1 1.167 -8.247 -7.697 
164 1 3.630 12.020 15.438 
165 1 -5.799 13.181 -7.622 
166 1 -2.853 -5.723 -11.009 
167 1 -6.739 7.866 4.050 
168 1 0.108 9.076 -0.397 
169 1 -8.437 2.470 4.844 
170 1 -9.882 8.636 1.268 
171 1 1.976 -2.149 -3.247 
172 1 4.669 10.691 6.827 
173 1 -3.767 9.854 -1.764 
174 1 -16.220 -6.873 -14.497 
175 1 12.103 -2.654 11.603 
176 1 3.942 1.911 15.718 
177 1 10.679 14.616 -12.640 
178 1 3.110 1.865 2.456 
179 1 -9.498 15.889 8.808 
180 1 -4.118 -5.582 -7.565 
181 1 15.236 -15.634 12.419 
182 1 -6.789 -6.056 4.402 
183 1 9.883 4.647 0.703 
184 1 -4.940 8.931 -11.464 
185 1 12.424 -1.168 1.390 
186 1 -4.822 11.888 -13.216 
187 1 -2.882 13.794 -15.905 
188 1 6.075 6.395 6.575 
189 1 12.784 13.252 12.758 
190 1 3.559 -12.268 7.137 
191 1 -5.851 16.433 2.289 
192 1 -4.445 -2.071 -13.511 
193 1 -7.440 -16.314 -13.451 
194 1 4.718 13.455 -6.833 
195 1 -14.688 5.665 10.231 
196 1 -6.931 13.989 15.298 
197 1 -7.544 4.387 11.796 
198 1 -0.227 0.650 14.928 
199 1 6.840 -1.435 0.905 
200 1 2.913 -13.425 -9.575 
ITEM: TIMESTEP
13000
ITEM: NUMBER OF ATOMS
200
ITEM: BOX BOUNDS pp pp pp
-16.49818434247616 16.49818434247616
-16.49818434247616 16.49818434247616
-16.49818434247616 16.49818434247616
ITEM: ATOMS id type x y z
1 1 6.279 6.868 1.654 
2 1 0.746 12.476 -1.447 
3 1 1.265 3.528 -9.505 
4 1 -1.560 7.933 4.948 
5 1 -11.980 -1.177 3.520 
6 1 5.932 16.371 9.606 
7 1 7.035 -3.785 8.187 
8 1 6.154 9.541 14.176 
9 1 5.224 14.065 0.495 
10 1 -8.197 11.975 -4.928 
11 1 -3.019 -11.868 3.782 
12 1 14.832 15.391 9.290 
13 1 -10.488 -9.486 -1.931 
14 1 -14.379 -7.182 8.056 
15 1 6.656 5.966 -16.161 
16 1 -1.206 11.898 -10.636 
17 1 -5.465 -12.836 0.932 
18 1 0.421 -12.871 -7.394 
19 1 -7.834 3.586 7.896 
20 1 -2.490 -0.456 -2.715 
21 1 0.015 -4.489 -13.507 
22 1 -0.919 -12.725 -10.712 
23 1 10.830 10.843 -11.647 
24 1 14.300 12.094 -11.204 
25 1 -9.124 11.934 15.794 
26 1 8.905 -12.054 -10.772 
27 1 16.243 -0.422 5.288 
28 1 -12.578 12.430 -8.301 
29 1 -1.675 5.591 -8.887 
30 1 -12.039 -2.060 9.397 
31 1 -10.993 2.827 1.895 
32 1 2.787 11.445 4.061 
33 1 0.225 0.783 -11.922 
34 1 -13.273 8.128 12.673 
35 1 0.054 -13.319 10.394 
36 1 -14.714 -0.043 14.913 
37 1 6.381 -1.217 -14.312 
38 1 -1.282 -9.835 0.572 
39 1 -10.357 5.987 9.816 
40 1 -1.102 4.748 15.882 
41 1 -0.585 -5.323 -3.111 
42 1 -16.164 16.170 -5.267 
43 1 -15.329 -2.762 2.043 
44 1 3.163 0.677 -8.000 
45 1 11.246 -12.260 -7.403 
46 1 -9.926 12.802 12.312 
47 1 -8.264 -8.637 10.241 
48 1 2.338 -15.827 4.254 
49 1 5.833 -0.701 14.500 
50 1 3.312 9.664 -11.104 
51 1 -0.538 14.721 5.480 
52 1 2.380 6.590 8.105 
53 1 7.958 -6.670 -10.153 
54 1 12.814 -15.311 -3.610 
55 1 3.004 -6.636 -14.794 
56 1 -7.708 2.097 -14.792 
57 1 9.858 8.714 5.312 
58 1 11.934 -1.191 -13.667 
59 1 1.933 -9.459 16.238 
60 1 -0.690 -0.581 -0.115 
61 1 10.784 14.293 7.495 
62 1 -11.928 -5.063 -9.453 
63 1 6.418 15.791 3.147 
64 1 -10.086 -11.086 6.273 
65 1 -3.991 9.283 9.856 
66 1 -8.039 13.785 -1.798 
67 1 13.316 3.935 8.254 
68 1 10.227 6.031 -6.501 
69 1 0.586 -5.446 15.618 
70 1 -7.236 8.368 7.391 
71 1 -14.398 0.596 1.411 
72 1 12.714 -11.449 1.471 
73 1 -10.725 -14.196 1.784 
74 1 -12.745 2.652 -14.964 
75 1 -1.983 -14.882 0.360 
76 1 7.651 16.371 12.710 
77 1 -3.680 -7.035 8.879 
78 1 3.262 -8.019 -11.048 
79 1 7.069 -11.842 16.344 
80 1 -12.920 -3.911 5.789 
81 1 1.430 -2.833 -11.036 
82 1 -7.342 -15.965 6.231 
83 1 3.286 -11.548 0.595 
84 1 -9.989 0.639 11.110 
85 1 -15.227 10.437 -15.799 
86 1 -3.809 -10.294 -7.584 
87 1 -5.256 7.181 -15.584 
88 1 0.924 3.644 -5.469 
89 1 1.271 -1.998 -7.261 
90 1 1.882 6.670 -2.189 
91 1 -15.367 -13.750 3.221 
92 1 1.552 -14.894 7.758 
93 1 -10.676 1.783 -10.271 
94 1 12.550 7.190 -16.392 
95 1 1.800 15.880 0.525 
96 1 -11.284 6.282 -2.825 
97 1 -4.072 6.544 6.811 
98 1 -13.940 6.984 -5.883 
99 1 -3.531 14.811 -2.029 
100 1 9.306 0.220 -6.609 
101 1 0.676 12.080 9.680 
102 1 -6.214 -9.419 3.410 
103 1 -14.286 -10.379 -10.367 
104 1 -7.898 10.855 -9.327 
105 1 -4.363 -15.106 13.205 
106 1 6.227 -10.268 -13.549 
107 1 0.359 -3.793 1.847 
108 1 12.370 12.554 -14.811 
109 1 -4.325 10.766 4.686 
110 1 -1.945 4.307 11.879 
111 1 0.514 -5.006 12.162 
112 1 7.413 12.776 7.857 
113 1 -14.125 6.242 -13.768 
114 1 1.924 7.284 13.303 
115 1 -4.237 -11.668 -10.699 
116 1 2.225 -6.582 1.014 
117 1 11.416 -4.469 2.737 
118 1 -4.616 -5.664 -3.426 
119 1 10.709 -15.717 -10.433 
120 1 -9.294 -5.379 7.437 
121 1 10.846 2.100 -14.555 
122 1 -7.703 4.885 -9.333 
123 1 -1.398 11.426 2.423 
124 1 3.094 0.463 6.464 
125 1 5.097 -4.410 -6.407 
126 1 -11.833 -7.591 5.296 
127 1 -4.640 2.390 8.626 
128 1 -16.062 11.953 -6.180 
129 1 -5.193 10.749 15.699 
130 1 9.598 -9.775 -13.954 
131 1 -3.261 -2.345 3.469 
132 1 -11.169 14.694 4.730 
133 1 6.985 -8.724 -5.524 
134 1 -16.386 -14.802 -15.066 
135 1 12.890 -1.071 8.034 
136 1 -4.741 1.805 15.076 
137 1 -3.514 6.090 2.636 
138 1 -1.852 11.718 -4.531 
139 1 -3.462 -10.922 -14.692 
140 1 0.015 15.581 11.142 
141 1 -3.262 -1.230 -8.228 
142 1 -11.871 0.952 7.609 
143 1 -1.762 -12.405 -3.737 
144 1 -4.705 12.252 12.100 
145 1 -9.050 12.139 8.701 
146 1 -6.857 -6.488 -6.295 
147 1 -11.392 -2.612 -3.814 
148 1 -0.507 8.609 8.685 
149 1 -8.541 -1.825 -13.471 
150 1 -4.968 -13.241 7.180 
151 1 4.814 3.068 -2.134 
152 1 -13.585 10.031 3.459 
153 1 3.363 -1.759 8.929 
154 1 -1.954 -15.203 -14.998 
155 1 -4.840 7.172 14.110 
156 1 -1.121 5.641 -3.614 
157 1 10.184 9.040 15.406 
158 1 -3.909 -0.674 12.236 
159 1 -15.210 8.294 -10.781 
160 1 -8.130 -3.092 10.900 
161 1 -7.092 -14.108 14.770 
162 1 4.080 -14.256 11.405 
163 1 0.433 -8.934 -7.251 
164 1 3.511 11.771 15.786 
165 1 -4.859 13.242 -7.527 
166 1 -2.038 -4.982 -10.059 
167 1 -6.692 7.234 3.620 
168 1 0.133 9.272 -0.332 
169 1 -8.729 2.900 4.192 
170 1 -9.853 9.205 1.368 
171 1 2.182 -2.176 -2.793 
172 1 4.682 10.140 6.775 
173 1 -3.369 9.486 -0.685 
174 1 -16.206 -7.118 -14.308 
175 1 10.721 -3.387 12.419 
176 1 3.723 1.157 -16.463 
177 1 10.308 14.517 -12.298 
178 1 2.973 3.237 1.848 
179 1 -9.175 15.719 8.741 
180 1 -3.439 -5.860 -7.446 
181 1 15.475 -15.284 13.152 
182 1 -6.822 -6.342 5.065 
183 1 9.907 5.062 1.624 
184 1 -4.372 9.171 -12.145 
185 1 11.718 -0.352 1.029 
186 1 -6.085 13.106 -12.567 
187 1 -3.096 14.398 -15.330 
188 1 6.591 6.228 6.249 
189 1 12.871 14.297 13.659 
190 1 3.736 -11.556 6.692 
191 1 -6.857 16.072 2.389 
192 1 -4.363 -2.752 -13.396 
193 1 -7.529 -15.855 -13.405 
194 1 3.696 13.360 -7.849 
195 1 -13.716 4.463 10.500 
196 1 -6.342 14.662 14.769 
197 1 -7.031 5.362 10.994 
198 1 0.665 0.107 -16.404 
199 1 6.567 -1.498 1.889 
200 1 3.639 -12.724 -11.281 
ITEM: TIMESTEP
14000
ITEM: NUMBER OF ATOMS
200
ITEM: BOX BOUNDS pp pp pp
-16.49818434247616 16.49818434247616
-16.49818434247616 16.49818434247616
-16.49818434247616 16.49818434247616
ITEM: ATOMS id type x y z
1 1 6.698 7.944 1.900 
2 1 -0.311 12.582 -1.597 
3 1 0.955 3.050 -10.425 
4 1 -1.062 9.374 5.778 
5 1 -11.325 -1.227 4.130 
6 1 5.921 15.415 9.756 
7 1 7.032 -3.741 8.216 
8 1 6.420 9.440 14.683 
9 1 5.580 12.938 1.529 
10 1 -7.683 11.971 -5.317 
11 1 -2.281 -12.470 4.145 
12 1 15.409 14.517 7.105 
13 1 -10.042 -7.692 -1.140 
14 1 -14.450 -7.965 7.786 
15 1 5.504 5.280 -14.555 
16 1 -0.848 12.698 -10.889 
17 1 -6.047 -13.108 0.332 
18 1 -0.470 -14.853 -7.708 
19 1 -8.498 3.458 7.734 
20 1 -3.706 -1.746 -1.639 
21 1 -0.810 -4.659 -14.584 
22 1 -1.114 -12.961 -10.350 
23 1 11.193 9.443 -11.821 
24 1 14.034 12.765 -10.220 
25 1 -9.508 12.772 -15.365 
26 1 9.204 -12.268 -10.626 
27 1 15.317 -0.631 5.374 
28 1 -12.612 12.367 -8.486 
29 1 -0.771 6.103 -9.093 
30 1 -11.515 -2.621 9.618 
31 1 -10.048 2.987 0.790 
32 1 2.576 10.378 3.957 
33 1 -0.078 -0.525 -11.282 
34 1 -13.690 7.232 13.554 
35 1 0.643 -12.509 10.080 
36 1 -15.345 0.779 15.012 
37 1 7.425 -0.870 -13.884 
38 1 -0.653 -9.913 -0.105 
39 1 -10.037 6.174 9.483 
40 1 -0.463 5.100 14.615 
41 1 -2.376 -5.448 -3.052 
42 1 -15.662 16.351 -5.281 
43 1 -15.497 -2.891 2.897 
44 1 3.074 -0.249 -8.235 
45 1 10.120 -12.462 -7.347 
46 1 -9.679 11.439 12.343 
47 1 -9.470 -8.517 10.597 
48 1 2.094 -15.736 4.057 
49 1 6.009 -0.310 15.019 
50 1 5.515 8.845 -11.647 
51 1 -0.341 14.711 6.026 
52 1 3.029 5.553 8.640 
53 1 8.111 -7.069 -9.524 
54 1 13.148 -15.176 -2.862 
55 1 2.871 -6.867 -14.228 
56 1 -6.738 1.617 -14.611 
57 1 8.099 9.021 6.289 
58 1 12.046 -2.309 -13.041 
59 1 1.553 -9.355 15.834 
60 1 -0.283 -0.685 -0.171 
61 1 11.241 15.600 7.950 
62 1 -12.198 -4.508 -8.315 
63 1 6.896 15.575 4.228 
64 1 -10.801 -11.780 5.007 
65 1 -4.960 8.445 10.297 
66 1 -8.374 13.069 -1.589 
67 1 13.347 3.866 8.032 
68 1 10.873 6.006 -6.914 
69 1 1.412 -6.008 15.010 
70 1 -7.357 8.962 8.208 
71 1 -13.709 1.045 1.492 
72 1 11.745 -10.910 0.972 
73 1 -10.458 -14.232 2.443 
74 1 -12.270 3.292 -16.493 
75 1 -1.420 -15.169 -0.432 
76 1 6.798 -15.968 12.860 
77 1 -4.706 -8.189 8.880 
78 1 3.525 -7.190 -10.573 
79 1 7.494 -11.977 -16.121 
80 1 -12.393 -4.554 5.755 
81 1 1.184 -3.337 -10.637 
82 1 -6.709 16.418 5.476 
83 1 3.936 -11.342 0.215 
84 1 -11.266 0.270 12.659 
85 1 -15.683 9.920 15.811 
86 1 -3.344 -10.584 -6.894 
87 1 -6.026 6.528 -15.409 
88 1 0.422 3.876 -6.522 
89 1 2.025 -3.339 -6.526 
90 1 2.012 6.501 -2.154 
91 1 -14.955 -12.985 2.878 
92 1 1.544 -15.556 7.614 
93 1 -11.138 1.191 -9.622 
94 1 12.970 7.634 16.128 
95 1 0.940 15.665 0.738 
96 1 -11.269 5.880 -2.064 
97 1 -4.325 6.815 6.477 
98 1 -13.930 6.013 -6.283 
99 1 -4.141 14.404 -1.368 
100 1 8.669 -0.736 -6.946 
101 1 1.069 11.279 8.407 
102 1 -5.747 -9.491 2.765 
103 1 -14.033 -10.985 -12.413 
104 1 -8.576 10.560 -9.795 
105 1 -2.735 -15.699 13.790 
106 1 5.568 -9.462 -12.957 
107 1 -0.155 -3.871 1.651 
108 1 13.202 12.592 -14.987 
109 1 -3.948 11.197 5.233 
110 1 -2.274 4.781 10.921 
111 1 -0.329 -5.934 11.758 
112 1 6.663 13.145 7.315 
113 1 -12.959 6.184 -14.064 
114 1 2.354 6.762 13.202 
115 1 -4.165 -11.811 -10.516 
116 1 2.468 -7.150 1.158 
117 1 10.521 -5.617 2.019 
118 1 -5.809 -4.870 -3.196 
119 1 9.623 -15.515 -11.383 
120 1 -9.659 -5.584 7.269 
121 1 10.574 3.381 -14.661 
122 1 -8.085 4.809 -9.648 
123 1 -1.189 11.162 2.351 
124 1 2.343 0.990 5.779 
125 1 5.354 -4.426 -5.193 
126 1 -11.246 -8.202 5.753 
127 1 -4.545 2.691 7.888 
128 1 -15.595 12.476 -6.356 
129 1 -4.901 10.805 16.396 
130 1 9.126 -8.935 -13.983 
131 1 -3.764 -2.209 4.029 
132 1 -10.392 14.813 4.997 
133 1 8.145 -9.375 -6.084 
134 1 -16.179 -14.954 -14.894 
135 1 12.525 -0.306 9.090 
136 1 -4.480 1.697 15.141 
137 1 -2.938 5.076 2.607 
138 1 -2.021 10.107 -3.270 
139 1 -3.662 -11.028 -14.981 
140 1 0.237 15.337 10.189 
141 1 -3.228 -1.633 -8.697 
142 1 -10.377 0.939 7.889 
143 1 -1.738 -12.830 -4.518 
144 1 -5.382 12.512 12.488 
145 1 -10.578 12.323 8.108 
146 1 -6.571 -7.764 -5.901 
147 1 -11.872 -1.820 -4.017 
148 1 -1.292 8.613 9.501 
149 1 -7.984 -2.125 -12.113 
150 1 -3.488 -13.547 8.022 
151 1 4.118 3.283 -2.333 
152 1 -12.446 11.589 2.719 
153 1 4.149 -1.725 9.151 
154 1 -1.325 -14.882 -15.011 
155 1 -4.377 7.034 14.050 
156 1 -1.326 5.902 -3.892 
157 1 10.789 10.484 15.459 
158 1 -4.753 -0.364 11.842 
159 1 -15.198 8.937 -11.225 
160 1 -8.862 -3.962 11.831 
161 1 -7.919 -13.406 15.109 
162 1 3.982 -14.774 10.297 
163 1 0.414 -9.221 -7.968 
164 1 3.371 11.599 16.334 
165 1 -5.318 13.903 -8.731 
166 1 -1.707 -4.695 -9.738 
167 1 -6.326 6.640 4.115 
168 1 0.458 9.083 -0.005 
169 1 -8.906 3.319 3.974 
170 1 -9.810 9.632 0.699 
171 1 2.037 -3.664 -2.444 
172 1 4.694 10.127 7.092 
173 1 -3.454 10.200 -0.323 
174 1 -15.305 -8.100 -15.076 
175 1 10.401 -2.626 11.837 
176 1 3.887 2.682 -15.881 
177 1 9.740 13.056 -12.166 
178 1 2.853 2.552 1.036 
179 1 -9.541 15.532 9.205 
180 1 -3.507 -4.744 -6.042 
181 1 15.913 -14.708 13.086 
182 1 -6.683 -7.000 5.304 
183 1 9.874 4.896 1.815 
184 1 -4.760 9.045 -11.987 
185 1 11.413 0.429 2.527 
186 1 -6.235 13.120 -13.515 
187 1 -3.369 14.711 -15.670 
188 1 6.405 5.860 6.578 
189 1 13.511 14.986 13.115 
190 1 3.905 -10.106 6.360 
191 1 -7.435 15.547 2.026 
192 1 -4.031 -2.348 -14.249 
193 1 -7.402 -15.544 -12.236 
194 1 3.177 12.775 -7.267 
195 1 -12.705 4.628 10.921 
196 1 -7.340 15.084 14.568 
197 1 -7.347 5.183 11.213 
198 1 0.391 -0.068 16.450 
199 1 8.188 -1.422 1.503 
200 1 3.726 -11.662 -10.999 
ITEM: TIMESTEP
15000
ITEM: NUMBER OF ATOMS
200
ITEM: BOX BOUNDS pp pp pp
-16.49818434247616 16.49818434247616
-16.49818434247616 16.49818434247616
-16.49818434247616 16.49818434247616
ITEM: ATOMS id type x y z
1 1 6.041 6.957 1.478 
2 1 -0.601 11.842 -1.870 
3 1 1.848 2.223 -10.285 
4 1 -0.812 9.243 5.881 
5 1 -11.694 -0.747 3.857 
6 1 6.768 15.326 10.002 
7 1 8.200 -4.789 7.819 
8 1 6.900 8.936 14.173 
9 1 6.037 12.759 0.596 
10 1 -8.078 11.182 -5.300 
11 1 -2.601 -12.799 4.768 
12 1 14.738 15.908 7.372 
13 1 -9.341 -7.408 -1.730 
14 1 -13.850 -8.892 7.693 
15 1 4.838 4.806 -13.574 
16 1 -1.425 13.175 -10.998 
17 1 -6.061 -13.403 -0.062 
18 1 0.252 -16.257 -7.769 
19 1 -8.508 3.553 8.721 
20 1 -3.755 -1.644 -0.767 
21 1 -1.443 -5.376 -14.909 
22 1 -0.949 -13.101 -11.989 
23 1 10.364 9.848 -11.664 
24 1 14.710 12.551 -10.718 
25 1 -9.436 13.938 -14.932 
26 1 9.043 -11.838 -10.645 
27 1 -16.361 0.449 6.472 
28 1 -12.532 12.747 -8.853 
29 1 -0.520 6.388 -8.991 
30 1 -11.606 -2.038 9.258 
31 1 -11.136 2.987 -0.420 
32 1 2.654 9.850 3.707 
33 1 -0.393 -0.035 -11.261 
34 1 -14.391 5.991 14.623 
35 1 0.493 -12.684 10.780 
36 1 16.258 2.161 15.404 
37 1 6.814 -0.260 -14.933 
38 1 -0.819 -9.905 -0.368 
39 1 -9.973 6.286 9.707 
40 1 -0.441 4.664 13.300 
41 1 -2.150 -6.524 -3.097 
42 1 -15.475 16.129 -5.179 
43 1 -15.677 -2.649 3.385 
44 1 2.644 0.363 -7.753 
45 1 10.993 -12.174 -6.986 
46 1 -9.802 11.900 12.735 
47 1 -9.113 -9.191 11.308 
48 1 2.489 -15.675 3.309 
49 1 5.737 -0.436 14.655 
50 1 4.918 8.700 -10.694 
51 1 -0.604 14.545 5.274 
52 1 2.901 5.776 9.336 
53 1 8.162 -5.989 -9.887 
54 1 13.514 -15.364 -4.753 
55 1 1.568 -6.853 -14.204 
56 1 -6.047 0.098 -14.378 
57 1 8.666 8.330 7.433 
58 1 11.933 -2.205 -13.827 
59 1 1.783 -9.379 15.481 
60 1 0.332 -0.741 -0.074 
61 1 9.904 15.708 6.239 
62 1 -12.145 -4.135 -8.438 
63 1 7.913 -16.490 3.825 
64 1 -11.624 -11.925 5.881 
65 1 -4.703 8.046 11.043 
66 1 -7.459 14.037 -2.619 
67 1 14.451 4.858 9.021 
68 1 9.678 4.768 -7.484 
69 1 1.749 -6.427 14.086 
70 1 -6.834 7.847 8.446 
71 1 -14.268 0.994 1.375 
72 1 11.354 -11.100 1.312 
73 1 -9.854 -14.309 1.950 
74 1 -13.104 3.339 16.154 
75 1 -0.933 -14.907 -1.475 
76 1 6.479 -15.496 13.105 
77 1 -5.839 -8.007 9.044 
78 1 3.588 -7.365 -9.549 
79 1 8.081 -12.468 -15.148 
80 1 -12.345 -4.495 5.407 
81 1 0.573 -3.395 -10.480 
82 1 -4.909 16.412 5.633 
83 1 3.659 -11.568 -0.857 
84 1 -11.226 -0.126 12.446 
85 1 -15.840 10.715 15.439 
86 1 -3.357 -9.742 -6.296 
87 1 -4.784 5.061 -14.621 
88 1 0.242 3.008 -6.736 
89 1 1.548 -3.525 -6.915 
90 1 2.342 7.538 -1.846 
91 1 -14.419 -13.053 2.819 
92 1 1.400 -15.489 7.572 
93 1 -10.011 0.964 -10.392 
94 1 12.705 7.176 16.314 
95 1 0.508 15.080 0.217 
96 1 -11.383 6.560 -1.896 
97 1 -3.499 7.251 6.062 
98 1 -13.738 5.640 -7.022 
99 1 -3.912 14.992 -0.860 
100 1 8.978 -0.379 -7.052 
101 1 1.761 10.909 7.879 
102 1 -4.801 -9.397 3.500 
103 1 -12.557 -10.133 -12.373 
104 1 -7.613 11.386 -9.178 
105 1 -2.291 -15.620 13.619 
106 1 4.676 -8.812 -14.157 
107 1 -0.426 -3.848 1.917 
108 1 12.589 12.439 -14.373 
109 1 -3.393 12.049 4.990 
110 1 -2.157 4.818 10.523 
111 1 -0.079 -5.609 11.619 
112 1 6.700 13.196 6.637 
113 1 -13.400 7.098 -13.021 
114 1 2.571 6.576 13.216 
115 1 -5.699 -11.616 -11.052 
116 1 2.389 -7.147 0.552 
117 1 10.935 -6.038 3.267 
118 1 -6.413 -4.567 -3.365 
119 1 9.683 -16.358 -11.071 
120 1 -9.314 -5.514 7.774 
121 1 10.362 2.498 -16.126 
122 1 -8.082 5.820 -9.225 
123 1 -1.667 10.429 2.725 
124 1 1.339 1.286 5.899 
125 1 5.454 -4.482 -4.795 
126 1 -11.566 -7.863 4.361 
127 1 -4.935 2.058 8.186 
128 1 -15.031 12.729 -5.997 
129 1 -4.723 10.961 16.034 
130 1 9.010 -9.373 -13.021 
131 1 -5.113 -2.485 2.684 
132 1 -10.284 14.701 4.638 
133 1 9.202 -9.100 -6.161 
134 1 16.059 -15.545 -15.637 
135 1 10.865 -1.407 9.497 
136 1 -4.091 3.267 14.392 
137 1 -3.728 5.013 2.324 
138 1 -2.297 9.925 -3.803 
139 1 -2.223 -9.783 -14.008 
140 1 0.596 15.498 11.547 
141 1 -2.741 -2.051 -8.651 
142 1 -11.281 1.471 6.533 
143 1 -1.387 -12.945 -4.403 
144 1 -5.424 12.024 10.839 
145 1 -11.314 12.142 9.506 
146 1 -5.740 -7.529 -5.034 
147 1 -12.439 -0.118 -3.602 
148 1 -1.511 8.452 10.259 
149 1 -7.541 -2.057 -12.238 
150 1 -3.056 -14.328 8.583 
151 1 4.987 3.186 -2.990 
152 1 -11.975 12.010 3.578 
153 1 5.238 -0.828 8.685 
154 1 -2.136 -14.598 -15.654 
155 1 -3.884 6.631 14.860 
156 1 -2.304 6.773 -3.081 
157 1 11.293 10.056 15.345 
158 1 -3.374 -0.316 12.646 
159 1 -14.276 9.433 -10.915 
160 1 -8.437 -4.282 11.876 
161 1 -8.674 -13.193 15.287 
162 1 3.762 -15.146 10.478 
163 1 -0.217 -7.487 -7.693 
164 1 4.487 12.165 -15.876 
165 1 -5.418 15.038 -8.317 
166 1 -2.308 -5.697 -9.494 
167 1 -6.533 6.939 4.112 
168 1 0.730 9.359 0.327 
169 1 -8.787 3.044 2.363 
170 1 -9.943 9.957 1.294 
171 1 1.105 -4.345 -1.954 
172 1 4.827 10.135 6.638 
173 1 -3.777 9.945 -0.670 
174 1 -15.922 -8.658 -14.212 
175 1 10.160 -3.647 12.840 
176 1 3.647 3.508 -16.418 
177 1 7.893 13.129 -11.535 
178 1 3.495 1.785 0.923 
179 1 -9.876 16.431 10.820 
180 1 -2.429 -4.638 -6.062 
181 1 -15.623 -14.181 12.245 
182 1 -8.089 -7.037 4.798 
183 1 9.404 3.937 0.685 
184 1 -4.808 9.741 -13.270 
185 1 10.270 0.712 2.065 
186 1 -6.479 12.714 -13.298 
187 1 -3.358 14.141 -14.986 
188 1 6.165 5.959 7.224 
189 1 13.945 15.339 13.556 
190 1 3.736 -9.945 4.848 
191 1 -7.094 -16.169 1.832 
192 1 -3.610 -2.035 -15.867 
193 1 -7.765 -15.030 -12.741 
194 1 3.732 13.076 -7.628 
195 1 -12.415 4.108 11.337 
196 1 -7.320 14.634 13.902 
197 1 -6.632 4.736 10.718 
198 1 -0.351 0.404 -16.188 
199 1 7.169 -1.248 1.684 
200 1 3.732 -11.561 -9.981 
ITEM: TIMESTEP
16000
ITEM: NUMBER OF ATOMS
200
ITEM: BOX BOUNDS pp pp pp
-16.49818434247616 16.49818434247616
-16.49818434247616 16.49818434247616
-16.49818434247616 16.49818434247616
ITEM: ATOMS id type x y z
1 1 5.815 6.281 1.636 
2 1 -0.157 12.027 -2.105 
3 1 2.154 2.530 -11.243 
4 1 -0.402 8.652 5.782 
5 1 -11.141 -1.223 3.911 
6 1 6.302 15.726 8.992 
7 1 9.035 -5.775 9.347 
8 1 7.130 9.291 14.389 
9 1 4.811 12.744 1.470 
10 1 -8.354 11.344 -5.944 
11 1 -3.476 -13.014 5.099 
12 1 13.301 -16.028 8.033 
13 1 -10.337 -7.629 -1.800 
14 1 -14.997 -9.027 8.230 
15 1 4.170 5.984 -12.640 
16 1 -0.864 11.530 -10.007 
17 1 -7.960 -12.930 -0.356 
18 1 0.202 15.864 -8.159 
19 1 -8.823 3.437 9.128 
20 1 -3.629 -1.707 -0.955 
21 1 -1.618 -6.280 -14.600 
22 1 -0.443 -14.001 -11.710 
23 1 10.787 9.981 -11.501 
24 1 14.347 12.493 -10.849 
25 1 -10.815 12.907 -15.505 
26 1 9.415 -11.175 -11.434 
27 1 -15.063 0.636 6.077 
28 1 -12.327 12.527 -9.857 
29 1 -1.437 6.447 -9.364 
30 1 -12.031 -2.111 10.888 
31 1 -11.017 2.850 -0.393 
32 1 2.663 10.532 4.434 
33 1 -0.581 0.270 -11.386 
34 1 -15.245 6.430 14.700 
35 1 0.816 -13.552 10.928 
36 1 16.426 3.208 16.415 
37 1 6.803 -0.656 -14.821 
38 1 -0.926 -10.704 0.293 
39 1 -9.665 6.573 11.185 
40 1 0.079 5.436 13.007 
41 1 -2.480 -6.392 -2.578 
42 1 -15.589 -16.482 -4.451 
43 1 -14.750 -2.964 2.709 
44 1 2.436 0.042 -7.474 
45 1 10.015 -13.378 -7.058 
46 1 -9.293 12.018 12.794 
47 1 -8.923 -7.791 11.038 
48 1 2.455 -14.703 2.964 
49 1 6.211 0.414 14.159 
50 1 4.665 8.871 -10.445 
51 1 -0.021 15.296 5.242 
52 1 3.200 5.446 9.950 
53 1 7.703 -7.335 -10.274 
54 1 12.766 -15.494 -4.533 
55 1 1.354 -7.361 -14.765 
56 1 -5.120 0.175 -14.840 
57 1 8.357 8.723 7.840 
58 1 11.454 -0.732 -14.934 
59 1 2.338 -10.222 16.149 
60 1 -0.404 -0.989 -0.780 
61 1 10.110 15.742 6.791 
62 1 -11.449 -3.099 -8.938 
63 1 7.536 16.065 4.112 
64 1 -11.563 -13.337 5.947 
65 1 -4.841 7.508 11.514 
66 1 -7.244 13.832 -2.376 
67 1 15.990 4.032 9.137 
68 1 9.935 4.625 -7.799 
69 1 1.426 -7.237 14.010 
70 1 -7.957 9.229 7.803 
71 1 -14.082 0.283 1.683 
72 1 11.109 -11.092 1.388 
73 1 -10.845 -15.393 1.850 
74 1 -13.655 3.214 14.536 
75 1 -1.153 -13.583 -1.671 
76 1 6.604 -15.672 12.586 
77 1 -5.336 -8.410 9.275 
78 1 3.600 -6.865 -9.246 
79 1 9.113 -12.446 -15.720 
80 1 -12.968 -4.536 5.837 
81 1 0.491 -3.708 -10.669 
82 1 -5.703 16.329 6.129 
83 1 3.902 -12.011 0.763 
84 1 -13.096 -0.097 13.733 
85 1 -15.635 10.365 15.220 
86 1 -3.296 -9.702 -5.866 
87 1 -5.717 4.557 -14.205 
88 1 0.363 2.890 -6.014 
89 1 2.048 -4.232 -7.019 
90 1 1.709 8.533 -3.144 
91 1 -14.146 -13.693 4.079 
92 1 1.033 -15.276 7.428 
93 1 -10.766 0.462 -10.287 
94 1 13.697 7.479 -16.084 
95 1 -0.431 15.992 -0.730 
96 1 -12.008 7.133 -2.050 
97 1 -3.629 6.588 6.151 
98 1 -13.863 5.800 -6.156 
99 1 -4.532 15.714 -0.659 
100 1 8.704 -1.767 -6.907 
101 1 1.503 11.579 8.096 
102 1 -3.356 -9.525 3.102 
103 1 -13.078 -10.436 -13.128 
104 1 -8.479 11.571 -9.319 
105 1 -3.424 15.479 14.019 
106 1 6.389 -9.012 -15.154 
107 1 -0.734 -4.011 2.103 
108 1 14.351 11.793 -15.886 
109 1 -3.962 11.837 5.501 
110 1 -2.571 5.053 10.827 
111 1 -0.846 -5.906 11.800 
112 1 7.064 12.786 6.427 
113 1 -14.235 6.918 -12.960 
114 1 4.136 6.267 13.089 
115 1 -5.898 -12.106 -10.569 
116 1 2.173 -7.192 1.778 
117 1 11.557 -5.314 2.065 
118 1 -5.471 -4.853 -1.432 
119 1 10.249 -15.921 -11.005 
120 1 -8.933 -5.133 7.524 
121 1 11.085 2.801 15.959 
122 1 -8.667 7.110 -9.451 
123 1 -2.197 10.458 2.702 
124 1 0.674 0.380 5.448 
125 1 6.984 -4.525 -6.070 
126 1 -11.454 -7.114 4.828 
127 1 -5.897 2.248 8.233 
128 1 -14.742 12.725 -6.735 
129 1 -4.239 11.501 15.239 
130 1 9.177 -8.883 -13.569 
131 1 -5.181 -3.832 2.075 
132 1 -10.677 14.741 4.065 
133 1 9.736 -9.033 -7.032 
134 1 -15.840 -14.656 -15.778 
135 1 10.844 -1.781 9.141 
136 1 -5.548 2.482 13.865 
137 1 -3.257 4.560 3.006 
138 1 -2.853 9.653 -4.138 
139 1 -2.372 -9.798 -13.256 
140 1 0.693 15.119 11.108 
141 1 -2.916 -1.401 -9.246 
142 1 -10.656 1.113 7.171 
143 1 -0.703 -12.620 -5.045 
144 1 -5.021 11.519 11.371 
145 1 -11.555 12.215 9.418 
146 1 -5.865 -6.912 -4.841 
147 1 -12.406 0.011 -3.167 
148 1 -1.262 8.638 11.272 
149 1 -7.544 -2.530 -12.341 
150 1 -2.041 -13.889 8.107 
151 1 4.770 2.792 -3.774 
152 1 -12.162 11.589 3.849 
153 1 4.320 -1.135 9.288 
154 1 -2.510 -13.975 -15.186 
155 1 -5.494 7.702 15.754 
156 1 -2.191 6.295 -3.211 
157 1 11.510 9.953 15.109 
158 1 -4.560 -0.585 12.855 
159 1 -14.943 8.696 -9.331 
160 1 -8.506 -3.767 11.706 
161 1 -8.991 -15.002 14.897 
162 1 3.564 -14.925 10.448 
163 1 -0.202 -7.170 -7.505 
164 1 4.222 12.231 -15.521 
165 1 -4.888 15.822 -7.556 
166 1 -2.614 -5.183 -10.352 
167 1 -6.880 6.004 3.190 
168 1 0.241 9.558 0.520 
169 1 -8.968 3.516 2.523 
170 1 -10.311 9.597 0.261 
171 1 1.642 -3.550 -2.253 
172 1 4.996 9.987 7.067 
173 1 -3.207 9.176 -0.222 
174 1 15.734 -9.013 -14.467 
175 1 10.842 -3.938 11.835 
176 1 3.352 2.741 16.120 
177 1 9.058 13.946 -10.552 
178 1 3.345 1.561 0.281 
179 1 -9.257 15.078 11.215 
180 1 -2.912 -4.143 -5.593 
181 1 -16.037 -13.844 13.297 
182 1 -7.790 -6.787 4.459 
183 1 9.403 3.910 1.171 
184 1 -3.853 9.471 -13.653 
185 1 10.070 0.139 1.159 
186 1 -6.169 12.440 -13.254 
187 1 -2.380 13.876 -14.393 
188 1 6.716 6.044 7.363 
189 1 13.823 15.506 12.186 
190 1 3.775 -10.225 3.621 
191 1 -6.307 -16.367 2.665 
192 1 -3.919 -2.173 16.311 
193 1 -7.074 -15.047 -13.329 
194 1 4.427 13.019 -7.853 
195 1 -12.472 4.649 11.453 
196 1 -7.028 14.800 14.612 
197 1 -6.266 4.451 10.990 
198 1 0.709 0.416 16.346 
199 1 7.714 -1.927 1.091 
200 1 2.741 -11.448 -9.538 
ITEM: TIMESTEP
17000
ITEM: NUMBER OF ATOMS
200
ITEM: BOX BOUNDS pp pp pp
-16.49818434247616 16.49818434247616
-16.49818434247616 16.49818434247616
-16.49818434247616 16.49818434247616
ITEM: ATOMS id type x y z
1 1 7.412 5.817 2.479 
2 1 -0.230 11.123 -1.634 
3 1 1.995 3.079 -11.491 
4 1 -0.204 9.269 6.219 
5 1 -11.072 -1.873 4.194 
6 1 5.951 15.878 8.168 
7 1 8.887 -5.396 8.925 
8 1 6.562 9.561 13.914 
9 1 3.742 11.815 0.251 
10 1 -8.285 11.931 -5.990 
11 1 -3.624 -14.022 4.450 
12 1 14.670 -15.340 8.415 
13 1 -9.628 -8.944 0.158 
14 1 -15.624 -9.266 9.167 
15 1 3.502 5.938 -13.739 
16 1 -1.028 10.780 -10.774 
17 1 -8.057 -12.930 0.371 
18 1 -0.148 15.683 -7.161 
19 1 -9.249 4.998 8.451 
20 1 -2.912 -1.724 -2.172 
21 1 -1.948 -6.195 -14.819 
22 1 -1.689 -13.808 -10.572 
23 1 12.358 9.391 -10.965 
24 1 14.995 12.426 -10.146 
25 1 -10.005 12.661 -15.508 
26 1 8.509 -12.167 -10.476 
27 1 -14.848 1.749 6.246 
28 1 -11.541 13.030 -9.147 
29 1 -1.933 7.369 -10.381 
30 1 -11.586 -2.172 11.603 
31 1 -10.197 3.154 -1.471 
32 1 2.613 11.741 3.505 
33 1 -1.196 1.010 -11.118 
34 1 -15.077 7.739 14.135 
35 1 0.400 -13.295 10.679 
36 1 -15.475 3.425 -15.847 
37 1 7.124 -0.215 -15.128 
38 1 -1.302 -9.308 -0.268 
39 1 -9.843 7.174 11.290 
40 1 -0.038 5.537 13.288 
41 1 -3.308 -8.035 -2.624 
42 1 -15.882 -16.404 -3.792 
43 1 -15.885 -3.156 3.782 
44 1 3.110 0.633 -7.017 
45 1 9.549 -13.668 -7.280 
46 1 -9.958 11.450 12.205 
47 1 -9.225 -7.340 10.915 
48 1 2.421 -15.231 2.410 
49 1 4.617 0.744 14.845 
50 1 5.662 8.037 -9.974 
51 1 0.164 14.325 6.060 
52 1 2.191 5.579 9.736 
53 1 7.986 -6.168 -10.423 
54 1 12.257 -15.574 -5.651 
55 1 1.371 -7.354 -14.873 
56 1 -4.960 -0.440 -13.568 
57 1 8.039 9.395 5.696 
58 1 10.610 -0.579 -15.938 
59 1 3.127 -10.486 15.671 
60 1 0.521 -0.474 -1.172 
61 1 10.745 15.223 6.898 
62 1 -10.961 -3.123 -9.625 
63 1 7.580 -15.323 4.899 
64 1 -10.721 -13.188 5.322 
65 1 -4.673 7.440 11.182 
66 1 -6.973 13.593 -1.347 
67 1 15.789 2.895 9.235 
68 1 11.059 5.768 -8.177 
69 1 1.354 -6.216 14.710 
70 1 -6.737 10.206 7.463 
71 1 -14.116 -0.325 0.887 
72 1 10.256 -9.899 0.632 
73 1 -11.486 -15.533 2.043 
74 1 -14.482 3.013 13.924 
75 1 -1.531 -13.043 -1.117 
76 1 5.912 -15.405 12.228 
77 1 -4.972 -6.801 9.622 
78 1 4.150 -6.143 -9.268 
79 1 9.774 -12.603 -15.077 
80 1 -13.414 -4.149 6.455 
81 1 0.961 -3.319 -10.986 
82 1 -6.025 -16.441 7.410 
83 1 2.685 -11.215 0.625 
84 1 -12.352 0.143 13.839 
85 1 -15.168 11.340 15.229 
86 1 -3.510 -11.607 -5.681 
87 1 -6.103 3.901 -12.979 
88 1 0.863 3.787 -5.526 
89 1 1.466 -3.212 -7.290 
90 1 1.710 7.191 -2.896 
91 1 -14.135 -13.169 2.639 
92 1 0.133 -14.093 6.635 
93 1 -11.556 0.931 -10.336 
94 1 14.041 8.077 16.402 
95 1 -0.087 15.439 -1.305 
96 1 -12.881 7.609 -2.864 
97 1 -3.566 7.645 7.308 
98 1 -13.615 6.574 -6.613 
99 1 -4.401 15.432 -0.582 
100 1 8.499 -0.744 -6.203 
101 1 1.810 12.179 8.053 
102 1 -3.132 -9.856 4.233 
103 1 -13.018 -10.579 -13.624 
104 1 -8.859 11.211 -10.416 
105 1 -2.764 16.026 11.676 
106 1 5.398 -8.533 -15.664 
107 1 0.400 -3.189 1.370 
108 1 14.499 11.700 -16.398 
109 1 -4.149 11.141 4.576 
110 1 -2.955 4.170 11.122 
111 1 -0.898 -6.129 11.515 
112 1 7.518 12.485 7.143 
113 1 -14.503 5.738 -12.773 
114 1 3.637 6.244 12.945 
115 1 -4.926 -13.207 -10.128 
116 1 2.392 -7.027 2.364 
117 1 10.624 -5.433 1.754 
118 1 -5.135 -4.395 -1.480 
119 1 11.319 -15.246 -10.100 
120 1 -8.061 -5.327 8.322 
121 1 11.187 2.853 15.776 
122 1 -8.424 7.334 -9.400 
123 1 -1.521 10.361 3.002 
124 1 1.550 0.231 4.977 
125 1 6.544 -5.383 -5.475 
126 1 -11.198 -7.559 4.247 
127 1 -4.555 2.908 7.856 
128 1 -14.937 12.404 -7.309 
129 1 -3.011 11.437 15.873 
130 1 9.256 -8.359 -13.471 
131 1 -5.221 -4.353 1.844 
132 1 -9.956 14.646 5.161 
133 1 8.657 -9.090 -8.298 
134 1 15.992 -14.327 -15.691 
135 1 11.780 -1.912 9.542 
136 1 -7.273 1.293 13.762 
137 1 -2.983 3.328 4.631 
138 1 -5.380 9.812 -3.944 
139 1 -3.576 -9.122 -13.484 
140 1 0.836 15.427 10.861 
141 1 -2.656 -1.478 -8.793 
142 1 -10.946 0.596 6.682 
143 1 -0.780 -13.565 -4.943 
144 1 -4.527 10.840 10.281 
145 1 -11.279 13.568 8.703 
146 1 -5.798 -8.273 -5.215 
147 1 -13.212 -0.671 -4.515 
148 1 -0.801 8.569 11.650 
149 1 -7.592 -3.086 -12.328 
150 1 -3.598 -13.039 8.227 
151 1 3.683 3.800 -3.002 
152 1 -13.304 12.120 4.071 
153 1 4.923 -0.162 8.708 
154 1 -2.771 -13.825 -14.786 
155 1 -6.518 8.306 15.550 
156 1 -1.873 6.351 -3.811 
157 1 11.211 9.510 15.684 
158 1 -4.684 -0.199 12.633 
159 1 -13.847 9.279 -8.820 
160 1 -7.993 -3.741 11.499 
161 1 -10.089 -15.164 -16.469 
162 1 3.370 -15.343 10.294 
163 1 0.566 -7.451 -8.382 
164 1 3.991 12.069 -15.320 
165 1 -4.354 15.259 -8.308 
166 1 -2.663 -5.245 -9.932 
167 1 -7.343 6.586 4.071 
168 1 1.807 8.990 1.101 
169 1 -9.163 4.066 2.039 
170 1 -10.381 9.453 0.388 
171 1 1.705 -3.798 -2.777 
172 1 4.254 10.055 7.287 
173 1 -3.306 8.265 -0.550 
174 1 -15.490 -8.011 -14.062 
175 1 11.329 -4.887 11.747 
176 1 2.998 3.188 -15.826 
177 1 9.260 13.628 -9.514 
178 1 4.029 1.083 1.065 
179 1 -9.759 15.236 10.757 
180 1 -2.204 -4.052 -5.872 
181 1 -14.581 -14.350 12.495 
182 1 -8.298 -6.798 4.649 
183 1 10.953 3.759 0.212 
184 1 -3.989 9.696 -12.866 
185 1 10.140 0.647 0.781 
186 1 -6.426 12.980 -12.918 
187 1 -2.764 12.983 -13.980 
188 1 5.894 6.489 5.891 
189 1 14.660 14.857 11.961 
190 1 3.922 -10.055 4.096 
191 1 -6.213 -15.615 2.097 
192 1 -4.140 -2.265 16.279 
193 1 -7.762 -14.407 -14.138 
194 1 4.761 11.823 -8.541 
195 1 -12.383 4.826 10.618 
196 1 -7.215 14.133 15.510 
197 1 -6.096 3.977 11.156 
198 1 0.834 0.132 14.404 
199 1 7.789 -2.236 1.550 
200 1 2.581 -10.733 -8.813 
ITEM: TIMESTEP
18000
ITEM: NUMBER OF ATOMS
200
ITEM: BOX BOUNDS pp pp pp
-16.49818434247616 16.49818434247616
-16.49818434247616 16.49818434247616
-16.49818434247616 16.49818434247616
ITEM: ATOMS id type x y z
1 1 7.729 5.910 2.829 
2 1 0.028 11.293 -0.404 
3 1 2.679 2.813 -12.049 
4 1 -0.881 9.906 6.656 
5 1 -10.314 -3.565 3.435 
6 1 4.798 14.814 7.413 
7 1 9.920 -5.773 8.758 
8 1 5.875 9.861 14.806 
9 1 4.110 10.821 0.234 
10 1 -8.306 12.895 -5.972 
11 1 -3.644 -14.124 3.303 
12 1 14.823 -15.314 8.782 
13 1 -9.732 -6.565 0.197 
14 1 -15.700 -9.023 9.372 
15 1 3.091 6.721 -14.064 
16 1 -0.773 10.648 -9.770 
17 1 -7.484 -13.432 -0.086 
18 1 -0.096 16.172 -6.224 
19 1 -9.331 4.341 8.948 
20 1 -3.165 -0.683 -1.330 
21 1 -1.376 -6.865 -14.205 
22 1 -0.703 -13.605 -11.054 
23 1 12.417 8.979 -10.874 
24 1 15.284 11.684 -10.744 
25 1 -9.937 13.716 -14.596 
26 1 7.446 -12.518 -11.260 
27 1 -14.245 0.912 5.720 
28 1 -11.583 13.168 -8.678 
29 1 -1.297 7.069 -9.541 
30 1 -11.337 -2.771 11.496 
31 1 -9.836 2.510 -0.352 
32 1 3.111 14.063 3.623 
33 1 -1.202 2.381 -11.444 
34 1 -14.417 7.161 13.705 
35 1 -0.067 -14.260 9.869 
36 1 -15.815 4.360 -15.589 
37 1 6.941 -0.655 -14.867 
38 1 -0.846 -9.961 1.366 
39 1 -10.149 7.590 11.427 
40 1 0.682 4.688 13.691 
41 1 -3.798 -7.455 -2.525 
42 1 -15.177 -16.399 -3.864 
43 1 -15.644 -2.510 3.395 
44 1 3.229 0.334 -6.123 
45 1 9.427 -14.848 -6.082 
46 1 -11.581 10.740 10.367 
47 1 -9.871 -6.736 9.569 
48 1 1.597 -15.156 2.353 
49 1 5.152 1.255 13.265 
50 1 3.898 8.653 -11.213 
51 1 0.313 14.280 5.940 
52 1 2.626 5.392 10.057 
53 1 9.583 -6.281 -11.329 
54 1 12.671 -16.423 -5.262 
55 1 1.592 -8.397 -15.674 
56 1 -4.466 0.191 -13.159 
57 1 9.253 9.358 5.893 
58 1 10.912 -0.527 -15.961 
59 1 4.045 -10.904 15.053 
60 1 1.285 -0.640 -0.690 
61 1 11.375 15.591 6.843 
62 1 -11.428 -2.973 -10.284 
63 1 5.970 -15.828 5.283 
64 1 -11.091 -12.831 6.008 
65 1 -5.655 7.634 11.202 
66 1 -5.901 12.315 -1.442 
67 1 15.718 2.956 9.772 
68 1 11.595 5.039 -7.629 
69 1 2.188 -5.617 14.711 
70 1 -6.416 8.450 6.983 
71 1 -14.181 -0.556 0.343 
72 1 11.622 -10.516 0.583 
73 1 -10.711 -15.948 1.756 
74 1 -14.030 1.937 14.142 
75 1 -1.707 -13.839 -0.800 
76 1 6.189 -15.246 12.285 
77 1 -4.119 -6.896 8.166 
78 1 3.482 -6.308 -9.738 
79 1 9.922 -12.482 -14.167 
80 1 -12.653 -4.620 5.938 
81 1 0.155 -2.744 -11.477 
82 1 -5.285 16.209 7.618 
83 1 2.558 -11.387 1.079 
84 1 -11.301 0.260 13.356 
85 1 -15.577 11.049 15.145 
86 1 -3.175 -11.059 -4.491 
87 1 -5.277 3.359 -13.487 
88 1 1.016 4.079 -6.083 
89 1 1.837 -2.975 -6.782 
90 1 1.822 7.619 -3.672 
91 1 -13.698 -13.282 1.964 
92 1 -0.356 -14.594 5.347 
93 1 -11.264 1.013 -10.539 
94 1 13.994 8.242 -16.204 
95 1 -0.146 15.769 -2.177 
96 1 -13.559 8.412 -3.650 
97 1 -3.103 7.209 7.053 
98 1 -12.540 5.119 -5.144 
99 1 -4.191 14.920 -1.176 
100 1 7.334 -0.492 -6.731 
101 1 2.275 12.580 8.887 
102 1 -4.742 -8.396 5.008 
103 1 -12.364 -10.640 -12.850 
104 1 -8.652 10.480 -9.592 
105 1 -3.048 15.888 11.757 
106 1 5.948 -8.559 -16.041 
107 1 1.290 -2.250 2.357 
108 1 13.755 12.258 15.989 
109 1 -4.263 12.231 5.274 
110 1 -2.286 4.761 12.125 
111 1 -1.529 -5.613 10.901 
112 1 7.624 12.105 7.656 
113 1 -14.135 6.860 -12.700 
114 1 3.099 7.681 13.068 
115 1 -5.350 -12.993 -9.705 
116 1 0.915 -6.866 2.151 
117 1 11.002 -4.412 1.702 
118 1 -5.542 -4.324 -1.819 
119 1 11.979 -15.092 -9.078 
120 1 -8.147 -5.043 7.230 
121 1 10.522 4.002 -16.049 
122 1 -9.196 6.386 -9.443 
123 1 -1.523 9.461 3.533 
124 1 0.286 1.827 4.753 
125 1 6.678 -4.913 -5.986 
126 1 -13.157 -7.377 3.014 
127 1 -4.278 1.505 7.429 
128 1 -14.252 11.386 -7.022 
129 1 -2.818 12.443 15.115 
130 1 8.847 -9.358 -13.642 
131 1 -3.515 -3.876 1.529 
132 1 -9.593 14.195 6.047 
133 1 8.365 -9.147 -8.832 
134 1 -15.538 -14.173 -16.097 
135 1 11.044 -1.665 9.942 
136 1 -7.910 2.219 13.776 
137 1 -2.501 3.634 5.241 
138 1 -5.951 9.206 -4.250 
139 1 -4.753 -9.211 -13.625 
140 1 0.506 14.550 11.007 
141 1 -2.319 -1.393 -8.634 
142 1 -10.500 -0.197 6.828 
143 1 -1.013 -13.308 -6.529 
144 1 -3.908 12.192 10.479 
145 1 -12.442 14.683 8.361 
146 1 -5.934 -7.944 -5.705 
147 1 -12.739 0.432 -4.503 
148 1 -0.618 7.695 10.658 
149 1 -7.179 -2.667 -12.534 
150 1 -4.013 -13.154 9.583 
151 1 4.830 4.887 -2.837 
152 1 -13.426 12.941 4.865 
153 1 4.775 1.343 9.004 
154 1 -2.821 -13.921 -16.246 
155 1 -5.631 7.698 14.767 
156 1 -2.807 6.707 -3.645 
157 1 11.068 9.247 15.074 
158 1 -3.065 0.885 12.572 
159 1 -12.726 8.895 -8.571 
160 1 -7.881 -3.405 10.785 
161 1 -10.491 -15.587 -16.252 
162 1 3.177 -16.023 10.768 
163 1 0.529 -7.112 -7.531 
164 1 3.951 10.933 -15.695 
165 1 -5.316 14.153 -7.914 
166 1 -2.970 -5.737 -11.149 
167 1 -7.761 7.919 3.810 
168 1 1.912 8.200 -0.116 
169 1 -9.586 4.215 2.363 
170 1 -9.420 8.444 0.553 
171 1 1.836 -4.075 -3.053 
172 1 4.457 10.163 7.577 
173 1 -3.644 8.933 -1.298 
174 1 -16.437 -7.585 -15.203 
175 1 11.690 -5.249 11.647 
176 1 2.548 1.829 -16.153 
177 1 9.933 13.083 -9.672 
178 1 3.953 0.955 0.874 
179 1 -9.926 16.396 11.466 
180 1 -2.549 -3.816 -5.658 
181 1 16.404 -12.055 11.911 
182 1 -8.337 -6.928 4.067 
183 1 11.431 3.791 0.888 
184 1 -5.505 10.529 -12.079 
185 1 11.713 0.144 0.912 
186 1 -6.708 13.530 -12.984 
187 1 -2.664 14.752 -13.502 
188 1 6.320 6.823 5.719 
189 1 14.842 15.094 11.939 
190 1 3.585 -9.897 4.846 
191 1 -6.169 -15.902 2.343 
192 1 -5.171 -3.350 16.431 
193 1 -6.551 -15.141 -14.776 
194 1 5.202 12.941 -8.448 
195 1 -13.372 5.217 9.924 
196 1 -7.746 14.327 16.402 
197 1 -6.111 3.528 10.820 
198 1 0.661 0.818 12.559 
199 1 8.442 -1.911 2.000 
200 1 2.083 -10.703 -9.613 
ITEM: TIMESTEP
19000
ITEM: NUMBER OF ATOMS
200
ITEM: BOX BOUNDS pp pp pp
-16.49818434247616 16.49818434247616
-16.49818434247616 16.49818434247616
-16.49818434247616 16.49818434247616
ITEM: ATOMS id type x y z
1 1 7.963 7.060 3.010 
2 1 -0.069 11.438 -0.580 
3 1 2.554 2.985 -12.384 
4 1 -1.333 11.082 7.190 
5 1 -10.503 -3.052 2.801 
6 1 4.612 15.957 8.059 
7 1 9.352 -4.878 8.588 
8 1 6.413 9.456 15.647 
9 1 4.079 10.708 0.301 
10 1 -8.056 12.867 -5.729 
11 1 -3.059 -13.540 4.236 
12 1 15.245 -15.707 8.676 
13 1 -9.641 -7.952 -0.393 
14 1 -16.323 -9.847 9.735 
15 1 2.502 5.697 -14.066 
16 1 0.104 10.481 -9.176 
17 1 -7.192 -15.921 -1.166 
18 1 -1.494 -16.141 -5.721 
19 1 -9.505 3.780 9.629 
20 1 -3.314 -0.649 -1.118 
21 1 -1.584 -6.493 -14.488 
22 1 -1.658 -13.472 -10.409 
23 1 14.384 8.119 -11.188 
24 1 15.975 11.326 -10.881 
25 1 -10.556 14.130 -14.616 
26 1 7.600 -12.385 -11.116 
27 1 -14.812 1.732 5.960 
28 1 -12.508 13.131 -8.586 
29 1 -0.977 6.775 -8.555 
30 1 -11.828 -3.091 12.051 
31 1 -10.341 1.448 -1.117 
32 1 3.450 14.555 3.548 
33 1 -1.605 1.825 -10.978 
34 1 -13.826 7.629 12.988 
35 1 -0.241 -12.300 8.848 
36 1 16.093 4.827 -14.070 
37 1 6.692 -1.603 -14.570 
38 1 -1.171 -9.861 1.809 
39 1 -10.505 7.269 11.691 
40 1 0.307 4.558 13.815 
41 1 -5.001 -7.992 -2.010 
42 1 -14.975 16.370 -3.742 
43 1 -14.277 -1.557 4.552 
44 1 2.490 0.113 -5.688 
45 1 9.623 -13.883 -6.758 
46 1 -12.349 12.467 11.199 
47 1 -10.254 -6.291 9.853 
48 1 1.444 -14.826 1.951 
49 1 5.437 0.515 13.365 
50 1 3.049 8.209 -11.057 
51 1 -0.459 14.306 5.010 
52 1 3.430 5.613 9.420 
53 1 9.585 -6.513 -11.044 
54 1 12.968 -16.282 -4.675 
55 1 2.381 -8.181 -14.805 
56 1 -4.013 -0.354 -13.033 
57 1 8.200 10.572 4.638 
58 1 11.621 -1.912 -16.179 
59 1 3.568 -10.507 15.198 
60 1 0.631 -0.203 -1.283 
61 1 11.295 15.410 6.723 
62 1 -11.778 -2.016 -8.802 
63 1 8.015 -15.534 4.800 
64 1 -11.179 -13.292 6.879 
65 1 -6.030 8.673 10.769 
66 1 -6.156 11.343 -1.714 
67 1 16.452 4.884 8.808 
68 1 11.482 4.577 -6.792 
69 1 2.724 -5.664 15.479 
70 1 -6.096 8.439 6.923 
71 1 -13.254 0.342 0.436 
72 1 12.236 -9.600 -0.954 
73 1 -10.383 -15.543 1.201 
74 1 -15.134 2.290 14.657 
75 1 -0.882 -13.975 -0.414 
76 1 6.368 -15.428 13.962 
77 1 -4.623 -7.512 9.091 
78 1 3.559 -6.056 -9.601 
79 1 11.532 -11.953 -12.788 
80 1 -13.138 -4.910 6.937 
81 1 0.598 -2.787 -12.299 
82 1 -4.318 16.420 6.813 
83 1 2.398 -9.356 0.746 
84 1 -11.709 0.500 14.347 
85 1 -15.078 11.630 15.145 
86 1 -2.940 -11.063 -4.844 
87 1 -5.404 4.266 -12.891 
88 1 0.416 4.111 -5.780 
89 1 2.161 -3.254 -7.701 
90 1 1.754 7.636 -4.138 
91 1 -13.814 -13.025 2.082 
92 1 0.938 -13.161 5.377 
93 1 -12.287 1.409 -9.292 
94 1 14.866 8.408 -15.717 
95 1 -1.307 15.831 -2.722 
96 1 -13.543 9.441 -3.839 
97 1 -3.150 6.812 7.117 
98 1 -12.638 5.515 -5.265 
99 1 -3.905 14.740 -0.423 
100 1 7.320 -0.742 -7.740 
101 1 1.101 10.789 9.369 
102 1 -5.317 -9.078 4.386 
103 1 -11.231 -9.770 -12.378 
104 1 -8.304 9.492 -7.848 
105 1 -2.538 14.951 12.862 
106 1 5.549 -8.324 -16.067 
107 1 1.888 -2.401 1.275 
108 1 12.976 12.436 15.450 
109 1 -4.874 13.257 3.548 
110 1 -3.449 6.084 11.574 
111 1 -1.898 -6.213 10.872 
112 1 7.504 11.557 8.105 
113 1 -14.427 7.464 -12.355 
114 1 2.749 7.771 13.272 
115 1 -5.951 -12.456 -10.112 
116 1 1.879 -6.448 2.007 
117 1 11.619 -5.663 1.482 
118 1 -5.993 -4.160 -1.448 
119 1 12.078 -15.912 -10.599 
120 1 -7.950 -4.954 6.509 
121 1 10.098 4.075 -15.750 
122 1 -8.706 4.598 -10.266 
123 1 -2.463 10.175 3.851 
124 1 0.872 1.368 4.450 
125 1 8.096 -4.308 -6.446 
126 1 -11.764 -7.499 4.378 
127 1 -4.665 1.662 7.667 
128 1 -14.942 11.330 -6.517 
129 1 -4.264 12.926 15.932 
130 1 8.965 -9.259 -12.951 
131 1 -3.868 -5.297 1.323 
132 1 -9.220 14.239 5.861 
133 1 8.565 -9.405 -8.931 
134 1 -16.064 -13.950 -16.090 
135 1 11.070 -1.676 11.001 
136 1 -8.180 3.062 15.545 
137 1 -3.133 4.028 5.037 
138 1 -5.668 9.307 -4.745 
139 1 -4.470 -9.482 -12.643 
140 1 0.452 14.662 10.415 
141 1 -1.377 -1.023 -8.800 
142 1 -9.260 -0.427 7.543 
143 1 -0.460 -12.688 -6.553 
144 1 -3.570 11.737 11.209 
145 1 -11.847 14.494 8.047 
146 1 -7.036 -7.860 -5.138 
147 1 -13.402 -0.165 -4.323 
148 1 -0.300 7.382 9.043 
149 1 -6.506 -3.087 -12.682 
150 1 -3.873 -13.735 9.076 
151 1 6.015 4.354 -2.122 
152 1 -13.378 13.788 4.161 
153 1 4.335 1.258 8.429 
154 1 -3.145 -14.745 -16.220 
155 1 -5.217 9.112 15.431 
156 1 -1.787 6.404 -3.586 
157 1 11.059 9.384 15.037 
158 1 -2.353 1.959 10.603 
159 1 -12.432 8.150 -8.643 
160 1 -7.077 -4.339 10.446 
161 1 -11.511 -14.376 -16.287 
162 1 3.557 16.428 11.218 
163 1 0.442 -7.168 -8.604 
164 1 3.433 11.730 -16.178 
165 1 -4.540 14.955 -8.533 
166 1 -3.048 -5.768 -11.251 
167 1 -7.321 8.136 3.596 
168 1 2.601 7.162 0.432 
169 1 -9.301 3.311 2.724 
170 1 -9.965 8.591 0.861 
171 1 1.597 -4.423 -2.828 
172 1 3.347 8.941 8.051 
173 1 -3.473 8.835 -1.101 
174 1 -16.494 -6.097 -15.120 
175 1 10.493 -6.108 12.481 
176 1 3.955 2.895 16.382 
177 1 10.122 13.488 -10.694 
178 1 3.521 1.447 0.763 
179 1 -9.893 15.136 12.189 
180 1 -1.464 -3.977 -5.945 
181 1 16.037 -12.165 11.605 
182 1 -8.355 -5.995 3.176 
183 1 11.264 4.025 1.373 
184 1 -4.526 9.521 -13.259 
185 1 12.555 -1.011 1.126 
186 1 -6.215 13.624 -12.110 
187 1 -1.882 14.347 -14.608 
188 1 5.414 7.562 5.393 
189 1 15.681 15.331 11.782 
190 1 3.723 -10.398 4.546 
191 1 -7.079 -15.959 2.355 
192 1 -5.404 -2.724 16.144 
193 1 -5.942 -16.353 -13.729 
194 1 3.537 13.068 -7.902 
195 1 -13.341 5.837 9.650 
196 1 -7.552 14.083 15.864 
197 1 -6.288 3.092 11.121 
198 1 0.912 1.191 12.186 
199 1 7.983 -2.853 2.573 
200 1 1.865 -10.214 -9.409 
ITEM: TIMESTEP
20000
ITEM: NUMBER OF ATOMS
200
ITEM: BOX BOUNDS pp pp pp
-16.49818434247616 16.49818434247616
-16.49818434247616 16.49818434247616
-16.49818434247616 16.49818434247616
ITEM: ATOMS id type x y z
1 1 8.062 6.727 3.477 
2 1 -0.207 11.560 -0.197 
3 1 2.602 2.556 -10.981 
4 1 -1.446 10.085 7.192 
5 1 -10.677 -2.349 2.862 
6 1 3.543 16.022 6.027 
7 1 8.161 -4.738 8.610 
8 1 5.507 7.605 15.623 
9 1 3.390 10.655 0.823 
10 1 -7.307 12.970 -6.233 
11 1 -2.293 -14.550 4.549 
12 1 14.767 -15.574 9.117 
13 1 -8.814 -7.747 -0.925 
14 1 16.430 -10.298 9.674 
15 1 1.533 5.277 -14.130 
16 1 0.506 10.678 -7.693 
17 1 -7.646 16.442 -0.914 
18 1 -2.255 -15.724 -5.469 
19 1 -9.742 3.031 9.840 
20 1 -3.404 -0.267 -1.171 
21 1 -2.147 -5.382 -14.344 
22 1 -1.201 -13.173 -9.853 
23 1 15.107 7.528 -10.667 
24 1 -16.415 11.280 -10.600 
25 1 -10.009 13.668 -15.107 
26 1 7.285 -11.704 -11.259 
27 1 -14.638 2.352 6.723 
28 1 -12.801 12.534 -9.220 
29 1 -1.189 7.221 -7.474 
30 1 -12.256 -3.734 13.292 
31 1 -8.985 1.096 -0.576 
32 1 2.950 15.003 2.779 
33 1 -1.165 2.390 -11.198 
34 1 -13.893 7.588 14.929 
35 1 -0.475 -12.915 9.989 
36 1 16.482 4.352 -13.031 
37 1 6.693 -2.012 -14.500 
38 1 -1.604 -9.252 0.482 
39 1 -9.820 7.594 11.766 
40 1 1.501 4.140 13.371 
41 1 -4.784 -9.665 -0.975 
42 1 -14.650 16.132 -3.019 
43 1 -14.264 -0.597 4.487 
44 1 3.507 -0.291 -4.652 
45 1 10.848 -13.627 -7.242 
46 1 -12.732 13.367 11.145 
47 1 -10.189 -5.937 9.090 
48 1 1.422 -14.606 2.362 
49 1 4.270 -0.146 13.634 
50 1 2.694 9.431 -12.831 
51 1 -1.620 14.016 4.180 
52 1 3.407 4.918 9.577 
53 1 9.568 -6.814 -10.624 
54 1 11.891 -16.097 -4.277 
55 1 2.243 -8.788 -15.041 
56 1 -3.997 0.233 -12.902 
57 1 10.203 10.712 3.826 
58 1 11.767 -2.277 16.179 
59 1 4.248 -11.330 15.119 
60 1 0.866 -0.518 -1.374 
61 1 11.728 16.403 6.454 
62 1 -11.417 -3.097 -10.412 
63 1 7.936 16.327 5.518 
64 1 -10.441 -13.165 7.710 
65 1 -6.317 9.217 11.450 
66 1 -5.735 11.722 -1.944 
67 1 15.463 6.111 9.384 
68 1 12.080 4.668 -6.413 
69 1 2.249 -5.735 15.010 
70 1 -6.292 8.738 7.107 
71 1 -12.130 1.646 1.849 
72 1 12.363 -9.929 -1.511 
73 1 -10.268 -15.417 1.274 
74 1 -15.167 2.335 14.303 
75 1 -1.155 -13.657 -0.678 
76 1 5.811 -14.678 14.039 
77 1 -5.189 -8.459 9.320 
78 1 4.298 -4.738 -9.874 
79 1 10.338 -13.205 -11.855 
80 1 -13.090 -5.084 5.867 
81 1 0.881 -2.892 -12.527 
82 1 -4.773 15.699 6.875 
83 1 2.198 -8.842 -1.000 
84 1 -10.985 0.370 14.857 
85 1 -14.875 11.240 14.230 
86 1 -3.031 -10.773 -5.040 
87 1 -5.585 5.751 -13.437 
88 1 1.207 4.510 -6.824 
89 1 1.858 -3.057 -7.705 
90 1 1.353 6.610 -3.875 
91 1 -12.835 -12.609 1.529 
92 1 0.542 -12.216 5.108 
93 1 -12.621 1.566 -8.629 
94 1 15.478 9.928 -15.517 
95 1 -0.696 15.583 -2.667 
96 1 -12.981 9.124 -4.417 
97 1 -2.971 6.697 7.093 
98 1 -12.885 5.137 -4.968 
99 1 -3.846 14.208 -0.211 
100 1 6.917 -1.058 -7.273 
101 1 0.795 10.842 9.544 
102 1 -4.181 -9.109 3.408 
103 1 -10.842 -9.897 -11.917 
104 1 -9.063 9.170 -7.333 
105 1 -2.778 14.672 12.492 
106 1 5.330 -7.558 16.032 
107 1 2.308 -1.427 2.576 
108 1 12.491 11.940 14.715 
109 1 -4.840 13.434 3.606 
110 1 -4.023 6.373 10.703 
111 1 -2.126 -6.649 11.871 
112 1 6.417 12.309 7.421 
113 1 -15.279 8.336 -12.706 
114 1 2.655 8.351 12.715 
115 1 -7.059 -13.415 -10.003 
116 1 2.132 -5.912 1.778 
117 1 11.796 -5.325 1.453 
118 1 -6.100 -3.798 -1.140 
119 1 12.144 -16.345 -9.686 
120 1 -7.369 -4.524 7.041 
121 1 9.890 3.461 16.015 
122 1 -7.311 4.356 -10.731 
123 1 -4.018 10.425 4.396 
124 1 -0.781 0.507 3.856 
125 1 8.233 -4.747 -6.333 
126 1 -10.604 -7.961 4.597 
127 1 -5.051 2.390 7.834 
128 1 -14.906 12.030 -5.206 
129 1 -4.101 11.705 16.436 
130 1 7.743 -9.260 -13.163 
131 1 -2.575 -5.673 1.243 
132 1 -8.963 13.763 5.189 
133 1 7.980 -10.054 -8.093 
134 1 -16.055 -14.379 -16.483 
135 1 10.758 -2.593 11.233 
136 1 -8.063 2.425 15.405 
137 1 -3.792 4.275 4.565 
138 1 -5.995 8.796 -4.659 
139 1 -4.810 -10.023 -12.218 
140 1 0.171 15.155 10.129 
141 1 -0.476 -1.185 -9.336 
142 1 -9.686 0.182 6.937 
143 1 -0.202 -12.271 -6.753 
144 1 -3.304 10.962 12.487 
145 1 -11.536 15.421 8.603 
146 1 -7.145 -7.310 -4.836 
147 1 -13.111 -0.774 -3.087 
148 1 0.535 7.498 9.501 
149 1 -6.510 -3.886 -13.710 
150 1 -5.220 -14.156 8.759 
151 1 5.082 3.740 -1.796 
152 1 -12.958 13.804 5.213 
153 1 3.690 -0.192 8.610 
154 1 -3.091 -14.307 16.319 
155 1 -5.390 8.440 15.433 
156 1 -2.028 6.559 -4.189 
157 1 10.363 9.057 15.581 
158 1 -2.232 3.197 10.789 
159 1 -12.344 7.956 -9.095 
160 1 -6.443 -5.399 10.455 
161 1 -10.727 -14.121 -14.674 
162 1 3.683 -16.394 11.537 
163 1 1.066 -7.394 -9.120 
164 1 1.857 12.782 -15.607 
165 1 -4.142 14.992 -9.171 
166 1 -4.127 -6.130 -11.076 
167 1 -6.793 7.619 2.458 
168 1 2.752 7.111 -0.385 
169 1 -8.572 4.376 1.962 
170 1 -9.377 9.714 -0.368 
171 1 2.395 -3.935 -3.640 
172 1 3.452 8.651 8.739 
173 1 -3.312 9.196 -1.588 
174 1 -16.329 -5.382 -14.597 
175 1 10.694 -5.647 12.361 
176 1 4.272 3.741 -16.076 
177 1 11.129 13.169 -11.150 
178 1 3.696 1.419 0.791 
179 1 -9.528 14.470 11.953 
180 1 -0.770 -5.386 -5.253 
181 1 15.355 -12.038 12.224 
182 1 -8.142 -6.431 2.647 
183 1 10.630 4.954 1.614 
184 1 -4.379 10.105 -11.843 
185 1 12.691 -1.476 1.048 
186 1 -6.712 12.417 -12.463 
187 1 -2.351 14.461 -15.560 
188 1 5.959 7.263 6.153 
189 1 15.755 14.811 12.194 
190 1 4.406 -10.748 4.622 
191 1 -6.835 -16.262 2.902 
192 1 -4.817 -2.077 15.921 
193 1 -6.695 -15.415 -12.811 
194 1 3.769 13.866 -8.380 
195 1 -13.110 5.928 10.441 
196 1 -7.157 13.318 15.829 
197 1 -5.994 2.833 10.975 
198 1 0.977 0.901 12.428 
199 1 8.086 -2.943 2.927 
200 1 1.489 -10.835 -9.950 
