ITEM: TIMESTEP
0
ITEM: NUMBER OF ATOMS
50
ITEM: BOX BOUNDS pp pp pp
-10.0 10.0
-10.0 10.0
-10.0 10.0
ITEM: ATOMS id type x y z
1 1 0.900 -9.652 -2.547 
2 1 1.670 5.392 8.572 
3 1 7.042 3.248 6.827 
4 1 2.716 -5.830 -5.772 
5 1 5.123 -0.647 6.174 
6 1 -3.458 -3.579 -0.898 
7 1 1.871 0.218 6.900 
8 1 9.205 -4.629 -3.784 
9 1 -4.423 -5.081 -2.208 
10 1 3.515 3.021 -2.695 
11 1 7.864 6.776 -9.996 
12 1 -4.052 8.680 -5.036 
13 1 -3.941 -2.291 2.382 
14 1 -1.341 3.922 -3.693 
15 1 4.348 3.862 8.322 
16 1 -2.478 2.256 -8.523 
17 1 -8.838 -2.426 0.203 
18 1 -5.001 -0.737 9.317 
19 1 -4.531 -5.694 6.243 
20 1 3.482 8.026 1.238 
21 1 7.520 1.854 0.887 
22 1 -4.838 -1.370 -4.984 
23 1 1.582 -2.693 -6.374 
24 1 5.724 -9.620 -3.775 
25 1 -7.499 -9.957 6.827 
26 1 1.363 1.262 -1.568 
27 1 3.253 3.203 -5.529 
28 1 -6.814 5.537 -9.606 
29 1 8.488 1.125 4.081 
30 1 6.745 1.880 1.886 
31 1 -0.981 3.186 -3.657 
32 1 0.517 1.452 3.074 
33 1 -5.674 3.609 6.516 
34 1 8.024 -5.829 3.927 
35 1 5.020 7.422 5.116 
36 1 7.485 9.627 8.813 
37 1 5.530 2.773 3.413 
38 1 -5.046 6.262 -5.790 
39 1 -1.499 -4.994 2.401 
40 1 0.930 -8.896 5.575 
41 1 0.590 -1.026 9.731 
42 1 0.779 -9.515 2.792 
43 1 -7.364 6.381 1.482 
44 1 -0.763 9.401 -8.922 
45 1 5.106 4.750 7.369 
46 1 6.346 7.830 -8.735 
47 1 -3.993 -1.274 -1.694 
48 1 8.254 4.194 0.732 
49 1 -1.409 -2.024 6.310 
50 1 -5.380 9.389 0.598 
ITEM: TIMESTEP
10
ITEM: NUMBER OF ATOMS
49
ITEM: BOX BOUNDS pp pp pp
-10.0 10.0
-10.0 10.0
-10.0 10.0
ITEM: ATOMS id type x y z
1 1 1.472 6.125 -0.411 
2 1 -8.968 -5.343 1.823 
3 1 1.606 -5.910 -1.955 
4 1 0.900 -9.652 -2.547 
5 1 1.670 5.392 8.572 
6 1 7.042 3.248 6.827 
7 1 2.716 -5.830 -5.772 
8 1 -3.458 -3.579 -0.898 
9 1 1.871 0.218 6.900 
10 1 9.205 -4.629 -3.784 
11 1 -4.423 -5.081 -2.208 
12 1 3.515 3.021 -2.695 
13 1 7.864 6.776 -9.996 
14 1 -4.052 8.680 -5.036 
15 1 -3.941 -2.291 2.382 
16 1 -1.341 3.922 -3.693 
17 1 4.348 3.862 8.322 
18 1 -2.478 2.256 -8.523 
19 1 -8.838 -2.426 0.203 
20 1 -5.001 -0.737 9.317 
21 1 -4.531 -5.694 6.243 
22 1 7.520 1.854 0.887 
23 1 -4.838 -1.370 -4.984 
24 1 1.582 -2.693 -6.374 
25 1 5.724 -9.620 -3.775 
26 1 -7.499 -9.957 6.827 
27 1 1.363 1.262 -1.568 
28 1 3.253 3.203 -5.529 
29 1 -6.814 5.537 -9.606 
30 1 8.488 1.125 4.081 
31 1 6.745 1.880 1.886 
32 1 -0.981 3.186 -3.657 
33 1 0.517 1.452 3.074 
34 1 -5.674 3.609 6.516 
35 1 8.024 -5.829 3.927 
36 1 5.020 7.422 5.116 
37 1 7.485 9.627 8.813 
38 1 5.530 2.773 3.413 
39 1 -5.046 6.262 -5.790 
40 1 0.930 -8.896 5.575 
41 1 0.590 -1.026 9.731 
42 1 0.779 -9.515 2.792 
43 1 -7.364 6.381 1.482 
44 1 -0.763 9.401 -8.922 
45 1 5.106 4.750 7.369 
46 1 6.346 7.830 -8.735 
47 1 -3.993 -1.274 -1.694 
48 1 -1.409 -2.024 6.310 
49 1 -5.380 9.389 0.598 
ITEM: TIMESTEP
20
ITEM: NUMBER OF ATOMS
46
ITEM: BOX BOUNDS pp pp pp
-10.0 10.0
-10.0 10.0
-10.0 10.0
ITEM: ATOMS id type x y z
1 1 -5.767 6.578 -3.680 
2 1 -2.257 -0.816 -0.318 
3 1 -4.798 -7.950 -0.837 
4 1 1.472 6.125 -0.411 
5 1 -8.968 -5.343 1.823 
6 1 1.606 -5.910 -1.955 
7 1 0.900 -9.652 -2.547 
8 1 1.670 5.392 8.572 
9 1 7.042 3.248 6.827 
10 1 2.716 -5.830 -5.772 
11 1 1.871 0.218 6.900 
12 1 9.205 -4.629 -3.784 
13 1 -4.423 -5.081 -2.208 
14 1 3.515 3.021 -2.695 
15 1 7.864 6.776 -9.996 
16 1 -4.052 8.680 -5.036 
17 1 -3.941 -2.291 2.382 
18 1 -1.341 3.922 -3.693 
19 1 4.348 3.862 8.322 
20 1 -2.478 2.256 -8.523 
21 1 -8.838 -2.426 0.203 
22 1 -5.001 -0.737 9.317 
23 1 -4.531 -5.694 6.243 
24 1 7.520 1.854 0.887 
25 1 -4.838 -1.370 -4.984 
26 1 1.582 -2.693 -6.374 
27 1 5.724 -9.620 -3.775 
28 1 -7.499 -9.957 6.827 
29 1 1.363 1.262 -1.568 
30 1 3.253 3.203 -5.529 
31 1 -6.814 5.537 -9.606 
32 1 6.745 1.880 1.886 
33 1 0.517 1.452 3.074 
34 1 -5.674 3.609 6.516 
35 1 8.024 -5.829 3.927 
36 1 5.020 7.422 5.116 
37 1 7.485 9.627 8.813 
38 1 5.530 2.773 3.413 
39 1 -5.046 6.262 -5.790 
40 1 0.930 -8.896 5.575 
41 1 0.779 -9.515 2.792 
42 1 -0.763 9.401 -8.922 
43 1 5.106 4.750 7.369 
44 1 6.346 7.830 -8.735 
45 1 -3.993 -1.274 -1.694 
46 1 -1.409 -2.024 6.310 
ITEM: TIMESTEP
30
ITEM: NUMBER OF ATOMS
48
ITEM: BOX BOUNDS pp pp pp
-10.0 10.0
-10.0 10.0
-10.0 10.0
ITEM: ATOMS id type x y z
1 1 0.933 6.085 9.208 
2 1 0.631 6.628 2.914 
3 1 6.848 -1.630 -8.755 
4 1 -9.786 1.696 -0.758 
5 1 -6.003 -2.660 -6.764 
6 1 -6.117 1.116 6.556 
7 1 -5.767 6.578 -3.680 
8 1 -2.257 -0.816 -0.318 
9 1 -4.798 -7.950 -0.837 
10 1 1.472 6.125 -0.411 
11 1 -8.968 -5.343 1.823 
12 1 1.606 -5.910 -1.955 
13 1 0.900 -9.652 -2.547 
14 1 1.670 5.392 8.572 
15 1 7.042 3.248 6.827 
16 1 2.716 -5.830 -5.772 
17 1 1.871 0.218 6.900 
18 1 9.205 -4.629 -3.784 
19 1 -4.423 -5.081 -2.208 
20 1 7.864 6.776 -9.996 
21 1 -4.052 8.680 -5.036 
22 1 -3.941 -2.291 2.382 
23 1 -1.341 3.922 -3.693 
24 1 -2.478 2.256 -8.523 
25 1 -8.838 -2.426 0.203 
26 1 -5.001 -0.737 9.317 
27 1 -4.531 -5.694 6.243 
28 1 7.520 1.854 0.887 
29 1 -4.838 -1.370 -4.984 
30 1 1.582 -2.693 -6.374 
31 1 5.724 -9.620 -3.775 
32 1 -7.499 -9.957 6.827 
33 1 3.253 3.203 -5.529 
34 1 -6.814 5.537 -9.606 
35 1 6.745 1.880 1.886 
36 1 0.517 1.452 3.074 
37 1 -5.674 3.609 6.516 
38 1 8.024 -5.829 3.927 
39 1 5.020 7.422 5.116 
40 1 7.485 9.627 8.813 
41 1 5.530 2.773 3.413 
42 1 -5.046 6.262 -5.790 
43 1 0.930 -8.896 5.575 
44 1 0.779 -9.515 2.792 
45 1 -0.763 9.401 -8.922 
46 1 5.106 4.750 7.369 
47 1 6.346 7.830 -8.735 
48 1 -3.993 -1.274 -1.694 
ITEM: TIMESTEP
40
ITEM: NUMBER OF ATOMS
50
ITEM: BOX BOUNDS pp pp pp
-10.0 10.0
-10.0 10.0
-10.0 10.0
ITEM: ATOMS id type x y z
1 1 -2.105 2.458 -9.701 
2 1 3.978 4.418 1.013 
3 1 -3.894 -9.266 -8.287 
4 1 -2.235 -6.003 4.742 
5 1 -2.509 3.533 0.841 
6 1 -2.100 7.650 -1.961 
7 1 0.933 6.085 9.208 
8 1 6.848 -1.630 -8.755 
9 1 -9.786 1.696 -0.758 
10 1 -6.003 -2.660 -6.764 
11 1 -6.117 1.116 6.556 
12 1 -5.767 6.578 -3.680 
13 1 -2.257 -0.816 -0.318 
14 1 -4.798 -7.950 -0.837 
15 1 1.472 6.125 -0.411 
16 1 -8.968 -5.343 1.823 
17 1 1.606 -5.910 -1.955 
18 1 0.900 -9.652 -2.547 
19 1 1.670 5.392 8.572 
20 1 7.042 3.248 6.827 
21 1 2.716 -5.830 -5.772 
22 1 1.871 0.218 6.900 
23 1 9.205 -4.629 -3.784 
24 1 -4.423 -5.081 -2.208 
25 1 7.864 6.776 -9.996 
26 1 -4.052 8.680 -5.036 
27 1 -3.941 -2.291 2.382 
28 1 -1.341 3.922 -3.693 
29 1 -8.838 -2.426 0.203 
30 1 -5.001 -0.737 9.317 
31 1 -4.531 -5.694 6.243 
32 1 7.520 1.854 0.887 
33 1 -4.838 -1.370 -4.984 
34 1 1.582 -2.693 -6.374 
35 1 5.724 -9.620 -3.775 
36 1 3.253 3.203 -5.529 
37 1 -6.814 5.537 -9.606 
38 1 6.745 1.880 1.886 
39 1 0.517 1.452 3.074 
40 1 -5.674 3.609 6.516 
41 1 8.024 -5.829 3.927 
42 1 5.020 7.422 5.116 
43 1 7.485 9.627 8.813 
44 1 5.530 2.773 3.413 
45 1 -5.046 6.262 -5.790 
46 1 0.930 -8.896 5.575 
47 1 0.779 -9.515 2.792 
48 1 -0.763 9.401 -8.922 
49 1 5.106 4.750 7.369 
50 1 -3.993 -1.274 -1.694 
ITEM: TIMESTEP
50
ITEM: NUMBER OF ATOMS
48
ITEM: BOX BOUNDS pp pp pp
-10.0 10.0
-10.0 10.0
-10.0 10.0
ITEM: ATOMS id type x y z
1 1 -5.795 -9.694 1.275 
2 1 -4.877 2.119 -5.451 
3 1 7.032 9.611 2.944 
4 1 2.383 -5.472 -7.798 
5 1 -2.105 2.458 -9.701 
6 1 3.978 4.418 1.013 
7 1 -3.894 -9.266 -8.287 
8 1 -2.235 -6.003 4.742 
9 1 -2.509 3.533 0.841 
10 1 -2.100 7.650 -1.961 
11 1 0.933 6.085 9.208 
12 1 6.848 -1.630 -8.755 
13 1 -9.786 1.696 -0.758 
14 1 -6.003 -2.660 -6.764 
15 1 1.472 6.125 -0.411 
16 1 -8.968 -5.343 1.823 
17 1 1.606 -5.910 -1.955 
18 1 0.900 -9.652 -2.547 
19 1 1.670 5.392 8.572 
20 1 7.042 3.248 6.827 
21 1 2.716 -5.830 -5.772 
22 1 1.871 0.218 6.900 
23 1 -4.423 -5.081 -2.208 
24 1 7.864 6.776 -9.996 
25 1 -4.052 8.680 -5.036 
26 1 -3.941 -2.291 2.382 
27 1 -1.341 3.922 -3.693 
28 1 -8.838 -2.426 0.203 
29 1 -5.001 -0.737 9.317 
30 1 -4.531 -5.694 6.243 
31 1 7.520 1.854 0.887 
32 1 -4.838 -1.370 -4.984 
33 1 1.582 -2.693 -6.374 
34 1 5.724 -9.620 -3.775 
35 1 3.253 3.203 -5.529 
36 1 -6.814 5.537 -9.606 
37 1 6.745 1.880 1.886 
38 1 0.517 1.452 3.074 
39 1 -5.674 3.609 6.516 
40 1 8.024 -5.829 3.927 
41 1 5.020 7.422 5.116 
42 1 5.530 2.773 3.413 
43 1 -5.046 6.262 -5.790 
44 1 0.930 -8.896 5.575 
45 1 0.779 -9.515 2.792 
46 1 -0.763 9.401 -8.922 
47 1 5.106 4.750 7.369 
48 1 -3.993 -1.274 -1.694 
ITEM: TIMESTEP
60
ITEM: NUMBER OF ATOMS
42
ITEM: BOX BOUNDS pp pp pp
-10.0 10.0
-10.0 10.0
-10.0 10.0
ITEM: ATOMS id type x y z
1 1 -1.599 -4.728 9.195 
2 1 -8.377 1.066 4.977 
3 1 -4.877 2.119 -5.451 
4 1 2.383 -5.472 -7.798 
5 1 -2.105 2.458 -9.701 
6 1 3.978 4.418 1.013 
7 1 -3.894 -9.266 -8.287 
8 1 -2.235 -6.003 4.742 
9 1 -2.100 7.650 -1.961 
10 1 6.848 -1.630 -8.755 
11 1 -9.786 1.696 -0.758 
12 1 -6.003 -2.660 -6.764 
13 1 1.472 6.125 -0.411 
14 1 -8.968 -5.343 1.823 
15 1 1.606 -5.910 -1.955 
16 1 0.900 -9.652 -2.547 
17 1 1.670 5.392 8.572 
18 1 7.042 3.248 6.827 
19 1 1.871 0.218 6.900 
20 1 -4.423 -5.081 -2.208 
21 1 -4.052 8.680 -5.036 
22 1 -3.941 -2.291 2.382 
23 1 -1.341 3.922 -3.693 
24 1 -8.838 -2.426 0.203 
25 1 -5.001 -0.737 9.317 
26 1 -4.531 -5.694 6.243 
27 1 7.520 1.854 0.887 
28 1 -4.838 -1.370 -4.984 
29 1 1.582 -2.693 -6.374 
30 1 5.724 -9.620 -3.775 
31 1 3.253 3.203 -5.529 
32 1 6.745 1.880 1.886 
33 1 0.517 1.452 3.074 
34 1 -5.674 3.609 6.516 
35 1 8.024 -5.829 3.927 
36 1 5.020 7.422 5.116 
37 1 5.530 2.773 3.413 
38 1 -5.046 6.262 -5.790 
39 1 0.930 -8.896 5.575 
40 1 0.779 -9.515 2.792 
41 1 -0.763 9.401 -8.922 
42 1 5.106 4.750 7.369 
ITEM: TIMESTEP
70
ITEM: NUMBER OF ATOMS
38
ITEM: BOX BOUNDS pp pp pp
-10.0 10.0
-10.0 10.0
-10.0 10.0
ITEM: ATOMS id type x y z
1 1 -5.698 -8.845 -6.434 
2 1 4.675 -6.075 -1.868 
3 1 -1.656 8.377 -8.192 
4 1 -1.599 -4.728 9.195 
5 1 -8.377 1.066 4.977 
6 1 2.383 -5.472 -7.798 
7 1 -2.105 2.458 -9.701 
8 1 3.978 4.418 1.013 
9 1 -3.894 -9.266 -8.287 
10 1 -2.100 7.650 -1.961 
11 1 6.848 -1.630 -8.755 
12 1 -9.786 1.696 -0.758 
13 1 1.472 6.125 -0.411 
14 1 -8.968 -5.343 1.823 
15 1 1.606 -5.910 -1.955 
16 1 0.900 -9.652 -2.547 
17 1 1.670 5.392 8.572 
18 1 7.042 3.248 6.827 
19 1 1.871 0.218 6.900 
20 1 -4.423 -5.081 -2.208 
21 1 -4.052 8.680 -5.036 
22 1 -3.941 -2.291 2.382 
23 1 -1.341 3.922 -3.693 
24 1 -8.838 -2.426 0.203 
25 1 -4.531 -5.694 6.243 
26 1 -4.838 -1.370 -4.984 
27 1 1.582 -2.693 -6.374 
28 1 5.724 -9.620 -3.775 
29 1 3.253 3.203 -5.529 
30 1 6.745 1.880 1.886 
31 1 0.517 1.452 3.074 
32 1 -5.674 3.609 6.516 
33 1 5.020 7.422 5.116 
34 1 5.530 2.773 3.413 
35 1 -5.046 6.262 -5.790 
36 1 0.930 -8.896 5.575 
37 1 0.779 -9.515 2.792 
38 1 5.106 4.750 7.369 
ITEM: TIMESTEP
80
ITEM: NUMBER OF ATOMS
38
ITEM: BOX BOUNDS pp pp pp
-10.0 10.0
-10.0 10.0
-10.0 10.0
ITEM: ATOMS id type x y z
1 1 -2.638 -1.717 -2.200 
2 1 7.756 -9.971 5.581 
3 1 -8.384 1.700 -7.326 
4 1 -7.549 -7.976 -8.888 
5 1 -3.659 0.580 4.294 
6 1 -5.698 -8.845 -6.434 
7 1 4.675 -6.075 -1.868 
8 1 -1.656 8.377 -8.192 
9 1 -1.599 -4.728 9.195 
10 1 -8.377 1.066 4.977 
11 1 2.383 -5.472 -7.798 
12 1 -2.105 2.458 -9.701 
13 1 3.978 4.418 1.013 
14 1 -3.894 -9.266 -8.287 
15 1 -2.100 7.650 -1.961 
16 1 6.848 -1.630 -8.755 
17 1 -8.968 -5.343 1.823 
18 1 0.900 -9.652 -2.547 
19 1 1.670 5.392 8.572 
20 1 7.042 3.248 6.827 
21 1 1.871 0.218 6.900 
22 1 -4.423 -5.081 -2.208 
23 1 -3.941 -2.291 2.382 
24 1 -1.341 3.922 -3.693 
25 1 -8.838 -2.426 0.203 
26 1 -4.838 -1.370 -4.984 
27 1 1.582 -2.693 -6.374 
28 1 5.724 -9.620 -3.775 
29 1 3.253 3.203 -5.529 
30 1 6.745 1.880 1.886 
31 1 0.517 1.452 3.074 
32 1 -5.674 3.609 6.516 
33 1 5.020 7.422 5.116 
34 1 5.530 2.773 3.413 
35 1 -5.046 6.262 -5.790 
36 1 0.930 -8.896 5.575 
37 1 0.779 -9.515 2.792 
38 1 5.106 4.750 7.369 
ITEM: TIMESTEP
90
ITEM: NUMBER OF ATOMS
36
ITEM: BOX BOUNDS pp pp pp
-10.0 10.0
-10.0 10.0
-10.0 10.0
ITEM: ATOMS id type x y z
1 1 2.604 -8.347 7.600 
2 1 -8.031 8.943 -0.948 
3 1 3.849 -7.724 -6.094 
4 1 6.672 -8.623 -0.390 
5 1 -2.638 -1.717 -2.200 
6 1 7.756 -9.971 5.581 
7 1 -7.549 -7.976 -8.888 
8 1 -5.698 -8.845 -6.434 
9 1 4.675 -6.075 -1.868 
10 1 -1.656 8.377 -8.192 
11 1 -1.599 -4.728 9.195 
12 1 -8.377 1.066 4.977 
13 1 2.383 -5.472 -7.798 
14 1 -2.105 2.458 -9.701 
15 1 3.978 4.418 1.013 
16 1 -3.894 -9.266 -8.287 
17 1 -2.100 7.650 -1.961 
18 1 6.848 -1.630 -8.755 
19 1 -8.968 -5.343 1.823 
20 1 1.670 5.392 8.572 
21 1 7.042 3.248 6.827 
22 1 1.871 0.218 6.900 
23 1 -4.423 -5.081 -2.208 
24 1 -3.941 -2.291 2.382 
25 1 -1.341 3.922 -3.693 
26 1 -8.838 -2.426 0.203 
27 1 1.582 -2.693 -6.374 
28 1 3.253 3.203 -5.529 
29 1 6.745 1.880 1.886 
30 1 0.517 1.452 3.074 
31 1 -5.674 3.609 6.516 
32 1 5.020 7.422 5.116 
33 1 -5.046 6.262 -5.790 
34 1 0.930 -8.896 5.575 
35 1 0.779 -9.515 2.792 
36 1 5.106 4.750 7.369 
ITEM: TIMESTEP
100
ITEM: NUMBER OF ATOMS
40
ITEM: BOX BOUNDS pp pp pp
-10.0 10.0
-10.0 10.0
-10.0 10.0
ITEM: ATOMS id type x y z
1 1 4.075 9.535 2.155 
2 1 -8.784 -7.607 4.467 
3 1 -1.918 -7.515 6.220 
4 1 7.319 7.551 -3.919 
5 1 7.957 7.816 -4.956 
6 1 4.285 8.097 7.245 
7 1 2.314 0.750 -0.571 
8 1 2.604 -8.347 7.600 
9 1 -8.031 8.943 -0.948 
10 1 3.849 -7.724 -6.094 
11 1 6.672 -8.623 -0.390 
12 1 -2.638 -1.717 -2.200 
13 1 7.756 -9.971 5.581 
14 1 -7.549 -7.976 -8.888 
15 1 -5.698 -8.845 -6.434 
16 1 4.675 -6.075 -1.868 
17 1 -1.656 8.377 -8.192 
18 1 -1.599 -4.728 9.195 
19 1 -8.377 1.066 4.977 
20 1 2.383 -5.472 -7.798 
21 1 -2.105 2.458 -9.701 
22 1 3.978 4.418 1.013 
23 1 -3.894 -9.266 -8.287 
24 1 6.848 -1.630 -8.755 
25 1 -8.968 -5.343 1.823 
26 1 1.670 5.392 8.572 
27 1 7.042 3.248 6.827 
28 1 1.871 0.218 6.900 
29 1 -4.423 -5.081 -2.208 
30 1 -3.941 -2.291 2.382 
31 1 -1.341 3.922 -3.693 
32 1 -8.838 -2.426 0.203 
33 1 3.253 3.203 -5.529 
34 1 0.517 1.452 3.074 
35 1 -5.674 3.609 6.516 
36 1 5.020 7.422 5.116 
37 1 -5.046 6.262 -5.790 
38 1 0.930 -8.896 5.575 
39 1 0.779 -9.515 2.792 
40 1 5.106 4.750 7.369 
