ITEM: TIMESTEP
0
ITEM: NUMBER OF ATOMS
200
ITEM: BOX BOUNDS pp pp pp
-12.74986103408113 12.74986103408113
-12.74986103408113 12.74986103408113
-12.74986103408113 12.74986103408113
ITEM: ATOMS id type x y z
1 1 3.549 3.353 2.621 
2 1 3.843 10.509 1.185 
3 1 2.787 1.506 -9.657 
4 1 -1.889 6.099 6.936 
5 1 -8.843 -2.901 3.304 
6 1 3.129 11.355 7.961 
7 1 3.930 -2.822 4.665 
8 1 1.657 9.686 10.164 
9 1 3.996 11.041 3.448 
10 1 -6.379 6.432 -1.542 
11 1 -0.942 -9.863 4.180 
12 1 9.731 11.090 6.638 
13 1 -6.936 -5.686 -1.783 
14 1 -12.487 -7.593 5.697 
15 1 6.147 1.448 10.142 
16 1 -0.187 12.138 -8.318 
17 1 -2.778 -8.986 1.028 
18 1 -0.072 -9.544 -4.175 
19 1 -5.928 1.731 4.959 
20 1 -1.108 0.941 -3.919 
21 1 0.698 -3.710 -11.588 
22 1 -1.721 -6.987 -7.927 
23 1 8.017 7.986 -8.605 
24 1 11.123 8.628 -6.529 
25 1 -8.568 9.377 9.208 
26 1 5.252 -10.299 -11.465 
27 1 -12.511 1.362 3.463 
28 1 -10.721 9.640 -6.385 
29 1 -0.453 4.566 -4.910 
30 1 -8.425 -3.359 6.021 
31 1 -6.758 1.795 3.621 
32 1 0.394 9.923 5.307 
33 1 0.464 -0.780 -8.299 
34 1 -11.093 6.428 10.172 
35 1 -3.224 -9.900 6.605 
36 1 -9.903 1.909 10.485 
37 1 3.537 -7.176 11.980 
38 1 -2.639 -9.242 3.091 
39 1 -6.989 4.032 6.235 
40 1 0.075 3.733 -10.974 
41 1 -0.960 -6.795 -3.434 
42 1 12.588 -12.502 -8.832 
43 1 -12.583 -2.631 2.001 
44 1 2.148 -1.683 -8.571 
45 1 4.621 -11.958 -3.544 
46 1 -5.555 12.256 6.809 
47 1 -8.582 -7.348 6.913 
48 1 2.340 -12.099 2.528 
49 1 4.798 1.104 9.054 
50 1 4.295 8.130 -9.251 
51 1 -5.371 9.141 4.732 
52 1 2.018 5.723 8.481 
53 1 5.422 -9.874 -8.197 
54 1 9.623 10.844 1.078 
55 1 3.346 -4.043 -10.019 
56 1 -8.656 0.848 11.461 
57 1 5.103 8.128 5.601 
58 1 12.090 -2.073 -7.410 
59 1 4.616 -9.344 -9.599 
60 1 -0.103 2.108 -0.716 
61 1 11.079 9.742 3.321 
62 1 -9.731 -5.098 -9.461 
63 1 5.165 12.047 7.627 
64 1 -7.338 -8.758 2.501 
65 1 -6.443 5.375 7.948 
66 1 -7.991 10.939 -3.284 
67 1 9.818 2.336 4.811 
68 1 10.642 3.856 -5.644 
69 1 1.652 -6.355 -12.640 
70 1 -5.894 8.843 6.087 
71 1 12.553 1.062 3.434 
72 1 8.113 -11.313 1.883 
73 1 -7.454 -12.221 1.282 
74 1 -8.500 0.861 -10.966 
75 1 0.544 -9.113 0.658 
76 1 8.405 11.836 11.356 
77 1 -3.183 -6.932 1.230 
78 1 2.411 -8.268 -9.036 
79 1 4.756 -9.025 -12.471 
80 1 -12.323 -2.140 3.976 
81 1 -1.536 -4.279 -8.127 
82 1 -5.886 11.219 5.525 
83 1 -4.146 -10.216 -2.992 
84 1 -4.987 1.196 7.568 
85 1 -11.970 8.801 -10.863 
86 1 -2.767 -8.244 -5.922 
87 1 -4.418 8.550 -7.342 
88 1 -0.328 3.027 -4.105 
89 1 -2.496 -2.220 -5.123 
90 1 3.638 3.213 -1.722 
91 1 11.318 -9.287 2.269 
92 1 0.062 11.277 5.170 
93 1 -6.993 3.620 -6.982 
94 1 10.500 4.940 -6.378 
95 1 0.838 11.969 4.058 
96 1 -8.083 4.911 -3.647 
97 1 -3.721 4.484 6.485 
98 1 -10.791 2.374 -7.038 
99 1 -4.954 8.841 -2.265 
100 1 2.956 -1.790 -4.542 
101 1 -0.565 10.276 5.409 
102 1 -8.995 -7.226 2.793 
103 1 12.677 -3.734 -7.484 
104 1 -7.991 8.998 -10.497 
105 1 -4.958 -10.324 8.237 
106 1 6.306 -5.212 -9.629 
107 1 -0.571 -1.898 1.073 
108 1 7.190 9.660 -10.811 
109 1 -6.559 7.288 4.075 
110 1 -1.278 4.284 8.729 
111 1 1.208 -3.749 9.014 
112 1 7.953 11.917 8.254 
113 1 -11.084 3.652 -9.882 
114 1 7.356 4.634 7.765 
115 1 -7.667 -8.021 -10.529 
116 1 0.654 -2.559 -0.872 
117 1 8.270 -3.614 3.958 
118 1 -6.663 -3.476 -2.579 
119 1 9.113 -9.414 -9.362 
120 1 -3.356 -1.901 7.410 
121 1 4.343 2.695 -12.253 
122 1 -6.530 8.098 -4.885 
123 1 -4.839 9.355 2.681 
124 1 3.410 2.606 5.282 
125 1 0.670 -2.561 -8.231 
126 1 -8.687 -6.713 7.191 
127 1 -3.990 2.125 7.147 
128 1 11.818 10.617 -3.625 
129 1 0.584 9.817 12.000 
130 1 8.919 -3.294 -9.342 
131 1 -4.104 0.132 3.737 
132 1 -9.232 9.697 5.894 
133 1 6.817 -1.604 -9.002 
134 1 11.106 -12.424 10.747 
135 1 10.570 -4.463 3.996 
136 1 -2.468 -1.649 9.276 
137 1 1.074 5.048 1.211 
138 1 -1.077 11.551 -2.631 
139 1 -4.601 -9.816 -9.961 
140 1 -1.982 12.396 8.508 
141 1 -5.079 0.197 -4.445 
142 1 -8.847 1.161 5.722 
143 1 -4.959 -5.839 -2.462 
144 1 -2.507 12.335 7.795 
145 1 -6.576 7.427 5.386 
146 1 -5.798 -3.737 -7.082 
147 1 -11.111 -4.183 -5.553 
148 1 0.138 6.801 5.965 
149 1 -5.572 -3.014 -10.397 
150 1 -3.606 -9.586 5.378 
151 1 4.895 1.660 -0.357 
152 1 -6.944 2.908 4.815 
153 1 2.450 -2.277 7.209 
154 1 -3.224 -10.445 -12.577 
155 1 -4.348 7.115 11.987 
156 1 -0.860 6.311 -1.135 
157 1 10.447 7.969 -12.083 
158 1 -2.860 -2.359 10.729 
159 1 -11.191 6.724 -9.732 
160 1 -6.901 -3.367 9.778 
161 1 -5.268 -10.782 -12.621 
162 1 4.227 -8.404 4.943 
163 1 -0.558 -5.324 -5.721 
164 1 4.667 10.747 7.893 
165 1 -4.704 8.993 -5.664 
166 1 -4.656 -4.060 -9.976 
167 1 -3.061 3.192 3.608 
168 1 -0.673 6.091 0.155 
169 1 -4.295 -0.256 3.393 
170 1 -6.351 8.273 4.695 
171 1 3.371 1.282 -1.270 
172 1 3.145 9.307 5.555 
173 1 -2.714 6.781 -0.900 
174 1 -12.510 -3.787 -11.174 
175 1 9.085 -3.362 10.338 
176 1 3.943 1.910 11.235 
177 1 9.771 11.600 -8.552 
178 1 2.933 2.452 4.211 
179 1 -5.395 -11.578 6.499 
180 1 -3.412 -5.095 -2.556 
181 1 9.572 -9.924 7.960 
182 1 -6.251 -4.442 3.359 
183 1 4.586 2.506 3.057 
184 1 -2.362 8.012 -7.556 
185 1 10.908 0.208 -0.385 
186 1 -1.320 11.635 -7.132 
187 1 -3.450 -11.386 10.779 
188 1 6.660 5.538 5.687 
189 1 10.281 8.025 8.290 
190 1 3.700 -9.867 4.820 
191 1 -2.645 -12.089 3.854 
192 1 -4.815 -3.828 -9.312 
193 1 -6.830 -9.644 -9.309 
194 1 4.257 9.616 -3.946 
195 1 -10.863 1.642 7.649 
196 1 -4.595 7.755 10.936 
197 1 -4.336 1.705 9.534 
198 1 -1.292 0.792 11.922 
199 1 8.321 0.301 0.390 
200 1 5.482 -10.587 -6.578 
ITEM: TIMESTEP
10
ITEM: NUMBER OF ATOMS
200
ITEM: BOX BOUNDS pp pp pp
-12.74986103408113 12.74986103408113
-12.74986103408113 12.74986103408113
-12.74986103408113 12.74986103408113
ITEM: ATOMS id type x y z
1 1 3.337 3.654 2.399 
2 1 3.843 10.507 1.176 
3 1 2.787 1.506 -9.657 
4 1 -1.894 6.100 6.939 
5 1 -8.843 -2.901 3.303 
6 1 2.914 11.459 7.967 
7 1 3.930 -2.822 4.664 
8 1 1.671 9.684 10.140 
9 1 3.997 11.043 3.456 
10 1 -6.379 6.432 -1.542 
11 1 -0.915 -9.872 4.196 
12 1 9.733 11.089 6.636 
13 1 -6.981 -5.688 -1.765 
14 1 -12.487 -7.593 5.697 
15 1 6.293 1.484 10.256 
16 1 -0.042 12.202 -8.470 
17 1 -2.774 -9.014 0.987 
18 1 -0.072 -9.544 -4.175 
19 1 -5.668 1.549 5.166 
20 1 -1.116 0.923 -3.918 
21 1 0.698 -3.709 -11.588 
22 1 -1.720 -6.987 -7.929 
23 1 8.017 7.986 -8.605 
24 1 11.123 8.628 -6.529 
25 1 -8.568 9.377 9.208 
26 1 5.327 -10.484 -11.349 
27 1 -11.852 1.817 3.506 
28 1 -10.721 9.640 -6.385 
29 1 -0.467 4.749 -5.006 
30 1 -8.425 -3.359 6.022 
31 1 -6.848 1.673 3.299 
32 1 0.869 9.615 5.263 
33 1 0.390 -0.604 -8.295 
34 1 -11.093 6.428 10.172 
35 1 -3.097 -9.996 6.983 
36 1 -9.969 1.966 10.433 
37 1 3.547 -7.176 11.971 
38 1 -2.658 -9.236 3.103 
39 1 -6.986 4.209 6.484 
40 1 0.075 3.733 -10.974 
41 1 -0.960 -6.795 -3.433 
42 1 12.588 -12.502 -8.832 
43 1 -12.589 -2.642 1.958 
44 1 2.354 -1.625 -8.614 
45 1 4.621 -11.958 -3.544 
46 1 -5.525 12.156 7.086 
47 1 -8.475 -7.998 6.629 
48 1 2.346 -12.094 2.522 
49 1 4.655 1.066 8.935 
50 1 4.295 8.130 -9.251 
51 1 -4.784 9.485 4.659 
52 1 2.018 5.723 8.481 
53 1 5.555 -9.854 -8.209 
54 1 9.623 10.845 1.077 
55 1 3.346 -4.043 -10.019 
56 1 -8.590 0.792 11.513 
57 1 5.113 8.122 5.601 
58 1 12.026 -1.893 -7.402 
59 1 4.474 -9.246 -9.813 
60 1 -0.103 2.108 -0.715 
61 1 11.079 9.742 3.321 
62 1 -9.731 -5.098 -9.460 
63 1 5.287 12.376 7.560 
64 1 -7.329 -8.767 2.500 
65 1 -6.439 5.386 7.963 
66 1 -7.991 10.939 -3.284 
67 1 9.817 2.336 4.811 
68 1 10.687 3.514 -5.413 
69 1 1.639 -6.349 -12.634 
70 1 -5.871 8.905 6.460 
71 1 11.894 0.607 3.390 
72 1 8.113 -11.313 1.883 
73 1 -7.454 -12.221 1.282 
74 1 -8.500 0.861 -10.966 
75 1 0.544 -9.113 0.658 
76 1 8.405 11.836 11.356 
77 1 -3.189 -6.899 1.233 
78 1 2.407 -8.266 -9.035 
79 1 4.692 -8.857 -12.605 
80 1 -12.318 -2.129 4.019 
81 1 -1.537 -4.279 -8.128 
82 1 -5.952 11.081 5.316 
83 1 -4.146 -10.216 -2.992 
84 1 -5.244 0.957 7.654 
85 1 -11.972 8.804 -10.864 
86 1 -2.768 -8.245 -5.920 
87 1 -4.415 8.507 -7.527 
88 1 -0.306 2.864 -4.011 
89 1 -2.496 -2.220 -5.123 
90 1 3.644 3.271 -1.737 
91 1 11.318 -9.287 2.269 
92 1 0.059 11.641 5.482 
93 1 -6.993 3.620 -6.982 
94 1 10.455 5.281 -6.609 
95 1 1.076 12.141 3.671 
96 1 -8.083 4.911 -3.647 
97 1 -3.723 4.491 6.482 
98 1 -10.791 2.374 -7.038 
99 1 -4.954 8.842 -2.265 
100 1 2.956 -1.790 -4.542 
101 1 -1.284 10.045 5.533 
102 1 -9.004 -7.218 2.795 
103 1 12.739 -3.913 -7.493 
104 1 -7.991 8.998 -10.497 
105 1 -4.961 -10.312 8.263 
106 1 6.306 -5.213 -9.629 
107 1 -0.574 -1.896 1.079 
108 1 7.190 9.660 -10.811 
109 1 -6.597 6.795 3.638 
110 1 -1.278 4.283 8.730 
111 1 1.207 -3.750 9.015 
112 1 7.951 11.918 8.256 
113 1 -11.084 3.652 -9.882 
114 1 7.358 4.631 7.771 
115 1 -7.674 -8.007 -10.540 
116 1 0.657 -2.561 -0.877 
117 1 8.265 -3.612 3.958 
118 1 -6.662 -3.469 -2.582 
119 1 9.113 -9.414 -9.362 
120 1 -3.379 -1.909 7.364 
121 1 4.346 2.702 -12.236 
122 1 -6.550 8.088 -4.877 
123 1 -4.833 9.354 2.615 
124 1 3.608 2.671 5.722 
125 1 0.539 -2.794 -8.191 
126 1 -8.795 -6.064 7.475 
127 1 -3.741 2.347 7.043 
128 1 11.818 10.617 -3.625 
129 1 0.569 9.819 12.024 
130 1 8.919 -3.295 -9.342 
131 1 -3.824 0.686 4.227 
132 1 -9.232 9.697 5.894 
133 1 6.816 -1.604 -9.002 
134 1 11.106 -12.424 10.747 
135 1 10.574 -4.465 3.996 
136 1 -2.385 -1.534 9.104 
137 1 1.096 5.036 1.221 
138 1 -1.077 11.551 -2.631 
139 1 -4.593 -9.817 -9.963 
140 1 -1.614 12.438 9.008 
141 1 -5.079 0.197 -4.445 
142 1 -8.847 1.160 5.722 
143 1 -5.115 -5.940 -2.466 
144 1 -2.875 12.293 7.295 
145 1 -6.673 6.999 5.836 
146 1 -5.848 -3.742 -6.985 
147 1 -11.109 -4.184 -5.551 
148 1 0.145 6.803 5.962 
149 1 -5.768 -2.790 -10.486 
150 1 -3.730 -9.489 5.004 
151 1 5.026 1.689 -0.278 
152 1 -7.128 3.029 4.667 
153 1 2.450 -2.276 7.208 
154 1 -3.184 -10.436 -12.569 
155 1 -4.261 6.889 12.357 
156 1 -0.833 6.360 -1.560 
157 1 10.446 7.969 -12.083 
158 1 -2.919 -2.467 10.947 
159 1 -11.190 6.721 -9.730 
160 1 -6.901 -3.367 9.778 
161 1 -5.308 -10.789 -12.622 
162 1 4.324 -8.133 4.966 
163 1 -0.558 -5.324 -5.721 
164 1 4.760 10.315 7.954 
165 1 -4.715 9.052 -5.485 
166 1 -4.349 -4.463 -10.583 
167 1 -3.061 3.193 3.607 
168 1 -0.636 6.035 0.550 
169 1 -4.569 -0.814 2.901 
170 1 -6.821 8.762 4.439 
171 1 3.234 1.194 -1.334 
172 1 3.140 9.312 5.555 
173 1 -2.799 6.802 -0.880 
174 1 -12.510 -3.787 -11.174 
175 1 9.085 -3.362 10.338 
176 1 3.935 1.905 11.222 
177 1 9.771 11.600 -8.552 
178 1 2.656 2.301 3.895 
179 1 -5.377 -11.326 6.421 
180 1 -3.211 -4.998 -2.568 
181 1 9.572 -9.924 7.960 
182 1 -6.250 -4.442 3.359 
183 1 4.875 2.291 3.155 
184 1 -2.333 8.005 -7.559 
185 1 10.909 0.208 -0.385 
186 1 -1.465 11.571 -6.980 
187 1 -3.450 -11.389 10.772 
188 1 6.658 5.540 5.681 
189 1 10.281 8.025 8.290 
190 1 3.603 -10.137 4.798 
191 1 -2.645 -12.090 3.854 
192 1 -4.875 -3.644 -8.714 
193 1 -6.832 -9.658 -9.296 
194 1 4.257 9.616 -3.946 
195 1 -10.864 1.642 7.649 
196 1 -4.683 7.980 10.566 
197 1 -4.328 1.712 9.557 
198 1 -1.292 0.792 11.922 
199 1 8.320 0.301 0.390 
200 1 5.486 -10.695 -6.333 
ITEM: TIMESTEP
20
ITEM: NUMBER OF ATOMS
200
ITEM: BOX BOUNDS pp pp pp
-12.74986103408113 12.74986103408113
-12.74986103408113 12.74986103408113
-12.74986103408113 12.74986103408113
ITEM: ATOMS id type x y z
1 1 3.883 4.131 2.167 
2 1 3.798 10.379 0.690 
3 1 2.727 1.572 -9.611 
4 1 -2.062 6.633 7.242 
5 1 -8.973 -2.805 3.049 
6 1 2.481 11.851 7.956 
7 1 4.028 -2.864 4.497 
8 1 1.881 9.446 9.822 
9 1 4.244 11.376 3.660 
10 1 -6.469 6.322 -1.426 
11 1 -0.217 -10.064 4.615 
12 1 10.012 10.971 6.367 
13 1 -7.805 -5.850 -1.312 
14 1 -12.483 -7.591 5.694 
15 1 6.809 1.556 10.496 
16 1 0.314 12.360 -8.843 
17 1 -2.772 -9.446 -0.176 
18 1 0.001 -9.737 -4.226 
19 1 -5.794 1.707 5.177 
20 1 -1.421 0.295 -3.879 
21 1 0.552 -3.427 -11.555 
22 1 -1.572 -7.341 -8.270 
23 1 8.067 7.889 -8.475 
24 1 11.148 8.721 -6.529 
25 1 -8.578 9.371 9.259 
26 1 5.812 -11.491 -11.265 
27 1 -11.405 2.130 3.535 
28 1 -10.719 9.639 -6.387 
29 1 -0.582 5.411 -5.438 
30 1 -8.345 -3.186 6.136 
31 1 -6.883 0.907 2.294 
32 1 0.809 9.276 4.578 
33 1 0.027 -0.030 -8.261 
34 1 -11.091 6.427 10.171 
35 1 -2.376 -10.050 7.395 
36 1 -10.298 2.398 10.433 
37 1 3.622 -6.577 11.196 
38 1 -2.457 -8.910 2.808 
39 1 -7.287 3.668 7.255 
40 1 0.075 3.731 -10.977 
41 1 -0.923 -6.943 -3.157 
42 1 12.655 -12.472 -8.838 
43 1 -12.654 -2.765 1.437 
44 1 3.155 -1.338 -8.669 
45 1 4.472 -12.142 -3.138 
46 1 -5.813 11.999 8.194 
47 1 -8.381 -8.521 6.389 
48 1 2.796 -11.576 1.941 
49 1 4.465 0.736 8.329 
50 1 4.290 8.129 -9.249 
51 1 -4.486 9.023 4.616 
52 1 2.057 5.708 8.533 
53 1 6.353 -9.748 -8.347 
54 1 9.535 10.910 0.941 
55 1 3.383 -4.208 -10.087 
56 1 -8.152 0.404 11.603 
57 1 5.825 7.999 5.518 
58 1 11.853 -1.360 -7.363 
59 1 4.135 -8.803 -10.169 
60 1 -0.142 2.093 -0.610 
61 1 11.171 9.670 3.448 
62 1 -9.719 -5.090 -9.448 
63 1 5.279 -12.528 7.317 
64 1 -6.980 -9.059 2.451 
65 1 -6.079 5.937 8.984 
66 1 -7.993 10.945 -3.282 
67 1 9.730 2.432 4.882 
68 1 10.751 3.056 -5.103 
69 1 1.134 -6.445 -12.373 
70 1 -5.889 9.061 7.352 
71 1 11.470 0.274 3.252 
72 1 8.109 -11.313 1.886 
73 1 -7.451 -12.244 1.280 
74 1 -8.514 0.883 -10.752 
75 1 0.571 -9.108 0.663 
76 1 8.327 11.779 11.558 
77 1 -3.312 -6.353 1.223 
78 1 1.664 -7.965 -8.637 
79 1 5.089 -9.013 12.375 
80 1 -12.185 -2.066 4.579 
81 1 -1.902 -4.286 -8.310 
82 1 -6.308 11.598 4.802 
83 1 -4.157 -10.227 -3.005 
84 1 -5.852 0.241 7.958 
85 1 -12.072 9.155 -11.038 
86 1 -2.955 -8.406 -5.644 
87 1 -4.957 8.458 -8.123 
88 1 0.178 2.944 -3.684 
89 1 -2.540 -2.321 -5.190 
90 1 3.653 3.792 -1.891 
91 1 11.319 -9.285 2.273 
92 1 0.045 12.363 6.210 
93 1 -6.994 3.620 -6.985 
94 1 10.376 5.639 -6.932 
95 1 0.848 11.937 3.167 
96 1 -8.153 4.836 -3.714 
97 1 -4.307 4.802 6.124 
98 1 -10.782 2.340 -6.953 
99 1 -5.000 9.126 -2.212 
100 1 2.948 -1.789 -4.545 
101 1 -1.770 9.810 6.039 
102 1 -9.343 -6.899 2.859 
103 1 12.670 -4.449 -7.810 
104 1 -7.993 8.995 -10.495 
105 1 -5.410 -9.977 8.778 
106 1 6.351 -5.278 -9.621 
107 1 -0.789 -1.778 1.414 
108 1 7.147 9.768 -10.949 
109 1 -6.362 6.249 2.859 
110 1 -1.184 4.046 8.953 
111 1 1.052 -3.935 9.242 
112 1 7.960 11.972 8.469 
113 1 -11.091 3.483 -9.989 
114 1 7.491 4.462 8.208 
115 1 -7.824 -7.629 -10.852 
116 1 0.865 -2.672 -1.220 
117 1 7.903 -3.475 3.952 
118 1 -6.573 -3.149 -2.712 
119 1 9.202 -9.405 -9.398 
120 1 -3.737 -2.105 6.794 
121 1 4.577 2.998 -11.731 
122 1 -7.018 7.838 -4.814 
123 1 -4.900 9.369 1.695 
124 1 3.859 2.912 6.149 
125 1 0.809 -3.187 -8.002 
126 1 -8.926 -5.750 7.837 
127 1 -3.114 2.041 7.094 
128 1 11.821 10.622 -3.619 
129 1 0.280 9.862 12.512 
130 1 9.158 -3.425 -9.370 
131 1 -3.013 0.469 4.367 
132 1 -9.494 9.792 6.075 
133 1 6.620 -1.448 -8.971 
134 1 11.204 -12.379 10.718 
135 1 10.927 -4.612 4.004 
136 1 -1.796 -1.053 9.116 
137 1 1.286 4.798 1.080 
138 1 -1.081 11.551 -2.634 
139 1 -4.213 -9.734 -9.834 
140 1 -1.086 12.343 9.422 
141 1 -5.087 0.199 -4.445 
142 1 -8.820 0.995 5.599 
143 1 -5.045 -6.524 -2.791 
144 1 -3.045 12.389 6.872 
145 1 -6.990 6.564 5.987 
146 1 -6.442 -3.836 -6.134 
147 1 -10.873 -4.180 -5.261 
148 1 0.680 6.512 5.736 
149 1 -6.247 -2.368 -10.936 
150 1 -4.352 -8.807 5.156 
151 1 5.421 1.756 -0.022 
152 1 -7.881 3.653 3.726 
153 1 2.505 -2.043 7.153 
154 1 -2.482 -10.203 -12.360 
155 1 -4.154 6.606 -12.684 
156 1 -0.409 6.326 -2.178 
157 1 10.417 7.961 -12.091 
158 1 -3.137 -2.784 11.476 
159 1 -11.064 6.590 -9.517 
160 1 -6.895 -3.359 9.778 
161 1 -5.835 -10.876 -12.660 
162 1 4.514 -7.599 5.006 
163 1 -0.391 -5.216 -5.708 
164 1 5.223 9.751 8.397 
165 1 -4.216 9.496 -5.197 
166 1 -4.045 -4.998 -11.247 
167 1 -2.986 3.542 3.436 
168 1 -1.293 6.466 1.134 
169 1 -4.690 -1.420 2.515 
170 1 -7.430 8.934 3.898 
171 1 2.772 0.626 -1.495 
172 1 3.177 9.565 5.903 
173 1 -3.379 6.854 -0.894 
174 1 -12.522 -3.777 -11.192 
175 1 9.084 -3.361 10.339 
176 1 3.472 1.844 11.087 
177 1 9.701 11.565 -8.548 
178 1 1.983 1.831 3.765 
179 1 -5.869 -11.285 5.987 
180 1 -2.671 -4.410 -2.488 
181 1 9.572 -9.929 7.961 
182 1 -6.156 -4.510 3.363 
183 1 5.530 1.803 3.374 
184 1 -1.804 7.888 -7.525 
185 1 11.172 0.198 -0.462 
186 1 -1.816 11.424 -6.608 
187 1 -3.515 -11.617 10.587 
188 1 6.773 5.147 5.203 
189 1 10.279 8.014 8.298 
190 1 3.452 -10.609 4.915 
191 1 -2.710 -12.207 3.786 
192 1 -4.623 -3.270 -8.509 
193 1 -7.162 -10.052 -8.819 
194 1 4.256 9.618 -3.945 
195 1 -11.160 1.630 7.526 
196 1 -4.666 8.439 10.246 
197 1 -4.152 1.906 10.131 
198 1 -1.282 0.802 11.941 
199 1 8.136 0.270 0.489 
200 1 5.449 -10.970 -5.740 
ITEM: TIMESTEP
30
ITEM: NUMBER OF ATOMS
200
ITEM: BOX BOUNDS pp pp pp
-12.74986103408113 12.74986103408113
-12.74986103408113 12.74986103408113
-12.74986103408113 12.74986103408113
ITEM: ATOMS id type x y z
1 1 4.348 4.521 2.422 
2 1 3.639 10.344 0.363 
3 1 2.534 2.146 -9.513 
4 1 -2.250 6.522 8.036 
5 1 -9.034 -2.629 2.615 
6 1 2.740 12.385 8.728 
7 1 4.117 -2.911 4.148 
8 1 1.787 8.997 9.775 
9 1 4.553 11.509 3.777 
10 1 -7.060 6.406 -1.101 
11 1 0.091 -9.536 4.702 
12 1 10.409 11.036 6.086 
13 1 -8.099 -5.939 -0.943 
14 1 -12.404 -7.576 5.636 
15 1 7.001 1.600 10.806 
16 1 0.631 12.506 -9.263 
17 1 -2.847 -9.589 -0.632 
18 1 0.096 -10.195 -4.409 
19 1 -5.511 1.557 4.841 
20 1 -1.445 0.045 -3.560 
21 1 0.130 -2.994 -11.650 
22 1 -1.634 -7.703 -8.869 
23 1 8.021 7.838 -8.247 
24 1 11.261 8.966 -6.702 
25 1 -8.628 9.243 9.721 
26 1 5.933 -11.936 -11.140 
27 1 -11.512 2.200 3.502 
28 1 -10.583 9.625 -6.415 
29 1 -0.703 5.498 -5.722 
30 1 -8.023 -2.943 6.221 
31 1 -7.310 0.781 1.774 
32 1 0.650 8.969 3.539 
33 1 -0.318 0.012 -8.153 
34 1 -11.070 6.431 10.141 
35 1 -2.140 -9.728 7.669 
36 1 -10.316 2.782 10.711 
37 1 3.657 -6.142 10.923 
38 1 -2.597 -8.759 2.778 
39 1 -7.777 3.205 7.574 
40 1 -0.186 3.873 -11.189 
41 1 -0.962 -7.178 -2.362 
42 1 -12.654 -12.476 -8.869 
43 1 -12.605 -2.831 1.266 
44 1 3.662 -1.011 -8.508 
45 1 4.115 -12.449 -2.268 
46 1 -6.668 12.325 8.926 
47 1 -8.734 -8.516 6.008 
48 1 3.484 -11.306 1.237 
49 1 4.811 0.457 8.069 
50 1 4.216 8.087 -9.197 
51 1 -3.902 8.078 4.439 
52 1 2.378 5.518 8.856 
53 1 6.599 -9.432 -8.406 
54 1 9.373 10.975 0.677 
55 1 3.308 -4.545 -10.397 
56 1 -7.798 0.148 11.363 
57 1 6.338 8.389 5.410 
58 1 11.845 -1.086 -7.346 
59 1 3.927 -8.491 -10.701 
60 1 -0.614 1.734 -0.256 
61 1 11.561 9.251 3.202 
62 1 -9.546 -4.900 -9.290 
63 1 5.702 -12.257 6.938 
64 1 -6.576 -8.980 2.572 
65 1 -5.936 5.904 9.376 
66 1 -8.282 11.117 -3.411 
67 1 9.697 2.517 5.133 
68 1 10.903 2.607 -4.844 
69 1 0.834 -6.774 -12.079 
70 1 -5.729 9.160 7.304 
71 1 11.177 -0.066 3.025 
72 1 7.975 -11.276 1.980 
73 1 -7.361 -12.531 1.251 
74 1 -8.429 0.850 -10.429 
75 1 0.627 -8.950 0.657 
76 1 8.392 11.898 12.217 
77 1 -3.553 -5.836 0.835 
78 1 1.795 -7.588 -7.913 
79 1 5.579 -9.296 11.650 
80 1 -11.861 -2.026 5.021 
81 1 -1.903 -4.174 -8.801 
82 1 -6.159 11.285 4.412 
83 1 -4.682 -10.812 -3.397 
84 1 -6.164 -0.032 8.116 
85 1 -12.046 9.652 -11.114 
86 1 -3.023 -8.268 -5.533 
87 1 -5.302 8.272 -8.483 
88 1 0.709 2.906 -3.664 
89 1 -2.751 -2.616 -5.614 
90 1 3.582 4.294 -2.008 
91 1 11.350 -9.223 2.370 
92 1 0.222 12.603 6.129 
93 1 -6.994 3.576 -7.158 
94 1 10.525 5.384 -7.237 
95 1 0.606 12.397 2.486 
96 1 -8.542 4.420 -3.888 
97 1 -4.617 4.870 5.976 
98 1 -10.750 2.295 -6.703 
99 1 -5.279 9.639 -2.145 
100 1 2.803 -1.805 -4.696 
101 1 -1.345 9.820 6.485 
102 1 -9.554 -6.569 2.925 
103 1 12.536 -4.861 -7.776 
104 1 -8.213 8.996 -10.590 
105 1 -5.729 -9.178 9.316 
106 1 6.644 -5.721 -9.527 
107 1 -0.879 -1.730 1.448 
108 1 6.850 9.816 -10.971 
109 1 -5.666 5.898 2.292 
110 1 -0.800 3.721 9.613 
111 1 0.731 -4.142 9.668 
112 1 8.380 12.032 8.743 
113 1 -11.267 3.246 -10.359 
114 1 7.514 4.499 8.426 
115 1 -7.578 -7.571 -11.125 
116 1 0.835 -2.852 -1.572 
117 1 7.781 -3.281 3.902 
118 1 -6.335 -2.893 -2.401 
119 1 9.992 -9.416 -9.728 
120 1 -3.952 -2.380 6.444 
121 1 5.158 3.398 -11.781 
122 1 -7.261 7.770 -4.952 
123 1 -4.839 9.517 1.514 
124 1 3.732 3.432 6.171 
125 1 1.135 -3.440 -7.586 
126 1 -9.185 -5.688 8.356 
127 1 -2.847 1.920 7.238 
128 1 11.906 10.721 -3.471 
129 1 0.011 9.996 -12.636 
130 1 9.695 -3.562 -9.528 
131 1 -2.173 0.165 4.189 
132 1 -9.651 9.929 6.151 
133 1 7.044 -1.209 -9.055 
134 1 11.394 -12.297 10.570 
135 1 11.178 -4.807 3.986 
136 1 -1.403 -0.971 8.937 
137 1 1.171 4.696 0.880 
138 1 -1.180 11.573 -2.674 
139 1 -4.346 -9.824 -9.595 
140 1 -0.725 11.785 9.590 
141 1 -5.171 0.148 -4.496 
142 1 -8.889 0.403 5.320 
143 1 -4.966 -6.725 -2.838 
144 1 -3.450 12.372 7.029 
145 1 -7.820 6.580 5.969 
146 1 -6.901 -4.258 -5.802 
147 1 -10.583 -4.106 -5.068 
148 1 0.746 5.833 5.492 
149 1 -6.623 -2.300 -11.704 
150 1 -4.530 -7.506 5.544 
151 1 5.399 1.910 0.056 
152 1 -8.247 3.789 3.730 
153 1 2.121 -1.849 7.091 
154 1 -1.866 -9.922 -12.356 
155 1 -4.122 6.321 -12.414 
156 1 0.083 6.394 -2.161 
157 1 10.184 7.976 -12.072 
158 1 -3.255 -2.747 11.612 
159 1 -10.936 6.732 -9.064 
160 1 -6.737 -3.235 9.874 
161 1 -6.177 -10.785 -12.576 
162 1 4.626 -7.212 5.000 
163 1 -0.455 -5.560 -5.504 
164 1 5.492 9.666 8.866 
165 1 -3.980 9.423 -5.303 
166 1 -4.208 -5.377 -11.372 
167 1 -2.785 3.602 3.021 
168 1 -1.629 6.815 1.911 
169 1 -4.676 -1.801 2.234 
170 1 -8.361 8.525 2.875 
171 1 2.564 0.432 -1.696 
172 1 2.831 9.432 6.316 
173 1 -3.447 6.561 -1.148 
174 1 -12.580 -3.664 -11.373 
175 1 9.068 -3.342 10.365 
176 1 2.925 1.885 11.070 
177 1 9.389 11.525 -8.683 
178 1 1.723 1.719 3.482 
179 1 -6.039 -10.887 5.886 
180 1 -2.665 -3.861 -2.152 
181 1 9.566 -10.001 7.941 
182 1 -6.171 -4.936 3.524 
183 1 5.847 1.239 3.727 
184 1 -1.618 8.244 -7.911 
185 1 11.633 0.236 -0.721 
186 1 -1.637 11.872 -6.457 
187 1 -3.634 -11.944 10.592 
188 1 6.919 4.799 4.843 
189 1 10.186 7.955 8.376 
190 1 3.396 -10.710 4.861 
191 1 -2.905 -12.370 3.506 
192 1 -5.093 -2.533 -8.452 
193 1 -7.725 -10.345 -8.492 
194 1 4.224 9.610 -3.918 
195 1 -11.655 1.662 7.353 
196 1 -4.185 9.101 10.545 
197 1 -4.329 2.136 10.580 
198 1 -1.083 0.851 12.193 
199 1 8.261 -0.129 0.912 
200 1 5.293 -11.181 -5.521 
ITEM: TIMESTEP
40
ITEM: NUMBER OF ATOMS
200
ITEM: BOX BOUNDS pp pp pp
-12.74986103408113 12.74986103408113
-12.74986103408113 12.74986103408113
-12.74986103408113 12.74986103408113
ITEM: ATOMS id type x y z
1 1 4.229 4.573 2.496 
2 1 3.309 10.351 0.358 
3 1 2.331 2.354 -9.535 
4 1 -2.414 6.439 8.232 
5 1 -8.843 -2.602 2.589 
6 1 2.865 12.437 8.828 
7 1 4.103 -2.710 4.135 
8 1 1.658 8.906 9.861 
9 1 4.479 11.428 3.718 
10 1 -7.287 6.684 -1.071 
11 1 0.018 -9.262 4.696 
12 1 10.452 11.124 5.903 
13 1 -7.886 -5.861 -0.479 
14 1 -12.231 -7.559 5.596 
15 1 6.883 1.588 10.870 
16 1 0.634 12.524 -9.497 
17 1 -3.031 -9.818 -0.673 
18 1 -0.096 -10.245 -4.330 
19 1 -5.330 1.318 4.612 
20 1 -1.260 -0.289 -3.314 
21 1 0.114 -2.845 -11.746 
22 1 -1.464 -7.697 -8.997 
23 1 8.049 7.858 -8.224 
24 1 11.449 9.069 -7.065 
25 1 -8.408 9.074 9.827 
26 1 5.858 -11.916 -11.006 
27 1 -11.601 2.105 3.472 
28 1 -10.404 9.670 -6.506 
29 1 -0.906 5.653 -5.767 
30 1 -7.793 -3.053 6.199 
31 1 -7.508 0.758 1.640 
32 1 0.878 9.099 3.272 
33 1 -0.317 -0.275 -8.098 
34 1 -11.081 6.449 10.005 
35 1 -2.315 -9.961 7.578 
36 1 -10.226 2.852 10.693 
37 1 3.612 -6.149 11.329 
38 1 -2.962 -8.735 2.867 
39 1 -7.867 3.183 7.608 
40 1 -0.409 3.990 -11.579 
41 1 -1.034 -7.098 -2.026 
42 1 -12.682 -12.665 -8.820 
43 1 -12.371 -2.867 1.265 
44 1 3.671 -0.892 -8.607 
45 1 3.897 -12.476 -2.279 
46 1 -6.789 12.459 8.803 
47 1 -8.474 -8.372 5.895 
48 1 3.842 -11.250 1.207 
49 1 4.879 0.513 7.875 
50 1 4.064 7.951 -9.022 
51 1 -3.721 8.101 4.632 
52 1 2.436 5.430 8.886 
53 1 6.599 -9.353 -8.400 
54 1 9.313 10.999 0.704 
55 1 3.327 -4.575 -10.627 
56 1 -7.642 0.237 11.358 
57 1 6.429 8.617 5.508 
58 1 11.936 -1.118 -7.438 
59 1 3.906 -8.343 -10.891 
60 1 -0.846 1.653 -0.060 
61 1 11.706 9.059 3.040 
62 1 -9.230 -4.655 -9.137 
63 1 5.944 -12.434 6.775 
64 1 -6.644 -8.784 2.587 
65 1 -5.936 5.931 9.438 
66 1 -8.466 11.158 -3.567 
67 1 9.785 2.389 5.335 
68 1 11.170 2.361 -4.911 
69 1 0.546 -6.681 -11.973 
70 1 -5.656 9.123 7.550 
71 1 11.100 -0.403 3.212 
72 1 7.688 -11.340 2.203 
73 1 -7.000 -12.632 1.285 
74 1 -8.311 0.767 -10.308 
75 1 0.454 -9.184 0.876 
76 1 8.794 12.107 12.639 
77 1 -3.778 -5.791 0.691 
78 1 2.016 -7.282 -7.809 
79 1 5.734 -9.486 11.500 
80 1 -11.646 -2.074 5.092 
81 1 -1.980 -4.048 -8.936 
82 1 -6.136 11.159 4.499 
83 1 -4.742 -11.176 -3.669 
84 1 -6.049 -0.005 8.013 
85 1 -12.175 9.731 -10.869 
86 1 -3.177 -8.465 -5.688 
87 1 -5.368 8.037 -8.496 
88 1 0.589 2.932 -3.619 
89 1 -2.814 -2.694 -5.696 
90 1 3.474 4.469 -1.786 
91 1 11.317 -9.101 2.583 
92 1 0.285 -12.734 6.092 
93 1 -7.126 3.571 -7.333 
94 1 10.913 5.308 -7.452 
95 1 0.680 12.739 2.397 
96 1 -8.661 4.358 -3.947 
97 1 -4.859 4.811 5.866 
98 1 -10.798 2.397 -6.737 
99 1 -5.348 9.811 -2.105 
100 1 2.581 -1.533 -4.825 
101 1 -0.906 9.358 6.634 
102 1 -9.708 -6.324 2.927 
103 1 12.657 -4.969 -7.761 
104 1 -8.422 8.969 -10.622 
105 1 -5.832 -9.210 9.119 
106 1 6.638 -5.815 -9.573 
107 1 -1.011 -1.891 1.168 
108 1 6.585 9.776 -11.083 
109 1 -5.445 5.849 2.206 
110 1 -0.683 3.536 9.946 
111 1 0.534 -4.036 10.061 
112 1 8.542 11.713 8.973 
113 1 -11.265 3.276 -10.427 
114 1 7.368 4.538 8.478 
115 1 -7.413 -7.510 -11.022 
116 1 0.930 -3.049 -1.836 
117 1 7.928 -2.911 3.810 
118 1 -6.268 -2.936 -2.267 
119 1 10.072 -9.704 -9.832 
120 1 -4.033 -2.459 6.156 
121 1 5.129 3.472 -11.858 
122 1 -7.252 7.773 -4.975 
123 1 -4.687 9.551 1.469 
124 1 3.677 3.497 6.018 
125 1 1.145 -3.744 -7.613 
126 1 -9.207 -5.726 8.403 
127 1 -2.830 2.100 7.238 
128 1 12.059 10.686 -3.574 
129 1 -0.210 10.067 -12.495 
130 1 9.757 -3.671 -9.685 
131 1 -1.810 0.018 4.306 
132 1 -9.338 10.122 6.208 
133 1 7.246 -1.008 -9.125 
134 1 11.609 -12.236 10.451 
135 1 11.309 -4.748 3.952 
136 1 -1.456 -0.949 8.815 
137 1 0.935 4.651 1.023 
138 1 -1.454 11.669 -2.649 
139 1 -4.428 -9.790 -9.514 
140 1 -0.732 11.665 9.572 
141 1 -5.148 -0.001 -4.584 
142 1 -8.807 0.339 5.229 
143 1 -4.853 -6.705 -2.786 
144 1 -3.441 12.042 7.093 
145 1 -8.004 6.673 6.165 
146 1 -6.628 -4.468 -5.717 
147 1 -10.395 -3.978 -5.082 
148 1 0.495 5.863 5.411 
149 1 -6.690 -2.602 -11.865 
150 1 -4.700 -7.393 5.921 
151 1 5.344 1.906 0.200 
152 1 -8.146 3.786 3.834 
153 1 1.862 -1.678 7.087 
154 1 -1.839 -9.769 -12.301 
155 1 -4.067 6.258 -12.590 
156 1 0.158 6.485 -2.153 
157 1 9.995 8.263 -11.826 
158 1 -3.231 -2.605 11.743 
159 1 -11.086 6.726 -8.784 
160 1 -6.573 -3.244 9.855 
161 1 -6.337 -10.745 -12.673 
162 1 4.574 -7.094 4.956 
163 1 -0.634 -5.613 -5.551 
164 1 5.451 9.646 8.994 
165 1 -3.721 9.281 -5.306 
166 1 -4.256 -5.608 -11.482 
167 1 -2.548 3.485 3.067 
168 1 -1.782 6.950 1.869 
169 1 -4.718 -1.800 2.345 
170 1 -8.113 8.470 2.784 
171 1 2.393 0.444 -1.544 
172 1 2.778 9.495 6.392 
173 1 -3.561 6.527 -1.330 
174 1 -12.340 -3.599 -11.290 
175 1 9.030 -3.288 10.451 
176 1 2.723 1.992 10.948 
177 1 9.251 11.547 -9.044 
178 1 1.617 1.711 3.298 
179 1 -5.760 -10.909 5.721 
180 1 -2.661 -3.659 -2.132 
181 1 9.484 -10.222 7.865 
182 1 -6.190 -5.081 3.462 
183 1 5.838 1.161 3.924 
184 1 -1.472 8.546 -8.232 
185 1 11.652 0.233 -0.601 
186 1 -1.606 12.216 -6.411 
187 1 -3.660 -11.962 10.593 
188 1 7.045 4.891 4.816 
189 1 9.876 8.105 8.353 
190 1 3.362 -10.757 4.839 
191 1 -2.951 -12.435 3.541 
192 1 -5.322 -2.274 -8.455 
193 1 -7.975 -10.385 -8.540 
194 1 4.117 9.591 -3.823 
195 1 -11.634 1.702 7.258 
196 1 -3.773 9.402 10.600 
197 1 -4.373 2.266 10.632 
198 1 -1.034 0.582 12.269 
199 1 8.142 -0.360 1.031 
200 1 5.136 -11.329 -5.608 
ITEM: TIMESTEP
50
ITEM: NUMBER OF ATOMS
200
ITEM: BOX BOUNDS pp pp pp
-12.74986103408113 12.74986103408113
-12.74986103408113 12.74986103408113
-12.74986103408113 12.74986103408113
ITEM: ATOMS id type x y z
1 1 4.185 4.674 2.457 
2 1 2.977 10.408 0.265 
3 1 2.026 2.331 -9.656 
4 1 -2.548 6.341 8.225 
5 1 -8.598 -2.541 2.532 
6 1 2.981 12.462 8.659 
7 1 4.158 -2.281 4.239 
8 1 1.601 8.922 9.880 
9 1 4.428 11.338 3.572 
10 1 -7.324 6.985 -0.987 
11 1 0.043 -9.356 4.669 
12 1 10.019 11.245 5.821 
13 1 -7.499 -5.798 0.010 
14 1 -12.061 -7.453 5.709 
15 1 6.672 1.564 10.840 
16 1 0.442 12.471 -9.568 
17 1 -3.207 -9.910 -0.668 
18 1 -0.460 -10.229 -4.042 
19 1 -5.158 1.313 4.474 
20 1 -1.177 -0.382 -3.220 
21 1 0.199 -2.626 -11.553 
22 1 -1.447 -7.600 -8.896 
23 1 8.078 7.899 -8.339 
24 1 11.572 9.113 -7.435 
25 1 -8.376 9.040 10.060 
26 1 5.933 -11.896 -10.963 
27 1 -11.497 1.797 3.358 
28 1 -10.270 9.775 -6.743 
29 1 -1.134 5.968 -5.642 
30 1 -7.745 -3.112 6.176 
31 1 -7.543 0.879 1.596 
32 1 0.903 9.155 3.318 
33 1 -0.372 -0.460 -8.092 
34 1 -10.929 6.376 9.693 
35 1 -2.405 -10.123 7.438 
36 1 -10.085 2.833 10.722 
37 1 3.544 -6.169 11.429 
38 1 -3.131 -8.798 2.948 
39 1 -7.865 3.095 7.640 
40 1 -0.533 4.082 -11.871 
41 1 -1.091 -7.039 -1.882 
42 1 12.746 12.708 -8.557 
43 1 -12.126 -2.858 1.336 
44 1 3.488 -1.017 -8.756 
45 1 3.549 -12.384 -2.317 
46 1 -6.767 12.426 8.533 
47 1 -8.267 -8.243 5.823 
48 1 3.903 -11.176 1.237 
49 1 4.862 0.542 7.688 
50 1 4.112 7.898 -8.922 
51 1 -3.611 8.121 4.860 
52 1 2.358 5.436 8.847 
53 1 6.555 -9.302 -8.381 
54 1 9.213 11.045 0.925 
55 1 3.314 -4.489 -10.652 
56 1 -7.412 0.208 11.376 
57 1 6.644 8.861 5.634 
58 1 12.084 -1.153 -7.597 
59 1 3.915 -8.330 -10.983 
60 1 -1.075 1.638 0.086 
61 1 11.681 9.061 3.118 
62 1 -8.898 -4.337 -8.948 
63 1 6.185 12.681 6.594 
64 1 -6.757 -8.729 2.418 
65 1 -6.050 5.749 9.512 
66 1 -8.537 11.167 -3.631 
67 1 9.706 2.254 5.406 
68 1 11.328 2.223 -5.125 
69 1 0.376 -6.466 -11.916 
70 1 -5.487 8.943 7.448 
71 1 11.102 -0.637 3.389 
72 1 7.423 -11.553 2.700 
73 1 -6.411 -12.555 1.322 
74 1 -8.213 0.610 -10.207 
75 1 0.276 -9.329 0.880 
76 1 8.997 12.248 -12.690 
77 1 -3.770 -5.833 0.688 
78 1 2.138 -7.312 -7.874 
79 1 5.799 -9.607 11.462 
80 1 -11.405 -2.171 5.077 
81 1 -2.173 -3.960 -9.073 
82 1 -5.962 11.044 4.593 
83 1 -4.549 -11.627 -3.792 
84 1 -5.807 0.025 7.949 
85 1 -12.172 9.686 -10.674 
86 1 -3.392 -8.601 -5.811 
87 1 -5.352 7.906 -8.367 
88 1 0.385 3.031 -3.485 
89 1 -2.757 -2.721 -5.732 
90 1 3.322 4.444 -1.572 
91 1 11.237 -8.943 2.848 
92 1 0.227 12.679 6.050 
93 1 -7.289 3.679 -7.535 
94 1 11.107 5.304 -7.575 
95 1 0.782 -12.715 2.430 
96 1 -8.685 4.471 -4.027 
97 1 -5.010 4.878 5.826 
98 1 -10.823 2.538 -6.833 
99 1 -5.286 10.090 -2.141 
100 1 2.092 -1.174 -5.017 
101 1 -0.757 9.195 6.821 
102 1 -9.817 -6.048 3.058 
103 1 -12.669 -4.965 -7.761 
104 1 -8.505 8.868 -10.406 
105 1 -5.938 -9.306 9.007 
106 1 6.637 -5.785 -9.672 
107 1 -1.186 -2.005 0.945 
108 1 6.403 9.853 -11.239 
109 1 -5.270 5.758 2.124 
110 1 -0.718 3.537 9.934 
111 1 0.390 -3.841 10.349 
112 1 8.521 11.562 9.219 
113 1 -11.092 3.287 -10.522 
114 1 7.029 4.560 8.466 
115 1 -7.375 -7.359 -10.872 
116 1 0.996 -3.276 -1.988 
117 1 7.979 -2.690 3.992 
118 1 -6.294 -2.983 -2.170 
119 1 9.892 -10.314 -9.998 
120 1 -4.035 -2.552 5.975 
121 1 4.909 3.518 -11.911 
122 1 -7.139 7.852 -4.924 
123 1 -4.584 9.558 1.393 
124 1 3.583 3.563 5.933 
125 1 1.226 -3.755 -7.661 
126 1 -9.172 -5.728 8.407 
127 1 -2.707 2.300 7.080 
128 1 12.375 10.576 -3.970 
129 1 -0.491 10.015 -12.508 
130 1 9.859 -3.686 -9.758 
131 1 -1.633 -0.078 4.300 
132 1 -9.107 10.252 6.390 
133 1 7.293 -0.984 -9.181 
134 1 11.685 -12.237 10.350 
135 1 11.403 -4.689 3.949 
136 1 -1.789 -0.901 8.753 
137 1 0.759 4.633 1.151 
138 1 -1.748 11.725 -2.568 
139 1 -4.505 -9.594 -9.461 
140 1 -0.609 11.838 9.597 
141 1 -5.172 -0.162 -4.587 
142 1 -8.617 0.316 5.219 
143 1 -4.793 -6.690 -2.837 
144 1 -3.395 11.801 7.075 
145 1 -8.243 6.635 6.400 
146 1 -6.267 -4.534 -5.682 
147 1 -10.058 -3.813 -5.262 
148 1 0.276 5.818 5.253 
149 1 -6.719 -2.865 -11.882 
150 1 -4.616 -7.266 6.089 
151 1 5.137 1.783 0.358 
152 1 -8.090 3.829 3.885 
153 1 1.632 -1.439 7.073 
154 1 -1.982 -9.631 -12.275 
155 1 -3.779 6.151 12.534 
156 1 0.120 6.605 -2.013 
157 1 9.905 8.562 -11.578 
158 1 -3.198 -2.605 11.894 
159 1 -11.027 6.604 -8.616 
160 1 -6.397 -3.234 9.765 
161 1 -6.317 -10.582 -12.674 
162 1 4.432 -7.174 4.879 
163 1 -0.823 -5.871 -5.442 
164 1 5.420 9.528 9.156 
165 1 -3.455 9.107 -5.204 
166 1 -3.999 -5.890 -11.634 
167 1 -2.266 3.604 3.333 
168 1 -1.666 7.045 1.628 
169 1 -4.800 -1.829 2.300 
170 1 -7.901 8.320 2.916 
171 1 2.141 0.403 -1.408 
172 1 2.919 9.458 6.400 
173 1 -3.632 6.697 -1.466 
174 1 -12.062 -3.416 -11.126 
175 1 8.962 -3.208 10.596 
176 1 2.658 1.999 10.820 
177 1 9.151 11.519 -9.093 
178 1 1.687 1.626 3.197 
179 1 -5.569 -10.865 5.507 
180 1 -2.677 -3.651 -2.143 
181 1 9.321 -10.594 7.691 
182 1 -6.144 -5.161 3.508 
183 1 5.881 1.178 4.014 
184 1 -1.433 8.851 -8.427 
185 1 11.700 0.210 -0.305 
186 1 -1.797 12.412 -6.367 
187 1 -3.737 -12.015 10.537 
188 1 7.040 4.921 4.782 
189 1 9.402 8.073 8.153 
190 1 3.364 -10.911 4.990 
191 1 -2.831 -12.535 3.500 
192 1 -5.466 -2.104 -8.417 
193 1 -8.073 -10.458 -8.672 
194 1 3.920 9.567 -3.664 
195 1 -11.514 1.714 7.187 
196 1 -3.421 9.490 10.512 
197 1 -4.302 2.402 10.538 
198 1 -0.979 0.536 12.206 
199 1 8.139 -0.300 1.101 
200 1 4.966 -11.506 -5.749 
ITEM: TIMESTEP
60
ITEM: NUMBER OF ATOMS
200
ITEM: BOX BOUNDS pp pp pp
-12.74986103408113 12.74986103408113
-12.74986103408113 12.74986103408113
-12.74986103408113 12.74986103408113
ITEM: ATOMS id type x y z
1 1 4.254 4.739 2.439 
2 1 2.731 10.383 0.181 
3 1 1.843 2.149 -9.808 
4 1 -2.642 6.268 8.239 
5 1 -8.425 -2.486 2.503 
6 1 3.063 12.442 8.556 
7 1 4.080 -1.869 4.347 
8 1 1.643 9.006 9.964 
9 1 4.328 11.217 3.471 
10 1 -7.280 7.234 -0.878 
11 1 0.086 -9.503 4.597 
12 1 9.627 11.287 5.681 
13 1 -7.455 -5.711 0.130 
14 1 -11.937 -7.327 5.864 
15 1 6.507 1.550 10.813 
16 1 0.226 12.407 -9.560 
17 1 -3.354 -9.900 -0.681 
18 1 -0.758 -10.291 -3.759 
19 1 -5.080 1.381 4.380 
20 1 -1.357 -0.355 -3.088 
21 1 0.314 -2.422 -11.363 
22 1 -1.430 -7.534 -8.828 
23 1 8.037 7.842 -8.362 
24 1 11.575 8.992 -7.544 
25 1 -8.248 9.051 10.090 
26 1 6.027 -11.856 -10.892 
27 1 -11.333 1.494 3.200 
28 1 -10.210 9.839 -6.965 
29 1 -1.209 6.091 -5.476 
30 1 -7.707 -3.174 6.183 
31 1 -7.535 0.971 1.562 
32 1 0.778 9.210 3.426 
33 1 -0.511 -0.484 -8.174 
34 1 -10.651 6.224 9.424 
35 1 -2.368 -10.234 7.389 
36 1 -9.935 2.775 10.775 
37 1 3.426 -6.125 11.462 
38 1 -3.171 -8.901 2.975 
39 1 -7.805 3.015 7.648 
40 1 -0.521 4.107 -11.960 
41 1 -1.110 -7.018 -1.806 
42 1 12.654 12.563 -8.395 
43 1 -11.966 -2.854 1.394 
44 1 3.312 -1.147 -8.861 
45 1 3.209 -12.274 -2.330 
46 1 -6.685 12.365 8.381 
47 1 -8.118 -8.110 5.756 
48 1 3.939 -11.138 1.263 
49 1 4.800 0.541 7.589 
50 1 4.182 7.911 -8.916 
51 1 -3.401 8.104 4.813 
52 1 2.356 5.545 8.778 
53 1 6.503 -9.225 -8.305 
54 1 9.047 11.076 1.254 
55 1 3.277 -4.559 -10.575 
56 1 -7.204 0.152 11.372 
57 1 6.604 8.887 5.504 
58 1 12.274 -1.135 -7.741 
59 1 3.958 -8.338 -11.016 
60 1 -1.269 1.627 0.239 
61 1 11.594 9.083 3.296 
62 1 -8.721 -4.128 -8.883 
63 1 6.184 12.467 6.570 
64 1 -6.775 -8.711 2.320 
65 1 -6.186 5.698 9.554 
66 1 -8.653 11.152 -3.700 
67 1 9.513 2.122 5.370 
68 1 11.324 2.112 -5.288 
69 1 0.198 -6.248 -11.894 
70 1 -5.482 8.800 7.380 
71 1 11.160 -0.762 3.531 
72 1 7.235 -11.726 3.221 
73 1 -5.877 -12.349 1.357 
74 1 -8.165 0.424 -10.165 
75 1 0.148 -9.429 0.802 
76 1 9.084 12.267 -12.625 
77 1 -3.695 -5.837 0.749 
78 1 2.199 -7.327 -7.892 
79 1 5.838 -9.683 11.450 
80 1 -11.240 -2.249 5.066 
81 1 -2.332 -3.920 -9.250 
82 1 -5.904 11.030 4.572 
83 1 -4.515 -11.743 -3.810 
84 1 -5.660 0.020 7.863 
85 1 -12.018 9.654 -10.646 
86 1 -3.507 -8.632 -5.805 
87 1 -5.272 7.831 -8.210 
88 1 0.196 3.101 -3.297 
89 1 -2.541 -2.691 -5.805 
90 1 3.277 4.381 -1.505 
91 1 11.216 -8.760 3.107 
92 1 0.267 12.538 5.988 
93 1 -7.405 3.923 -7.746 
94 1 11.148 5.230 -7.644 
95 1 0.825 -12.716 2.411 
96 1 -8.703 4.583 -4.155 
97 1 -5.085 4.967 5.811 
98 1 -10.853 2.682 -6.926 
99 1 -5.318 10.324 -2.137 
100 1 1.794 -1.048 -5.121 
101 1 -0.709 9.086 7.027 
102 1 -9.830 -5.832 3.181 
103 1 -12.505 -4.928 -7.726 
104 1 -8.398 8.798 -10.222 
105 1 -5.961 -9.378 8.917 
106 1 6.693 -5.746 -9.763 
107 1 -1.189 -2.060 0.820 
108 1 6.394 9.887 -11.319 
109 1 -5.158 5.684 2.065 
110 1 -0.672 3.570 9.870 
111 1 0.280 -3.633 10.532 
112 1 8.477 11.479 9.309 
113 1 -10.853 3.279 -10.643 
114 1 6.578 4.576 8.455 
115 1 -7.310 -7.163 -10.785 
116 1 0.911 -3.338 -2.181 
117 1 7.915 -2.557 4.165 
118 1 -6.365 -2.991 -2.135 
119 1 9.692 -10.506 -10.086 
120 1 -4.011 -2.630 5.852 
121 1 4.696 3.548 -11.975 
122 1 -7.041 7.928 -4.834 
123 1 -4.637 9.524 1.360 
124 1 3.524 3.602 5.880 
125 1 1.022 -3.816 -7.661 
126 1 -9.139 -5.745 8.438 
127 1 -2.630 2.419 6.977 
128 1 12.705 10.585 -4.266 
129 1 -0.617 9.974 -12.527 
130 1 9.975 -3.658 -9.780 
131 1 -1.575 -0.074 4.243 
132 1 -9.051 10.189 6.407 
133 1 7.166 -1.130 -9.250 
134 1 11.651 -12.236 10.257 
135 1 11.469 -4.673 3.971 
136 1 -2.057 -0.847 8.764 
137 1 0.689 4.532 1.235 
138 1 -1.696 11.636 -2.458 
139 1 -4.535 -9.444 -9.412 
140 1 -0.513 11.996 9.621 
141 1 -5.164 -0.373 -4.618 
142 1 -8.464 0.272 5.201 
143 1 -4.816 -6.769 -2.749 
144 1 -3.335 11.688 7.065 
145 1 -8.391 6.532 6.513 
146 1 -5.990 -4.518 -5.658 
147 1 -9.800 -3.649 -5.295 
148 1 0.217 5.843 5.275 
149 1 -6.610 -3.024 -11.882 
150 1 -4.461 -7.250 6.175 
151 1 4.914 1.624 0.508 
152 1 -8.113 3.859 3.901 
153 1 1.373 -1.116 7.041 
154 1 -2.114 -9.513 -12.310 
155 1 -3.450 6.070 12.091 
156 1 0.153 6.708 -1.862 
157 1 9.970 8.703 -11.479 
158 1 -3.118 -2.644 12.073 
159 1 -10.893 6.466 -8.488 
160 1 -6.215 -3.236 9.712 
161 1 -6.207 -10.349 -12.679 
162 1 4.294 -7.379 4.805 
163 1 -0.900 -5.979 -5.361 
164 1 5.430 9.376 9.155 
165 1 -3.381 9.140 -5.073 
166 1 -3.818 -6.148 -11.761 
167 1 -2.228 3.687 3.395 
168 1 -1.584 7.087 1.428 
169 1 -4.750 -1.826 2.207 
170 1 -7.749 8.113 3.142 
171 1 1.924 0.360 -1.323 
172 1 2.956 9.367 6.407 
173 1 -3.641 6.913 -1.669 
174 1 -11.860 -3.164 -10.970 
175 1 8.888 -3.133 10.750 
176 1 2.625 1.974 10.670 
177 1 9.012 11.460 -8.976 
178 1 1.876 1.452 3.145 
179 1 -5.501 -10.854 5.382 
180 1 -2.766 -3.694 -2.234 
181 1 9.233 -10.802 7.487 
182 1 -6.062 -5.205 3.574 
183 1 5.985 1.355 4.070 
184 1 -1.489 9.041 -8.426 
185 1 11.809 0.244 -0.058 
186 1 -1.909 12.473 -6.303 
187 1 -3.767 -12.055 10.515 
188 1 7.042 5.025 4.801 
189 1 9.136 7.982 8.083 
190 1 3.400 -11.080 5.052 
191 1 -2.723 -12.644 3.515 
192 1 -5.492 -1.971 -8.372 
193 1 -8.098 -10.480 -8.847 
194 1 3.702 9.597 -3.516 
195 1 -11.385 1.723 7.093 
196 1 -3.272 9.500 10.266 
197 1 -4.241 2.474 10.412 
198 1 -0.924 0.545 12.121 
199 1 8.175 -0.166 1.261 
200 1 4.835 -11.640 -5.843 
ITEM: TIMESTEP
70
ITEM: NUMBER OF ATOMS
200
ITEM: BOX BOUNDS pp pp pp
-12.74986103408113 12.74986103408113
-12.74986103408113 12.74986103408113
-12.74986103408113 12.74986103408113
ITEM: ATOMS id type x y z
1 1 4.277 4.716 2.394 
2 1 2.394 10.209 0.148 
3 1 1.720 1.873 -10.100 
4 1 -2.714 6.122 8.111 
5 1 -8.273 -2.443 2.495 
6 1 3.016 12.369 8.649 
7 1 3.937 -1.564 4.402 
8 1 1.718 9.105 10.114 
9 1 4.216 11.097 3.379 
10 1 -7.178 7.439 -0.734 
11 1 0.118 -9.659 4.508 
12 1 9.416 11.207 5.578 
13 1 -7.479 -5.631 0.243 
14 1 -11.783 -7.176 6.068 
15 1 6.394 1.536 10.787 
16 1 0.019 12.444 -9.607 
17 1 -3.486 -9.789 -0.674 
18 1 -0.895 -10.319 -3.477 
19 1 -5.011 1.435 4.275 
20 1 -1.576 -0.340 -2.956 
21 1 0.442 -2.279 -11.308 
22 1 -1.429 -7.339 -8.752 
23 1 8.029 7.760 -8.387 
24 1 11.594 8.867 -7.626 
25 1 -8.069 9.046 9.947 
26 1 6.073 -11.870 -10.797 
27 1 -11.144 1.116 3.023 
28 1 -10.107 9.862 -7.136 
29 1 -1.300 6.193 -5.236 
30 1 -7.620 -3.234 6.226 
31 1 -7.466 1.002 1.477 
32 1 0.496 9.294 3.581 
33 1 -0.693 -0.420 -8.313 
34 1 -10.455 6.078 9.552 
35 1 -2.314 -10.380 7.342 
36 1 -9.684 2.639 10.827 
37 1 3.244 -6.056 11.521 
38 1 -3.144 -8.962 2.955 
39 1 -7.713 2.977 7.610 
40 1 -0.417 4.147 -12.067 
41 1 -1.146 -6.951 -1.683 
42 1 12.559 12.438 -8.303 
43 1 -11.830 -2.800 1.448 
44 1 3.181 -1.265 -8.793 
45 1 2.681 -12.219 -2.255 
46 1 -6.640 12.293 8.239 
47 1 -7.941 -7.943 5.707 
48 1 4.000 -11.136 1.279 
49 1 4.738 0.614 7.522 
50 1 4.213 7.953 -8.948 
51 1 -3.144 8.081 4.631 
52 1 2.334 5.736 8.696 
53 1 6.395 -9.146 -8.219 
54 1 8.767 10.998 1.764 
55 1 3.229 -4.653 -10.476 
56 1 -6.931 0.041 11.401 
57 1 6.486 8.772 5.285 
58 1 12.520 -1.009 -7.801 
59 1 4.018 -8.360 -11.050 
60 1 -1.473 1.599 0.442 
61 1 11.560 8.977 3.452 
62 1 -8.602 -3.906 -8.825 
63 1 6.026 12.162 6.672 
64 1 -6.726 -8.699 2.238 
65 1 -6.232 5.724 9.549 
66 1 -8.751 11.134 -3.770 
67 1 9.438 2.008 5.318 
68 1 11.285 1.956 -5.471 
69 1 -0.006 -6.001 -11.899 
70 1 -5.538 8.636 7.297 
71 1 11.223 -0.883 3.685 
72 1 7.065 -11.666 3.563 
73 1 -5.527 -12.263 1.354 
74 1 -8.220 0.122 -10.203 
75 1 0.051 -9.579 0.676 
76 1 9.142 12.269 -12.592 
77 1 -3.696 -5.796 0.783 
78 1 2.255 -7.330 -7.880 
79 1 5.904 -9.826 11.458 
80 1 -11.094 -2.325 5.102 
81 1 -2.477 -3.791 -9.498 
82 1 -5.848 11.047 4.480 
83 1 -4.498 -11.754 -3.749 
84 1 -5.629 -0.011 7.768 
85 1 -11.812 9.595 -10.601 
86 1 -3.539 -8.652 -5.744 
87 1 -5.190 7.694 -8.010 
88 1 -0.044 3.174 -2.959 
89 1 -2.277 -2.697 -5.881 
90 1 3.239 4.278 -1.430 
91 1 11.226 -8.547 3.416 
92 1 0.359 12.415 5.958 
93 1 -7.593 4.346 -8.041 
94 1 11.242 5.110 -7.750 
95 1 0.892 -12.733 2.355 
96 1 -8.788 4.699 -4.397 
97 1 -5.131 4.988 5.673 
98 1 -10.912 2.765 -7.036 
99 1 -5.392 10.519 -2.068 
100 1 1.431 -0.998 -5.220 
101 1 -0.666 8.933 7.285 
102 1 -9.828 -5.651 3.319 
103 1 -12.267 -4.795 -7.685 
104 1 -8.208 8.574 -10.167 
105 1 -5.939 -9.424 8.816 
106 1 6.766 -5.694 -9.874 
107 1 -1.164 -2.129 0.623 
108 1 6.448 9.864 -11.390 
109 1 -5.066 5.607 1.943 
110 1 -0.620 3.618 9.770 
111 1 0.292 -3.388 10.608 
112 1 8.462 11.381 9.334 
113 1 -10.493 3.313 -10.736 
114 1 6.001 4.596 8.473 
115 1 -7.280 -6.965 -10.686 
116 1 0.717 -3.439 -2.453 
117 1 7.775 -2.269 4.368 
118 1 -6.534 -2.963 -2.085 
119 1 9.587 -10.514 -10.003 
120 1 -3.935 -2.628 5.755 
121 1 4.442 3.609 -12.138 
122 1 -6.925 7.975 -4.661 
123 1 -4.546 9.454 1.363 
124 1 3.343 3.640 5.835 
125 1 0.779 -3.890 -7.736 
126 1 -9.047 -5.759 8.527 
127 1 -2.573 2.397 6.895 
128 1 -12.626 10.690 -4.518 
129 1 -0.750 9.959 -12.554 
130 1 10.149 -3.605 -9.780 
131 1 -1.552 -0.031 4.079 
132 1 -8.990 10.097 6.331 
133 1 6.979 -1.474 -9.391 
134 1 11.569 -12.187 10.129 
135 1 11.600 -4.691 4.003 
136 1 -2.191 -0.851 8.863 
137 1 0.779 4.422 1.293 
138 1 -1.661 11.555 -2.308 
139 1 -4.506 -9.289 -9.380 
140 1 -0.539 12.068 9.646 
141 1 -5.097 -0.654 -4.656 
142 1 -8.320 0.213 5.166 
143 1 -4.910 -6.870 -2.652 
144 1 -3.274 11.605 7.028 
145 1 -8.444 6.448 6.526 
146 1 -5.638 -4.470 -5.561 
147 1 -9.455 -3.466 -5.213 
148 1 0.215 5.875 5.364 
149 1 -6.461 -3.159 -11.839 
150 1 -4.265 -7.267 6.191 
151 1 4.752 1.442 0.590 
152 1 -8.139 3.810 3.864 
153 1 1.124 -0.548 6.941 
154 1 -2.115 -9.569 -12.325 
155 1 -3.208 6.028 11.794 
156 1 0.315 6.868 -1.781 
157 1 10.104 8.780 -11.340 
158 1 -3.000 -2.626 12.297 
159 1 -10.786 6.401 -8.384 
160 1 -5.922 -3.266 9.689 
161 1 -6.036 -10.008 -12.740 
162 1 4.140 -7.617 4.658 
163 1 -0.910 -6.052 -5.222 
164 1 5.435 9.177 9.094 
165 1 -3.379 9.316 -4.976 
166 1 -3.836 -6.243 -11.902 
167 1 -2.199 3.790 3.459 
168 1 -1.650 7.126 1.416 
169 1 -4.637 -1.808 2.109 
170 1 -7.547 7.970 3.283 
171 1 1.673 0.268 -1.183 
172 1 2.915 9.278 6.415 
173 1 -3.564 7.144 -1.825 
174 1 -11.640 -2.869 -10.879 
175 1 8.783 -3.031 10.998 
176 1 2.597 1.950 10.444 
177 1 8.896 11.437 -8.895 
178 1 1.894 1.399 3.140 
179 1 -5.452 -10.851 5.301 
180 1 -2.960 -3.743 -2.381 
181 1 9.044 -10.942 7.285 
182 1 -5.984 -5.227 3.630 
183 1 5.937 1.549 4.091 
184 1 -1.563 9.138 -8.335 
185 1 11.898 0.313 0.163 
186 1 -1.880 12.565 -6.213 
187 1 -3.829 -12.110 10.490 
188 1 7.055 5.064 4.922 
189 1 8.884 7.869 7.962 
190 1 3.436 -11.243 5.081 
191 1 -2.571 -12.699 3.592 
192 1 -5.432 -1.858 -8.313 
193 1 -8.078 -10.444 -9.094 
194 1 3.361 9.628 -3.465 
195 1 -11.259 1.729 6.923 
196 1 -3.248 9.444 10.096 
197 1 -4.208 2.519 10.260 
198 1 -0.810 0.578 12.067 
199 1 8.256 0.075 1.465 
200 1 4.656 -11.755 -5.905 
ITEM: TIMESTEP
80
ITEM: NUMBER OF ATOMS
200
ITEM: BOX BOUNDS pp pp pp
-12.74986103408113 12.74986103408113
-12.74986103408113 12.74986103408113
-12.74986103408113 12.74986103408113
ITEM: ATOMS id type x y z
1 1 4.263 4.667 2.416 
2 1 2.065 9.973 0.170 
3 1 1.658 1.537 -10.499 
4 1 -2.662 6.101 8.083 
5 1 -8.187 -2.433 2.507 
6 1 2.997 12.378 8.713 
7 1 3.795 -1.492 4.459 
8 1 1.761 9.166 10.252 
9 1 4.197 11.037 3.260 
10 1 -7.115 7.517 -0.643 
11 1 0.176 -9.743 4.464 
12 1 9.383 11.082 5.705 
13 1 -7.512 -5.613 0.304 
14 1 -11.663 -7.093 6.212 
15 1 6.344 1.524 10.815 
16 1 -0.155 12.525 -9.679 
17 1 -3.558 -9.719 -0.649 
18 1 -0.905 -10.298 -3.328 
19 1 -4.953 1.476 4.201 
20 1 -1.681 -0.320 -2.892 
21 1 0.533 -2.202 -11.311 
22 1 -1.422 -7.201 -8.709 
23 1 8.048 7.714 -8.424 
24 1 11.626 8.793 -7.669 
25 1 -8.013 9.077 9.903 
26 1 6.061 -11.914 -10.700 
27 1 -11.009 0.895 2.928 
28 1 -10.001 9.864 -7.186 
29 1 -1.412 6.299 -5.037 
30 1 -7.547 -3.256 6.276 
31 1 -7.388 0.988 1.398 
32 1 0.391 9.335 3.636 
33 1 -0.840 -0.402 -8.421 
34 1 -10.264 5.997 9.742 
35 1 -2.276 -10.459 7.306 
36 1 -9.449 2.518 10.865 
37 1 3.121 -5.988 11.540 
38 1 -3.079 -8.943 2.937 
39 1 -7.638 2.973 7.578 
40 1 -0.229 4.238 -12.175 
41 1 -1.192 -6.906 -1.621 
42 1 12.525 12.370 -8.319 
43 1 -11.735 -2.737 1.475 
44 1 3.141 -1.313 -8.652 
45 1 2.181 -12.273 -2.011 
46 1 -6.604 12.273 8.122 
47 1 -7.840 -7.870 5.697 
48 1 4.021 -11.072 1.319 
49 1 4.778 0.638 7.502 
50 1 4.237 8.009 -8.986 
51 1 -3.081 8.058 4.656 
52 1 2.197 5.897 8.611 
53 1 6.306 -9.102 -8.179 
54 1 8.393 10.808 2.083 
55 1 3.254 -4.660 -10.448 
56 1 -6.703 -0.075 11.449 
57 1 6.434 8.690 5.085 
58 1 12.734 -0.871 -7.826 
59 1 4.060 -8.355 -11.104 
60 1 -1.631 1.556 0.536 
61 1 11.477 8.887 3.532 
62 1 -8.522 -3.775 -8.774 
63 1 5.931 11.939 6.693 
64 1 -6.649 -8.702 2.201 
65 1 -6.231 5.717 9.544 
66 1 -8.744 11.136 -3.792 
67 1 9.345 1.897 5.237 
68 1 11.277 1.901 -5.562 
69 1 -0.091 -5.847 -11.893 
70 1 -5.538 8.579 7.147 
71 1 11.272 -0.942 3.741 
72 1 6.994 -11.608 3.728 
73 1 -5.441 -12.281 1.319 
74 1 -8.362 -0.152 -10.276 
75 1 0.020 -9.711 0.545 
76 1 9.153 12.318 -12.566 
77 1 -3.732 -5.734 0.782 
78 1 2.294 -7.373 -7.883 
79 1 5.993 -10.013 11.485 
80 1 -11.000 -2.325 5.159 
81 1 -2.539 -3.723 -9.595 
82 1 -5.812 11.069 4.453 
83 1 -4.446 -11.748 -3.708 
84 1 -5.576 -0.054 7.746 
85 1 -11.678 9.559 -10.597 
86 1 -3.494 -8.641 -5.683 
87 1 -5.120 7.616 -7.855 
88 1 -0.220 3.285 -2.628 
89 1 -2.208 -2.683 -5.888 
90 1 3.268 4.212 -1.447 
91 1 11.248 -8.497 3.644 
92 1 0.382 12.373 5.956 
93 1 -7.602 4.580 -8.193 
94 1 11.226 5.024 -7.827 
95 1 0.913 12.716 2.368 
96 1 -8.906 4.830 -4.623 
97 1 -5.244 4.977 5.491 
98 1 -10.912 2.744 -7.163 
99 1 -5.407 10.616 -1.974 
100 1 1.223 -0.989 -5.298 
101 1 -0.658 8.871 7.409 
102 1 -9.808 -5.591 3.387 
103 1 -12.086 -4.633 -7.664 
104 1 -8.110 8.306 -10.126 
105 1 -5.911 -9.429 8.754 
106 1 6.823 -5.698 -9.946 
107 1 -1.174 -2.186 0.511 
108 1 6.511 9.839 -11.448 
109 1 -4.989 5.508 1.813 
110 1 -0.616 3.614 9.688 
111 1 0.355 -3.245 10.610 
112 1 8.386 11.282 9.395 
113 1 -10.235 3.370 -10.806 
114 1 5.753 4.571 8.545 
115 1 -7.273 -6.851 -10.601 
116 1 0.567 -3.492 -2.621 
117 1 7.662 -1.881 4.573 
118 1 -6.676 -2.945 -2.051 
119 1 9.534 -10.515 -9.911 
120 1 -3.881 -2.611 5.704 
121 1 4.223 3.718 -12.322 
122 1 -6.828 7.984 -4.508 
123 1 -4.441 9.458 1.380 
124 1 3.179 3.597 5.870 
125 1 0.690 -3.959 -7.833 
126 1 -8.880 -5.787 8.632 
127 1 -2.537 2.317 6.831 
128 1 -12.603 10.781 -4.676 
129 1 -0.884 9.948 -12.575 
130 1 10.296 -3.535 -9.785 
131 1 -1.574 -0.060 3.984 
132 1 -8.967 10.055 6.241 
133 1 6.832 -1.825 -9.565 
134 1 11.444 -12.137 10.021 
135 1 11.767 -4.707 4.024 
136 1 -2.200 -0.856 8.905 
137 1 0.754 4.375 1.211 
138 1 -1.596 11.540 -2.168 
139 1 -4.472 -9.175 -9.355 
140 1 -0.602 12.058 9.683 
141 1 -5.089 -0.756 -4.603 
142 1 -8.233 0.165 5.140 
143 1 -5.016 -6.895 -2.608 
144 1 -3.275 11.490 6.989 
145 1 -8.527 6.362 6.548 
146 1 -5.470 -4.503 -5.533 
147 1 -9.162 -3.334 -5.125 
148 1 0.210 5.935 5.359 
149 1 -6.338 -3.223 -11.795 
150 1 -4.141 -7.282 6.186 
151 1 4.681 1.339 0.610 
152 1 -8.191 3.758 3.835 
153 1 1.008 0.076 6.889 
154 1 -2.054 -9.587 -12.282 
155 1 -3.125 5.996 11.713 
156 1 0.449 7.011 -1.742 
157 1 10.198 8.847 -11.295 
158 1 -2.919 -2.571 12.324 
159 1 -10.859 6.415 -8.360 
160 1 -5.680 -3.312 9.664 
161 1 -5.910 -9.733 12.701 
162 1 4.018 -7.793 4.465 
163 1 -0.882 -6.047 -5.166 
164 1 5.392 8.988 9.076 
165 1 -3.397 9.510 -4.929 
166 1 -3.859 -6.269 -11.975 
167 1 -2.152 3.831 3.486 
168 1 -1.570 7.096 1.375 
169 1 -4.580 -1.799 2.041 
170 1 -7.312 7.855 3.400 
171 1 1.533 0.238 -1.075 
172 1 2.960 9.311 6.388 
173 1 -3.501 7.280 -1.835 
174 1 -11.463 -2.676 -10.887 
175 1 8.678 -2.945 11.285 
176 1 2.579 1.944 10.269 
177 1 8.851 11.415 -8.853 
178 1 1.811 1.410 3.131 
179 1 -5.415 -10.830 5.247 
180 1 -3.108 -3.742 -2.443 
181 1 8.842 -11.028 7.226 
182 1 -5.933 -5.231 3.663 
183 1 5.817 1.598 4.094 
184 1 -1.588 9.210 -8.268 
185 1 11.887 0.330 0.216 
186 1 -1.769 12.680 -6.140 
187 1 -3.887 -12.141 10.484 
188 1 7.021 5.009 5.051 
189 1 8.774 7.785 7.821 
190 1 3.407 -11.386 5.137 
191 1 -2.504 -12.695 3.590 
192 1 -5.382 -1.783 -8.261 
193 1 -8.029 -10.410 -9.286 
194 1 3.006 9.667 -3.471 
195 1 -11.179 1.726 6.769 
196 1 -3.353 9.404 10.052 
197 1 -4.203 2.539 10.174 
198 1 -0.725 0.622 12.035 
199 1 8.319 0.301 1.598 
200 1 4.506 -11.788 -5.970 
ITEM: TIMESTEP
90
ITEM: NUMBER OF ATOMS
200
ITEM: BOX BOUNDS pp pp pp
-12.74986103408113 12.74986103408113
-12.74986103408113 12.74986103408113
-12.74986103408113 12.74986103408113
ITEM: ATOMS id type x y z
1 1 4.168 4.661 2.469 
2 1 1.873 9.840 0.239 
3 1 1.689 1.376 -10.721 
4 1 -2.757 6.050 7.953 
5 1 -8.143 -2.440 2.499 
6 1 2.972 12.393 8.742 
7 1 3.669 -1.447 4.524 
8 1 1.782 9.219 10.345 
9 1 4.201 11.015 3.173 
10 1 -7.076 7.572 -0.546 
11 1 0.216 -9.771 4.429 
12 1 9.374 11.031 5.809 
13 1 -7.542 -5.617 0.342 
14 1 -11.566 -7.038 6.315 
15 1 6.292 1.510 10.878 
16 1 -0.306 12.611 -9.754 
17 1 -3.609 -9.672 -0.640 
18 1 -0.930 -10.268 -3.276 
19 1 -4.935 1.480 4.123 
20 1 -1.730 -0.298 -2.873 
21 1 0.557 -2.196 -11.318 
22 1 -1.417 -7.161 -8.694 
23 1 8.073 7.682 -8.479 
24 1 11.641 8.763 -7.688 
25 1 -7.954 9.105 9.866 
26 1 6.035 -11.956 -10.609 
27 1 -10.929 0.796 2.859 
28 1 -9.930 9.827 -7.201 
29 1 -1.502 6.385 -4.971 
30 1 -7.519 -3.281 6.308 
31 1 -7.333 0.978 1.346 
32 1 0.345 9.358 3.695 
33 1 -0.908 -0.388 -8.489 
34 1 -10.108 5.942 9.897 
35 1 -2.264 -10.531 7.271 
36 1 -9.242 2.433 10.896 
37 1 3.064 -5.924 11.551 
38 1 -3.013 -8.916 2.931 
39 1 -7.571 2.934 7.556 
40 1 -0.003 4.283 -12.305 
41 1 -1.221 -6.874 -1.600 
42 1 12.510 12.330 -8.384 
43 1 -11.685 -2.736 1.474 
44 1 3.120 -1.318 -8.599 
45 1 1.908 -12.341 -1.700 
46 1 -6.601 12.275 8.054 
47 1 -7.781 -7.850 5.688 
48 1 3.988 -10.983 1.410 
49 1 4.849 0.620 7.505 
50 1 4.265 8.059 -9.019 
51 1 -3.027 8.030 4.630 
52 1 2.106 6.012 8.573 
53 1 6.236 -9.076 -8.159 
54 1 8.092 10.658 2.277 
55 1 3.304 -4.645 -10.430 
56 1 -6.511 -0.164 11.485 
57 1 6.398 8.607 4.986 
58 1 -12.596 -0.775 -7.866 
59 1 4.094 -8.356 -11.167 
60 1 -1.798 1.505 0.583 
61 1 11.340 8.812 3.563 
62 1 -8.455 -3.737 -8.736 
63 1 5.902 11.796 6.685 
64 1 -6.586 -8.703 2.174 
65 1 -6.197 5.745 9.535 
66 1 -8.715 11.129 -3.805 
67 1 9.261 1.852 5.217 
68 1 11.300 1.898 -5.603 
69 1 -0.106 -5.788 -11.871 
70 1 -5.609 8.516 7.110 
71 1 11.292 -0.966 3.760 
72 1 6.952 -11.603 3.810 
73 1 -5.399 -12.304 1.287 
74 1 -8.392 -0.205 -10.325 
75 1 -0.016 -9.769 0.513 
76 1 9.136 12.380 -12.545 
77 1 -3.757 -5.681 0.773 
78 1 2.320 -7.388 -7.920 
79 1 6.102 -10.211 11.508 
80 1 -10.958 -2.312 5.179 
81 1 -2.583 -3.706 -9.627 
82 1 -5.814 11.098 4.402 
83 1 -4.399 -11.766 -3.694 
84 1 -5.556 -0.072 7.733 
85 1 -11.592 9.507 -10.593 
86 1 -3.496 -8.620 -5.648 
87 1 -5.056 7.610 -7.738 
88 1 -0.345 3.348 -2.469 
89 1 -2.202 -2.674 -5.901 
90 1 3.278 4.179 -1.477 
91 1 11.276 -8.501 3.813 
92 1 0.316 12.265 6.038 
93 1 -7.572 4.680 -8.276 
94 1 11.178 4.993 -7.886 
95 1 0.953 12.716 2.332 
96 1 -9.030 4.985 -4.807 
97 1 -5.185 5.013 5.485 
98 1 -10.897 2.722 -7.270 
99 1 -5.418 10.683 -1.893 
100 1 1.138 -0.955 -5.339 
101 1 -0.561 8.919 7.462 
102 1 -9.780 -5.566 3.431 
103 1 -12.000 -4.525 -7.646 
104 1 -8.059 8.118 -10.088 
105 1 -5.892 -9.422 8.718 
106 1 6.875 -5.794 -10.037 
107 1 -1.182 -2.230 0.478 
108 1 6.554 9.827 -11.507 
109 1 -4.898 5.430 1.699 
110 1 -0.604 3.600 9.605 
111 1 0.410 -3.159 10.604 
112 1 8.280 11.202 9.473 
113 1 -10.099 3.416 -10.879 
114 1 5.579 4.541 8.634 
115 1 -7.244 -6.799 -10.560 
116 1 0.508 -3.476 -2.681 
117 1 7.583 -1.621 4.740 
118 1 -6.718 -2.923 -1.966 
119 1 9.487 -10.508 -9.839 
120 1 -3.862 -2.629 5.675 
121 1 4.041 3.837 -12.471 
122 1 -6.739 7.977 -4.384 
123 1 -4.335 9.472 1.416 
124 1 3.074 3.551 5.945 
125 1 0.655 -3.978 -7.883 
126 1 -8.700 -5.842 8.717 
127 1 -2.549 2.306 6.802 
128 1 -12.573 10.831 -4.762 
129 1 -0.987 9.929 -12.589 
130 1 10.365 -3.459 -9.810 
131 1 -1.556 -0.104 3.986 
132 1 -8.956 10.015 6.191 
133 1 6.725 -2.006 -9.745 
134 1 11.321 -12.129 9.948 
135 1 11.883 -4.731 4.035 
136 1 -2.157 -0.860 8.870 
137 1 0.718 4.296 1.111 
138 1 -1.585 11.519 -2.042 
139 1 -4.457 -9.119 -9.341 
140 1 -0.625 12.022 9.656 
141 1 -5.120 -0.825 -4.565 
142 1 -8.133 0.154 5.128 
143 1 -5.085 -6.876 -2.588 
144 1 -3.197 11.426 6.952 
145 1 -8.587 6.337 6.568 
146 1 -5.407 -4.551 -5.579 
147 1 -9.001 -3.222 -5.094 
148 1 0.230 5.958 5.306 
149 1 -6.246 -3.242 -11.741 
150 1 -4.072 -7.283 6.184 
151 1 4.653 1.315 0.603 
152 1 -8.231 3.703 3.813 
153 1 0.951 0.510 6.899 
154 1 -1.994 -9.589 -12.217 
155 1 -3.040 5.963 11.672 
156 1 0.456 7.003 -1.767 
157 1 10.257 8.912 -11.296 
158 1 -2.877 -2.532 12.311 
159 1 -10.899 6.387 -8.330 
160 1 -5.532 -3.367 9.628 
161 1 -5.827 -9.583 12.656 
162 1 3.912 -7.960 4.248 
163 1 -0.873 -6.044 -5.154 
164 1 5.350 8.820 9.066 
165 1 -3.401 9.656 -4.874 
166 1 -3.846 -6.271 -12.020 
167 1 -2.098 3.840 3.491 
168 1 -1.520 7.120 1.406 
169 1 -4.553 -1.788 2.003 
170 1 -7.100 7.760 3.502 
171 1 1.437 0.287 -0.980 
172 1 2.919 9.355 6.370 
173 1 -3.472 7.384 -1.798 
174 1 -11.372 -2.628 -10.912 
175 1 8.573 -2.889 11.605 
176 1 2.573 1.954 10.155 
177 1 8.826 11.397 -8.834 
178 1 1.763 1.437 3.106 
179 1 -5.384 -10.813 5.203 
180 1 -3.164 -3.730 -2.466 
181 1 8.684 -11.086 7.268 
182 1 -5.906 -5.229 3.680 
183 1 5.702 1.634 4.087 
184 1 -1.592 9.288 -8.207 
185 1 11.884 0.322 0.236 
186 1 -1.665 -12.749 -6.103 
187 1 -3.930 -12.150 10.477 
188 1 6.952 4.958 5.163 
189 1 8.709 7.728 7.740 
190 1 3.422 -11.484 5.177 
191 1 -2.494 -12.692 3.584 
192 1 -5.351 -1.714 -8.234 
193 1 -7.990 -10.399 -9.424 
194 1 2.703 9.744 -3.456 
195 1 -11.122 1.734 6.646 
196 1 -3.439 9.365 10.024 
197 1 -4.200 2.552 10.122 
198 1 -0.717 0.639 11.959 
199 1 8.338 0.438 1.671 
200 1 4.413 -11.792 -6.089 
ITEM: TIMESTEP
100
ITEM: NUMBER OF ATOMS
200
ITEM: BOX BOUNDS pp pp pp
-12.74986103408113 12.74986103408113
-12.74986103408113 12.74986103408113
-12.74986103408113 12.74986103408113
ITEM: ATOMS id type x y z
1 1 4.048 4.694 2.512 
2 1 1.715 9.715 0.299 
3 1 1.770 1.340 -10.864 
4 1 -2.755 6.030 7.896 
5 1 -8.114 -2.454 2.461 
6 1 2.957 12.399 8.771 
7 1 3.559 -1.411 4.617 
8 1 1.793 9.257 10.439 
9 1 4.164 10.985 3.141 
10 1 -7.033 7.629 -0.418 
11 1 0.235 -9.803 4.438 
12 1 9.351 11.007 5.888 
13 1 -7.580 -5.650 0.365 
14 1 -11.459 -6.968 6.427 
15 1 6.230 1.471 10.972 
16 1 -0.495 12.720 -9.846 
17 1 -3.655 -9.620 -0.643 
18 1 -0.926 -10.265 -3.211 
19 1 -4.913 1.484 3.999 
20 1 -1.771 -0.292 -2.861 
21 1 0.573 -2.202 -11.338 
22 1 -1.419 -7.151 -8.680 
23 1 8.105 7.652 -8.562 
24 1 11.658 8.739 -7.706 
25 1 -7.920 9.134 9.874 
26 1 5.983 -12.007 -10.495 
27 1 -10.868 0.740 2.794 
28 1 -9.860 9.763 -7.204 
29 1 -1.628 6.481 -4.981 
30 1 -7.515 -3.320 6.327 
31 1 -7.299 0.963 1.272 
32 1 0.296 9.393 3.742 
33 1 -0.936 -0.371 -8.560 
34 1 -9.948 5.884 10.023 
35 1 -2.271 -10.587 7.251 
36 1 -8.987 2.363 10.939 
37 1 3.047 -5.846 11.555 
38 1 -2.972 -8.878 2.932 
39 1 -7.499 2.911 7.538 
40 1 0.177 4.311 -12.476 
41 1 -1.243 -6.846 -1.597 
42 1 12.494 12.292 -8.484 
43 1 -11.663 -2.757 1.472 
44 1 3.105 -1.306 -8.596 
45 1 1.785 -12.380 -1.450 
46 1 -6.586 12.274 7.986 
47 1 -7.733 -7.851 5.670 
48 1 3.959 -10.928 1.477 
49 1 4.905 0.644 7.516 
50 1 4.303 8.122 -9.060 
51 1 -2.955 7.988 4.573 
52 1 2.047 6.104 8.573 
53 1 6.163 -9.030 -8.156 
54 1 7.955 10.610 2.372 
55 1 3.368 -4.630 -10.420 
56 1 -6.288 -0.259 11.517 
57 1 6.287 8.502 4.978 
58 1 -12.450 -0.715 -7.930 
59 1 4.126 -8.374 -11.252 
60 1 -2.011 1.460 0.620 
61 1 11.151 8.704 3.592 
62 1 -8.400 -3.697 -8.703 
63 1 5.859 11.679 6.701 
64 1 -6.532 -8.711 2.149 
65 1 -6.142 5.760 9.530 
66 1 -8.677 11.106 -3.827 
67 1 9.207 1.879 5.241 
68 1 11.358 1.902 -5.658 
69 1 -0.085 -5.783 -11.841 
70 1 -5.695 8.499 7.123 
71 1 11.293 -0.964 3.792 
72 1 6.905 -11.616 3.873 
73 1 -5.368 -12.303 1.262 
74 1 -8.359 -0.191 -10.361 
75 1 -0.077 -9.742 0.567 
76 1 9.091 12.465 -12.525 
77 1 -3.780 -5.626 0.752 
78 1 2.337 -7.402 -7.992 
79 1 6.271 -10.480 11.532 
80 1 -10.931 -2.290 5.178 
81 1 -2.614 -3.703 -9.645 
82 1 -5.823 11.114 4.365 
83 1 -4.346 -11.796 -3.692 
84 1 -5.547 -0.104 7.736 
85 1 -11.518 9.439 -10.592 
86 1 -3.509 -8.595 -5.607 
87 1 -5.018 7.617 -7.622 
88 1 -0.495 3.342 -2.458 
89 1 -2.204 -2.647 -5.930 
90 1 3.232 4.145 -1.539 
91 1 11.326 -8.510 4.000 
92 1 0.282 12.253 6.075 
93 1 -7.514 4.672 -8.311 
94 1 11.153 4.980 -7.953 
95 1 0.954 12.718 2.326 
96 1 -9.183 5.217 -4.988 
97 1 -5.177 4.971 5.446 
98 1 -10.843 2.711 -7.367 
99 1 -5.455 10.743 -1.814 
100 1 1.082 -0.903 -5.378 
101 1 -0.552 8.893 7.525 
102 1 -9.750 -5.546 3.473 
103 1 -11.949 -4.444 -7.629 
104 1 -8.005 8.017 -10.081 
105 1 -5.878 -9.415 8.688 
106 1 6.945 -5.892 -10.186 
107 1 -1.190 -2.264 0.458 
108 1 6.592 9.824 -11.582 
109 1 -4.803 5.367 1.636 
110 1 -0.601 3.590 9.474 
111 1 0.457 -3.085 10.576 
112 1 8.152 11.113 9.567 
113 1 -9.990 3.484 -10.955 
114 1 5.442 4.515 8.789 
115 1 -7.200 -6.760 -10.538 
116 1 0.475 -3.443 -2.725 
117 1 7.504 -1.504 4.864 
118 1 -6.710 -2.847 -1.773 
119 1 9.420 -10.494 -9.764 
120 1 -3.857 -2.657 5.652 
121 1 3.985 4.002 -12.632 
122 1 -6.643 7.951 -4.240 
123 1 -4.209 9.521 1.444 
124 1 3.064 3.588 6.009 
125 1 0.641 -3.984 -7.924 
126 1 -8.463 -5.937 8.802 
127 1 -2.624 2.289 6.789 
128 1 -12.531 10.876 -4.843 
129 1 -1.090 9.909 -12.606 
130 1 10.398 -3.371 -9.860 
131 1 -1.530 -0.142 4.002 
132 1 -8.953 9.983 6.149 
133 1 6.614 -2.142 -9.993 
134 1 11.191 -12.161 9.890 
135 1 11.961 -4.746 4.064 
136 1 -2.112 -0.878 8.812 
137 1 0.667 4.181 1.015 
138 1 -1.630 11.465 -1.872 
139 1 -4.452 -9.094 -9.326 
140 1 -0.663 11.994 9.660 
141 1 -5.172 -0.913 -4.527 
142 1 -8.037 0.133 5.106 
143 1 -5.157 -6.836 -2.578 
144 1 -3.176 11.364 6.914 
145 1 -8.608 6.304 6.573 
146 1 -5.344 -4.616 -5.670 
147 1 -8.818 -3.075 -5.061 
148 1 0.274 6.000 5.268 
149 1 -6.156 -3.249 -11.673 
150 1 -4.024 -7.274 6.189 
151 1 4.628 1.340 0.586 
152 1 -8.218 3.662 3.806 
153 1 0.884 0.678 6.913 
154 1 -1.928 -9.582 -12.127 
155 1 -2.929 5.943 11.604 
156 1 0.427 6.940 -1.827 
157 1 10.314 9.004 -11.316 
158 1 -2.840 -2.499 12.287 
159 1 -10.897 6.355 -8.332 
160 1 -5.389 -3.438 9.567 
161 1 -5.755 -9.498 12.618 
162 1 3.804 -8.094 4.036 
163 1 -0.884 -6.021 -5.157 
164 1 5.288 8.637 9.038 
165 1 -3.420 9.806 -4.814 
166 1 -3.810 -6.266 -12.063 
167 1 -2.027 3.842 3.506 
168 1 -1.445 7.137 1.410 
169 1 -4.535 -1.776 1.969 
170 1 -6.959 7.701 3.531 
171 1 1.324 0.396 -0.847 
172 1 2.883 9.379 6.376 
173 1 -3.450 7.489 -1.756 
174 1 -11.299 -2.642 -10.946 
175 1 8.425 -2.859 12.090 
176 1 2.577 1.969 10.105 
177 1 8.796 11.380 -8.821 
178 1 1.742 1.481 3.140 
179 1 -5.361 -10.801 5.163 
180 1 -3.199 -3.722 -2.505 
181 1 8.492 -11.139 7.366 
182 1 -5.887 -5.233 3.682 
183 1 5.611 1.654 4.072 
184 1 -1.593 9.378 -8.133 
185 1 11.870 0.299 0.261 
186 1 -1.559 -12.689 -6.088 
187 1 -3.964 -12.171 10.464 
188 1 6.837 4.895 5.315 
189 1 8.667 7.678 7.695 
190 1 3.410 -11.562 5.228 
191 1 -2.483 -12.690 3.572 
192 1 -5.317 -1.643 -8.217 
193 1 -7.960 -10.400 -9.572 
194 1 2.340 9.864 -3.443 
195 1 -11.054 1.768 6.524 
196 1 -3.515 9.330 9.999 
197 1 -4.187 2.559 10.105 
198 1 -0.707 0.659 11.886 
199 1 8.332 0.507 1.736 
200 1 4.327 -11.815 -6.284 
