ITEM: TIMESTEP
0
ITEM: NUMBER OF ATOMS
200
ITEM: BOX BOUNDS pp pp pp
-12.74986103408113 12.74986103408113
-12.74986103408113 12.74986103408113
-12.74986103408113 12.74986103408113
ITEM: ATOMS id type x y z
1 1 4.048 4.694 2.512 
2 1 1.715 9.715 0.299 
3 1 1.770 1.340 -10.864 
4 1 -2.755 6.030 7.896 
5 1 -8.114 -2.454 2.461 
6 1 2.957 12.399 8.771 
7 1 3.559 -1.411 4.617 
8 1 1.793 9.257 10.439 
9 1 4.164 10.985 3.141 
10 1 -7.033 7.629 -0.418 
11 1 0.235 -9.803 4.438 
12 1 9.351 11.007 5.888 
13 1 -7.580 -5.650 0.365 
14 1 -11.459 -6.968 6.427 
15 1 6.230 1.471 10.972 
16 1 -0.495 12.720 -9.846 
17 1 -3.655 -9.620 -0.643 
18 1 -0.926 -10.265 -3.211 
19 1 -4.913 1.484 3.999 
20 1 -1.771 -0.292 -2.861 
21 1 0.573 -2.202 -11.338 
22 1 -1.419 -7.151 -8.680 
23 1 8.105 7.652 -8.562 
24 1 11.658 8.739 -7.706 
25 1 -7.920 9.134 9.874 
26 1 5.983 -12.007 -10.495 
27 1 -10.868 0.740 2.794 
28 1 -9.860 9.763 -7.204 
29 1 -1.628 6.481 -4.981 
30 1 -7.515 -3.320 6.327 
31 1 -7.299 0.963 1.272 
32 1 0.296 9.393 3.742 
33 1 -0.936 -0.371 -8.560 
34 1 -9.948 5.884 10.023 
35 1 -2.271 -10.587 7.251 
36 1 -8.987 2.363 10.939 
37 1 3.047 -5.846 11.555 
38 1 -2.972 -8.878 2.932 
39 1 -7.499 2.911 7.538 
40 1 0.177 4.311 -12.476 
41 1 -1.243 -6.846 -1.597 
42 1 12.494 12.292 -8.484 
43 1 -11.663 -2.757 1.472 
44 1 3.105 -1.306 -8.596 
45 1 1.785 -12.380 -1.450 
46 1 -6.586 12.274 7.986 
47 1 -7.733 -7.851 5.670 
48 1 3.959 -10.928 1.477 
49 1 4.905 0.644 7.516 
50 1 4.303 8.122 -9.060 
51 1 -2.955 7.988 4.573 
52 1 2.047 6.104 8.573 
53 1 6.163 -9.030 -8.156 
54 1 7.955 10.610 2.372 
55 1 3.368 -4.630 -10.420 
56 1 -6.288 -0.259 11.517 
57 1 6.287 8.502 4.978 
58 1 -12.450 -0.715 -7.930 
59 1 4.126 -8.374 -11.252 
60 1 -2.011 1.460 0.620 
61 1 11.151 8.704 3.592 
62 1 -8.563 -3.808 -8.436 
63 1 5.859 11.679 6.701 
64 1 -6.532 -8.711 2.149 
65 1 -6.142 5.760 9.530 
66 1 -8.677 11.106 -3.827 
67 1 9.488 1.956 5.254 
68 1 11.358 1.902 -5.658 
69 1 -0.085 -5.783 -11.841 
70 1 -5.695 8.499 7.123 
71 1 11.293 -0.964 3.792 
72 1 6.905 -11.616 3.873 
73 1 -5.368 -12.303 1.262 
74 1 -8.359 -0.191 -10.361 
75 1 -0.077 -9.742 0.567 
76 1 9.091 12.465 -12.525 
77 1 -3.780 -5.626 0.752 
78 1 2.337 -7.402 -7.992 
79 1 6.271 -10.480 11.532 
80 1 -10.931 -2.290 5.178 
81 1 -2.614 -3.703 -9.645 
82 1 -5.823 11.114 4.365 
83 1 -4.346 -11.796 -3.692 
84 1 -5.547 -0.104 7.736 
85 1 -11.518 9.439 -10.592 
86 1 -3.509 -8.595 -5.607 
87 1 -5.018 7.617 -7.622 
88 1 -0.495 3.342 -2.458 
89 1 -2.204 -2.647 -5.930 
90 1 3.232 4.145 -1.539 
91 1 11.326 -8.510 4.000 
92 1 0.282 12.253 6.075 
93 1 -7.514 4.672 -8.311 
94 1 11.153 4.980 -7.953 
95 1 0.954 12.718 2.326 
96 1 -9.183 5.217 -4.988 
97 1 -5.177 4.971 5.446 
98 1 -10.843 2.711 -7.367 
99 1 -5.455 10.743 -1.814 
100 1 1.082 -0.903 -5.378 
101 1 -0.552 8.893 7.525 
102 1 -9.750 -5.546 3.473 
103 1 -11.949 -4.444 -7.629 
104 1 -8.005 8.017 -10.081 
105 1 -5.878 -9.415 8.688 
106 1 6.945 -5.892 -10.186 
107 1 -1.190 -2.264 0.458 
108 1 6.592 9.824 -11.582 
109 1 -4.803 5.367 1.636 
110 1 -0.601 3.590 9.474 
111 1 0.457 -3.085 10.576 
112 1 8.152 11.113 9.567 
113 1 -9.990 3.484 -10.955 
114 1 5.442 4.515 8.789 
115 1 -7.200 -6.760 -10.538 
116 1 0.475 -3.443 -2.725 
117 1 7.504 -1.504 4.864 
118 1 -6.710 -2.847 -1.773 
119 1 9.420 -10.494 -9.764 
120 1 -3.857 -2.657 5.652 
121 1 3.985 4.002 -12.632 
122 1 -6.643 7.951 -4.240 
123 1 -4.209 9.521 1.444 
124 1 3.064 3.588 6.009 
125 1 0.641 -3.984 -7.924 
126 1 -8.463 -5.937 8.802 
127 1 -2.624 2.289 6.789 
128 1 -12.531 10.876 -4.843 
129 1 -1.090 9.909 -12.606 
130 1 10.398 -3.371 -9.860 
131 1 -1.530 -0.142 4.002 
132 1 -8.953 9.983 6.149 
133 1 6.614 -2.142 -9.993 
134 1 11.191 -12.161 9.890 
135 1 11.961 -4.746 4.064 
136 1 -2.112 -0.878 8.812 
137 1 0.667 4.181 1.015 
138 1 -1.630 11.465 -1.872 
139 1 -4.452 -9.094 -9.326 
140 1 -0.663 11.994 9.660 
141 1 -5.172 -0.913 -4.527 
142 1 -8.037 0.133 5.106 
143 1 -5.157 -6.836 -2.578 
144 1 -3.176 11.364 6.914 
145 1 -8.608 6.304 6.573 
146 1 -5.344 -4.616 -5.670 
147 1 -8.818 -3.075 -5.061 
148 1 0.274 6.000 5.268 
149 1 -6.156 -3.249 -11.673 
150 1 -4.024 -7.274 6.189 
151 1 4.628 1.340 0.586 
152 1 -8.218 3.662 3.806 
153 1 0.884 0.678 6.913 
154 1 -1.928 -9.582 -12.127 
155 1 -2.929 5.943 11.604 
156 1 0.427 6.940 -1.827 
157 1 10.314 9.004 -11.316 
158 1 -2.840 -2.499 12.287 
159 1 -10.897 6.355 -8.332 
160 1 -5.389 -3.438 9.567 
161 1 -5.755 -9.498 12.618 
162 1 3.804 -8.094 4.036 
163 1 -0.884 -6.021 -5.157 
164 1 5.288 8.637 9.038 
165 1 -3.420 9.806 -4.814 
166 1 -3.810 -6.266 -12.063 
167 1 -2.027 3.842 3.506 
168 1 -1.445 7.137 1.410 
169 1 -4.535 -1.776 1.969 
170 1 -6.959 7.701 3.531 
171 1 1.324 0.396 -0.847 
172 1 2.883 9.379 6.376 
173 1 -3.450 7.489 -1.756 
174 1 -11.299 -2.642 -10.946 
175 1 8.425 -2.859 12.090 
176 1 2.577 1.969 10.105 
177 1 8.796 11.380 -8.821 
178 1 1.742 1.481 3.140 
179 1 -5.361 -10.801 5.163 
180 1 -3.199 -3.722 -2.505 
181 1 8.492 -11.139 7.366 
182 1 -5.887 -5.233 3.682 
183 1 5.611 1.654 4.072 
184 1 -1.593 9.378 -8.133 
185 1 11.870 0.299 0.261 
186 1 -1.559 -12.689 -6.088 
187 1 -3.964 -12.171 10.464 
188 1 6.837 4.895 5.315 
189 1 8.667 7.678 7.695 
190 1 3.410 -11.562 5.228 
191 1 -2.483 -12.690 3.572 
192 1 -5.317 -1.643 -8.217 
193 1 -7.960 -10.400 -9.572 
194 1 2.340 9.864 -3.443 
195 1 -11.054 1.768 6.524 
196 1 -3.515 9.330 9.999 
197 1 -4.187 2.559 10.105 
198 1 -0.707 0.659 11.886 
199 1 8.332 0.507 1.736 
200 1 4.327 -11.815 -6.284 
ITEM: TIMESTEP
1000
ITEM: NUMBER OF ATOMS
200
ITEM: BOX BOUNDS pp pp pp
-12.74986103408113 12.74986103408113
-12.74986103408113 12.74986103408113
-12.74986103408113 12.74986103408113
ITEM: ATOMS id type x y z
1 1 4.696 5.543 2.166 
2 1 1.399 9.761 -0.474 
3 1 1.822 1.118 -10.810 
4 1 -2.777 6.380 7.794 
5 1 -7.345 -1.970 2.541 
6 1 2.897 -12.551 8.846 
7 1 3.519 -2.213 5.833 
8 1 2.331 10.105 10.830 
9 1 3.854 11.821 2.331 
10 1 -6.441 8.153 -0.521 
11 1 0.328 -10.703 4.091 
12 1 10.121 10.568 6.614 
13 1 -7.148 -5.417 -0.001 
14 1 -10.577 -7.206 6.693 
15 1 6.337 1.681 11.301 
16 1 -0.537 -12.667 -10.911 
17 1 -3.641 -9.502 -0.554 
18 1 -0.997 -10.493 -3.518 
19 1 -5.621 1.766 3.309 
20 1 -2.380 -0.487 -2.741 
21 1 0.801 -1.992 -11.770 
22 1 -1.682 -6.822 -8.587 
23 1 7.761 7.178 -9.316 
24 1 11.816 8.652 -7.307 
25 1 -8.781 10.604 10.094 
26 1 6.276 -11.529 -10.026 
27 1 -11.456 0.958 3.540 
28 1 -10.081 9.797 -7.790 
29 1 -1.152 6.833 -5.278 
30 1 -7.244 -4.349 6.182 
31 1 -7.874 1.256 0.638 
32 1 0.798 9.161 3.257 
33 1 -1.210 -0.657 -8.540 
34 1 -9.825 5.718 10.200 
35 1 -1.682 -9.779 7.706 
36 1 -9.075 1.913 10.917 
37 1 3.676 -5.037 11.863 
38 1 -3.047 -8.789 2.533 
39 1 -7.532 3.111 7.718 
40 1 1.016 4.685 12.389 
41 1 -1.218 -7.057 -1.720 
42 1 11.066 12.015 -8.579 
43 1 -11.969 -3.431 1.209 
44 1 3.674 -0.703 -8.419 
45 1 2.461 -12.498 -2.035 
46 1 -7.205 12.354 7.908 
47 1 -7.556 -8.126 6.248 
48 1 3.753 -10.169 0.428 
49 1 5.254 0.996 7.596 
50 1 4.207 7.671 -9.072 
51 1 -2.570 8.133 4.626 
52 1 1.767 5.800 8.434 
53 1 5.867 -8.895 -7.315 
54 1 7.746 10.344 3.046 
55 1 3.057 -4.206 -9.845 
56 1 -6.179 -0.010 11.877 
57 1 7.074 7.745 4.847 
58 1 12.283 -0.609 -9.007 
59 1 4.182 -8.837 -12.123 
60 1 -1.908 1.072 0.592 
61 1 10.565 8.451 3.482 
62 1 -9.104 -4.255 -8.134 
63 1 6.152 11.415 6.839 
64 1 -7.935 -9.715 2.807 
65 1 -5.987 6.610 10.410 
66 1 -9.046 10.350 -2.922 
67 1 9.424 1.712 5.187 
68 1 10.627 2.226 -5.019 
69 1 0.319 -6.118 -11.837 
70 1 -5.694 8.328 6.685 
71 1 11.153 -0.879 3.839 
72 1 6.872 -11.941 4.267 
73 1 -5.128 -11.861 1.460 
74 1 -7.847 -0.356 -10.256 
75 1 -0.195 -9.627 0.354 
76 1 9.462 -12.303 -11.776 
77 1 -3.180 -5.278 0.872 
78 1 2.907 -7.629 -8.725 
79 1 6.516 -11.274 11.665 
80 1 -10.699 -1.909 5.719 
81 1 -1.703 -3.551 -9.884 
82 1 -5.634 10.854 4.407 
83 1 -4.624 -11.419 -3.664 
84 1 -6.725 -0.323 8.164 
85 1 -11.335 8.634 -11.400 
86 1 -3.492 -8.216 -5.684 
87 1 -4.812 6.971 -7.793 
88 1 -1.032 3.733 -2.439 
89 1 -2.196 -2.723 -5.899 
90 1 3.586 3.222 -2.350 
91 1 11.798 -9.610 4.284 
92 1 1.108 12.413 6.338 
93 1 -8.350 4.216 -8.671 
94 1 10.860 5.189 -8.249 
95 1 0.763 12.626 1.448 
96 1 -9.163 5.297 -5.450 
97 1 -5.035 5.168 5.338 
98 1 -11.235 3.211 -6.653 
99 1 -4.365 11.025 -1.574 
100 1 1.863 0.083 -5.378 
101 1 -0.108 8.675 7.777 
102 1 -9.711 -5.673 3.680 
103 1 12.713 -4.481 -7.967 
104 1 -7.380 8.266 -9.578 
105 1 -4.879 -9.775 8.903 
106 1 6.153 -6.141 -10.405 
107 1 0.095 -4.095 1.014 
108 1 6.863 9.375 -12.392 
109 1 -4.848 5.029 1.534 
110 1 -0.188 2.916 9.414 
111 1 1.072 -3.166 10.617 
112 1 8.290 11.617 9.584 
113 1 -10.672 3.224 -11.667 
114 1 4.875 4.984 9.291 
115 1 -7.550 -7.742 -10.016 
116 1 1.884 -4.851 -2.471 
117 1 7.316 -1.445 4.766 
118 1 -6.300 -2.257 -1.354 
119 1 9.408 -10.714 -9.030 
120 1 -3.367 -3.107 6.283 
121 1 5.037 4.392 12.617 
122 1 -7.178 8.773 -5.998 
123 1 -4.135 9.471 1.876 
124 1 3.469 3.544 6.025 
125 1 0.860 -4.020 -7.522 
126 1 -8.466 -6.921 9.334 
127 1 -2.729 2.636 6.567 
128 1 11.874 10.801 -4.968 
129 1 -2.280 9.430 -11.971 
130 1 10.443 -3.696 -10.875 
131 1 -1.832 0.178 4.497 
132 1 -8.870 10.583 5.368 
133 1 6.965 -2.290 -10.007 
134 1 12.125 12.395 10.781 
135 1 11.379 -4.952 3.897 
136 1 -2.033 0.037 9.173 
137 1 0.500 4.126 1.568 
138 1 -1.274 11.778 -1.482 
139 1 -4.725 -9.774 -8.761 
140 1 -0.602 12.058 11.170 
141 1 -5.639 -0.978 -4.645 
142 1 -8.227 0.468 4.816 
143 1 -5.424 -7.549 -2.678 
144 1 -3.473 11.717 6.842 
145 1 -8.579 6.984 7.201 
146 1 -5.744 -5.504 -5.661 
147 1 -8.387 -3.625 -3.942 
148 1 0.447 5.668 4.598 
149 1 -5.484 -2.854 -11.568 
150 1 -3.570 -6.962 6.284 
151 1 4.667 1.777 0.430 
152 1 -9.015 3.604 3.367 
153 1 1.208 0.489 6.468 
154 1 -2.377 -9.912 12.623 
155 1 -2.325 5.288 11.354 
156 1 1.304 6.454 -1.705 
157 1 10.383 8.929 -11.479 
158 1 -2.417 -3.109 12.152 
159 1 -11.283 6.564 -8.569 
160 1 -5.101 -3.525 9.547 
161 1 -5.901 -9.830 -12.608 
162 1 4.002 -8.293 4.722 
163 1 -0.078 -6.504 -5.304 
164 1 5.498 9.023 9.526 
165 1 -4.006 9.667 -5.272 
166 1 -3.663 -5.819 -12.155 
167 1 -2.595 3.741 3.641 
168 1 -1.067 7.195 0.755 
169 1 -4.124 -1.131 1.282 
170 1 -6.822 7.477 2.794 
171 1 1.316 0.722 -1.321 
172 1 2.940 8.086 6.446 
173 1 -3.307 7.196 -1.836 
174 1 -11.450 -2.890 -12.068 
175 1 7.970 -2.890 12.098 
176 1 2.491 1.522 10.577 
177 1 6.962 11.229 -6.446 
178 1 1.705 1.177 2.976 
179 1 -5.735 -10.840 5.200 
180 1 -3.347 -3.783 -2.801 
181 1 8.768 -10.572 7.971 
182 1 -5.698 -6.917 3.106 
183 1 5.937 2.008 3.389 
184 1 -1.707 9.082 -8.162 
185 1 12.368 0.477 0.149 
186 1 -1.501 12.519 -5.675 
187 1 -4.074 -12.314 10.948 
188 1 7.195 4.363 5.706 
189 1 7.665 6.908 8.414 
190 1 3.823 -11.502 5.577 
191 1 -1.992 11.656 3.322 
192 1 -4.968 -1.498 -8.618 
193 1 -7.676 -11.603 -10.257 
194 1 1.675 10.010 -3.902 
195 1 -11.234 2.018 7.036 
196 1 -4.042 9.906 9.574 
197 1 -4.447 2.370 10.078 
198 1 -0.614 0.981 11.879 
199 1 8.017 -0.156 1.981 
200 1 2.637 -10.969 -5.029 
ITEM: TIMESTEP
2000
ITEM: NUMBER OF ATOMS
200
ITEM: BOX BOUNDS pp pp pp
-12.74986103408113 12.74986103408113
-12.74986103408113 12.74986103408113
-12.74986103408113 12.74986103408113
ITEM: ATOMS id type x y z
1 1 3.285 5.940 1.797 
2 1 1.612 9.807 -0.212 
3 1 1.291 1.977 -9.980 
4 1 -2.679 6.578 8.336 
5 1 -7.598 -1.858 2.248 
6 1 3.005 12.527 9.250 
7 1 3.024 -3.217 5.148 
8 1 2.497 8.262 11.223 
9 1 4.022 11.580 2.462 
10 1 -6.752 8.814 -1.705 
11 1 -0.432 -10.826 4.249 
12 1 10.579 9.122 7.561 
13 1 -8.375 -6.387 -0.702 
14 1 -10.840 -6.795 6.863 
15 1 5.919 1.792 11.188 
16 1 -1.083 12.151 -10.566 
17 1 -4.028 -10.164 -0.863 
18 1 -1.232 -10.213 -3.191 
19 1 -5.537 1.598 3.448 
20 1 -2.424 -0.813 -3.057 
21 1 1.107 -1.459 -11.275 
22 1 -1.598 -7.365 -8.440 
23 1 8.279 7.701 -9.139 
24 1 11.468 8.351 -7.697 
25 1 -7.930 11.321 11.372 
26 1 7.513 -11.820 -9.170 
27 1 -11.263 0.876 3.888 
28 1 -10.867 11.339 -7.617 
29 1 -1.833 6.432 -5.892 
30 1 -6.060 -4.493 5.203 
31 1 -8.485 1.599 0.307 
32 1 1.107 8.820 3.632 
33 1 -1.853 0.304 -9.181 
34 1 -9.859 6.076 10.366 
35 1 -1.469 -9.610 7.483 
36 1 -9.592 1.705 11.192 
37 1 4.327 -3.785 12.114 
38 1 -3.648 -9.602 2.809 
39 1 -7.824 3.794 8.213 
40 1 1.753 4.686 12.026 
41 1 -1.723 -7.121 -1.899 
42 1 11.342 11.727 -8.117 
43 1 -12.361 -2.928 1.003 
44 1 4.447 -0.586 -8.173 
45 1 1.837 -12.385 -1.757 
46 1 -7.430 -12.632 8.182 
47 1 -8.060 -8.745 6.381 
48 1 3.104 -10.083 0.505 
49 1 5.569 1.156 7.468 
50 1 4.189 8.269 -9.964 
51 1 -2.606 9.161 5.812 
52 1 1.617 5.773 8.468 
53 1 4.648 -10.186 -8.105 
54 1 7.334 9.981 1.277 
55 1 3.145 -4.064 -9.908 
56 1 -5.884 0.020 12.413 
57 1 6.890 7.624 4.744 
58 1 -12.191 -0.008 -9.496 
59 1 3.336 -8.444 -12.230 
60 1 -2.160 1.484 0.306 
61 1 10.499 9.268 3.697 
62 1 -9.300 -3.665 -7.712 
63 1 5.954 12.322 7.304 
64 1 -8.214 -9.955 1.833 
65 1 -6.240 6.538 10.457 
66 1 -9.431 10.483 -2.623 
67 1 9.398 1.743 5.541 
68 1 10.542 3.235 -4.160 
69 1 -0.598 -6.753 -11.535 
70 1 -5.858 8.120 6.076 
71 1 10.190 -1.511 2.802 
72 1 7.231 -12.440 4.287 
73 1 -5.696 -12.026 1.191 
74 1 -8.135 -0.197 -9.829 
75 1 -0.196 -9.330 0.158 
76 1 10.120 -11.508 -12.609 
77 1 -3.684 -5.964 0.964 
78 1 2.070 -8.094 -8.453 
79 1 6.401 -11.264 11.862 
80 1 -9.990 -2.102 6.784 
81 1 -1.509 -3.449 -9.966 
82 1 -6.654 11.022 4.604 
83 1 -4.893 -11.518 -4.214 
84 1 -6.874 -0.868 9.216 
85 1 -11.047 9.120 -11.569 
86 1 -3.368 -8.432 -5.232 
87 1 -5.225 7.192 -7.961 
88 1 -0.739 3.180 -3.078 
89 1 -2.101 -2.996 -6.392 
90 1 3.344 3.514 -3.320 
91 1 12.350 -9.837 4.447 
92 1 0.432 12.317 6.633 
93 1 -8.224 3.484 -7.761 
94 1 10.980 5.000 -9.131 
95 1 0.068 12.252 1.836 
96 1 -9.437 5.012 -4.200 
97 1 -5.590 4.629 5.191 
98 1 -12.052 3.895 -5.862 
99 1 -4.250 11.313 -1.301 
100 1 1.793 -0.525 -5.033 
101 1 0.044 8.947 8.307 
102 1 -9.175 -5.522 2.901 
103 1 12.288 -4.334 -8.241 
104 1 -8.268 7.655 -9.863 
105 1 -5.044 -9.861 8.812 
106 1 6.612 -7.765 -10.637 
107 1 1.254 -3.391 0.962 
108 1 6.903 8.962 -11.871 
109 1 -5.003 4.540 1.503 
110 1 -0.075 2.924 8.885 
111 1 1.174 -3.169 11.000 
112 1 9.312 10.849 10.143 
113 1 -10.187 3.779 -11.625 
114 1 4.936 4.479 9.654 
115 1 -8.128 -7.443 -10.451 
116 1 1.856 -5.485 -1.685 
117 1 7.158 -1.897 4.296 
118 1 -6.711 -1.803 -1.738 
119 1 10.176 -10.724 -7.347 
120 1 -2.739 -2.862 5.844 
121 1 4.798 5.376 -12.232 
122 1 -7.992 8.125 -5.418 
123 1 -3.247 9.717 1.361 
124 1 2.810 3.462 6.380 
125 1 1.233 -3.717 -7.460 
126 1 -8.024 -6.520 8.985 
127 1 -2.917 2.603 6.596 
128 1 12.710 11.062 -4.507 
129 1 -3.207 9.784 -12.448 
130 1 11.040 -3.274 -11.539 
131 1 -2.425 -0.390 3.610 
132 1 -9.791 10.716 5.531 
133 1 6.625 -3.502 -9.262 
134 1 -12.745 12.229 11.378 
135 1 11.672 -4.357 4.774 
136 1 -1.667 -0.245 9.137 
137 1 0.055 3.861 1.235 
138 1 -1.096 11.060 -1.137 
139 1 -5.565 -9.474 -8.127 
140 1 -0.306 12.710 10.460 
141 1 -5.449 -1.430 -4.974 
142 1 -7.997 -0.094 5.306 
143 1 -5.486 -7.200 -3.049 
144 1 -3.022 12.391 7.238 
145 1 -9.122 7.497 6.581 
146 1 -6.109 -5.693 -5.798 
147 1 -9.087 -3.578 -3.191 
148 1 0.051 5.772 4.978 
149 1 -5.126 -2.834 -11.417 
150 1 -3.446 -6.328 7.334 
151 1 4.729 2.113 0.329 
152 1 -9.085 3.240 4.519 
153 1 1.205 0.278 6.019 
154 1 -1.576 -9.596 -12.357 
155 1 -3.475 5.999 12.275 
156 1 2.724 6.579 -2.286 
157 1 10.000 7.049 -12.228 
158 1 -2.092 -2.773 12.156 
159 1 -11.029 6.115 -8.694 
160 1 -4.806 -3.889 10.198 
161 1 -5.505 -9.831 -12.595 
162 1 3.924 -7.712 3.772 
163 1 -0.110 -5.978 -4.785 
164 1 6.060 9.604 10.161 
165 1 -3.806 9.600 -4.988 
166 1 -4.038 -5.811 -12.371 
167 1 -2.509 3.114 3.488 
168 1 -0.686 7.205 0.529 
169 1 -4.171 -1.686 0.762 
170 1 -7.987 7.992 3.179 
171 1 1.295 -0.580 -1.471 
172 1 3.498 8.368 6.669 
173 1 -2.900 7.478 -2.708 
174 1 -10.874 -3.081 -12.471 
175 1 8.021 -1.897 10.699 
176 1 2.378 1.302 10.819 
177 1 6.789 11.033 -6.943 
178 1 1.886 0.572 2.463 
179 1 -5.281 -11.048 5.549 
180 1 -3.799 -4.258 -2.850 
181 1 9.798 -10.353 8.555 
182 1 -6.289 -7.458 3.833 
183 1 6.642 2.232 3.112 
184 1 -2.709 9.305 -8.905 
185 1 11.433 -0.310 -0.445 
186 1 -1.440 -12.733 -6.396 
187 1 -3.759 -12.211 10.719 
188 1 7.210 4.229 6.443 
189 1 8.113 6.897 8.269 
190 1 3.643 -11.746 5.476 
191 1 -3.400 12.556 3.411 
192 1 -4.543 -0.973 -8.539 
193 1 -9.725 -12.009 -10.774 
194 1 1.176 9.219 -3.401 
195 1 -12.257 2.626 7.096 
196 1 -4.397 9.338 9.691 
197 1 -3.164 2.786 10.344 
198 1 -0.711 2.209 12.316 
199 1 7.526 -0.291 0.632 
200 1 2.085 -10.598 -5.623 
ITEM: TIMESTEP
3000
ITEM: NUMBER OF ATOMS
200
ITEM: BOX BOUNDS pp pp pp
-12.74986103408113 12.74986103408113
-12.74986103408113 12.74986103408113
-12.74986103408113 12.74986103408113
ITEM: ATOMS id type x y z
1 1 4.029 5.303 2.389 
2 1 1.991 9.943 -0.635 
3 1 0.925 2.367 -9.429 
4 1 -3.398 6.756 8.188 
5 1 -6.780 -1.523 2.750 
6 1 2.886 -12.515 9.947 
7 1 3.176 -4.415 4.510 
8 1 1.862 8.437 11.476 
9 1 3.937 11.355 2.395 
10 1 -6.676 8.251 -1.886 
11 1 -0.205 -10.602 4.261 
12 1 10.752 10.041 6.407 
13 1 -9.232 -6.106 -0.402 
14 1 -12.182 -6.818 7.198 
15 1 7.087 1.869 11.048 
16 1 -0.260 11.837 -12.042 
17 1 -4.447 -10.202 -0.954 
18 1 -1.526 -11.202 -2.713 
19 1 -5.262 2.000 3.264 
20 1 -3.212 0.251 -2.753 
21 1 1.475 -0.705 -11.009 
22 1 -2.124 -7.295 -8.261 
23 1 8.544 8.295 -9.098 
24 1 11.645 7.968 -8.649 
25 1 -7.222 12.027 12.094 
26 1 7.356 -12.131 -9.087 
27 1 -11.616 0.647 4.318 
28 1 -10.994 12.606 -6.906 
29 1 -2.077 5.736 -5.317 
30 1 -7.252 -4.590 6.611 
31 1 -8.541 1.022 0.789 
32 1 0.946 9.499 3.518 
33 1 -0.751 0.024 -8.114 
34 1 -9.793 6.116 11.246 
35 1 -2.128 -9.510 8.365 
36 1 -10.003 0.200 11.477 
37 1 5.282 -3.573 12.343 
38 1 -3.059 -8.769 2.006 
39 1 -6.915 3.281 7.960 
40 1 1.406 5.319 11.998 
41 1 -1.316 -6.980 -1.168 
42 1 11.750 12.441 -8.877 
43 1 -10.886 -3.009 0.635 
44 1 4.335 -0.271 -7.422 
45 1 1.955 -11.622 -1.593 
46 1 -7.992 12.582 8.714 
47 1 -7.654 -8.744 6.112 
48 1 3.682 -10.065 0.965 
49 1 5.992 0.605 7.130 
50 1 4.512 9.047 -9.602 
51 1 -2.304 9.936 5.058 
52 1 1.922 5.816 8.673 
53 1 5.462 -9.407 -7.912 
54 1 7.565 10.674 1.549 
55 1 2.533 -5.190 -10.560 
56 1 -6.320 0.017 12.224 
57 1 7.503 8.137 4.536 
58 1 -12.408 0.623 -9.477 
59 1 3.204 -9.082 -11.315 
60 1 -2.092 1.334 0.580 
61 1 10.805 9.015 2.627 
62 1 -8.919 -3.430 -8.682 
63 1 5.742 12.522 6.920 
64 1 -8.731 -9.388 0.649 
65 1 -6.410 6.632 10.082 
66 1 -9.323 10.554 -2.420 
67 1 9.828 1.569 5.564 
68 1 10.563 1.993 -4.853 
69 1 -0.661 -6.079 -11.352 
70 1 -6.186 7.791 6.318 
71 1 10.873 -1.130 2.550 
72 1 6.765 -11.112 3.432 
73 1 -6.010 -11.947 1.215 
74 1 -8.292 -0.090 -10.283 
75 1 -0.537 -10.594 0.343 
76 1 9.631 -11.185 -12.279 
77 1 -3.625 -5.524 1.787 
78 1 1.711 -8.061 -7.756 
79 1 5.486 -12.064 -12.541 
80 1 -10.276 -2.403 5.835 
81 1 -1.658 -3.420 -9.635 
82 1 -5.898 10.740 3.419 
83 1 -4.605 -10.956 -4.692 
84 1 -6.990 -1.494 8.990 
85 1 -10.679 9.979 -12.010 
86 1 -2.837 -8.035 -4.519 
87 1 -4.631 6.523 -8.224 
88 1 -1.073 3.468 -2.570 
89 1 -1.492 -2.318 -5.665 
90 1 3.232 3.310 -3.015 
91 1 -12.588 -10.174 4.377 
92 1 0.321 12.497 6.521 
93 1 -7.192 3.306 -7.383 
94 1 11.219 4.728 -9.626 
95 1 0.492 12.172 1.886 
96 1 -10.070 5.234 -3.561 
97 1 -4.597 4.980 4.864 
98 1 -11.632 3.411 -5.864 
99 1 -4.827 11.571 -1.077 
100 1 1.841 -0.373 -5.207 
101 1 -0.484 8.452 7.811 
102 1 -9.924 -6.958 2.792 
103 1 -12.663 -4.671 -9.120 
104 1 -7.231 7.178 -11.354 
105 1 -5.731 -9.777 8.893 
106 1 6.002 -6.591 -11.408 
107 1 1.190 -3.650 0.916 
108 1 7.793 9.235 -12.128 
109 1 -4.989 4.916 0.946 
110 1 -0.377 3.628 9.016 
111 1 1.215 -3.574 10.433 
112 1 8.413 11.099 9.674 
113 1 -9.320 4.215 -11.207 
114 1 4.486 3.863 9.121 
115 1 -7.676 -7.400 -10.550 
116 1 2.739 -5.724 -2.027 
117 1 7.967 -1.679 4.579 
118 1 -6.150 -1.638 -2.281 
119 1 10.578 -11.191 -6.237 
120 1 -2.972 -3.046 5.651 
121 1 5.819 5.427 -12.171 
122 1 -8.153 6.876 -6.626 
123 1 -2.757 9.504 1.328 
124 1 3.548 2.912 4.661 
125 1 2.204 -3.815 -6.618 
126 1 -7.943 -5.439 10.086 
127 1 -2.841 2.522 7.315 
128 1 12.338 10.561 -4.321 
129 1 -4.419 10.105 -12.210 
130 1 10.460 -2.613 -11.469 
131 1 -2.839 -0.048 4.190 
132 1 -9.066 10.819 5.458 
133 1 6.156 -3.169 -9.069 
134 1 -12.739 12.747 12.372 
135 1 11.794 -4.514 4.722 
136 1 -0.600 -0.550 9.633 
137 1 0.526 3.489 0.771 
138 1 -1.183 11.308 -1.585 
139 1 -5.851 -9.586 -8.549 
140 1 -0.359 -12.019 10.443 
141 1 -5.306 -1.291 -5.771 
142 1 -7.744 0.358 5.417 
143 1 -5.397 -7.431 -2.676 
144 1 -2.729 12.161 7.882 
145 1 -9.924 7.783 7.773 
146 1 -5.767 -5.411 -6.040 
147 1 -9.597 -3.491 -2.955 
148 1 -0.265 5.831 5.674 
149 1 -6.037 -2.947 -11.393 
150 1 -2.856 -6.124 7.624 
151 1 4.409 2.547 0.126 
152 1 -8.655 3.876 3.868 
153 1 0.836 0.530 5.977 
154 1 -2.274 -9.979 -12.299 
155 1 -2.621 6.314 11.867 
156 1 2.680 6.602 -1.403 
157 1 9.164 6.297 11.658 
158 1 -2.559 -2.579 12.291 
159 1 -11.018 5.896 -8.214 
160 1 -4.985 -4.702 9.928 
161 1 -5.755 -9.161 12.404 
162 1 5.030 -7.668 3.760 
163 1 0.129 -5.105 -4.055 
164 1 5.818 9.495 10.616 
165 1 -4.166 9.535 -5.289 
166 1 -4.606 -6.401 -12.068 
167 1 -2.188 3.559 3.036 
168 1 -0.485 6.465 1.190 
169 1 -3.587 -1.424 0.989 
170 1 -7.717 7.784 3.049 
171 1 0.826 -0.056 -1.399 
172 1 3.893 7.864 5.828 
173 1 -1.872 8.009 -1.982 
174 1 -10.971 -4.664 -12.176 
175 1 7.403 -1.783 9.751 
176 1 2.522 1.009 10.271 
177 1 7.685 10.782 -6.717 
178 1 1.757 -0.044 2.443 
179 1 -5.664 -11.986 5.790 
180 1 -2.928 -4.031 -3.267 
181 1 8.050 -11.075 8.469 
182 1 -6.604 -7.479 3.082 
183 1 6.862 3.074 3.166 
184 1 -2.928 9.833 -8.774 
185 1 11.864 -1.065 -1.707 
186 1 -2.156 12.569 -6.871 
187 1 -3.617 -12.690 11.188 
188 1 6.923 3.942 6.727 
189 1 8.022 7.085 8.196 
190 1 3.313 -11.104 4.770 
191 1 -3.025 -12.512 3.105 
192 1 -4.207 -1.070 -8.880 
193 1 -8.600 -10.993 -10.799 
194 1 0.792 9.239 -4.141 
195 1 -12.466 3.568 6.762 
196 1 -5.020 9.741 9.702 
197 1 -3.204 2.579 11.075 
198 1 -0.354 1.650 -12.260 
199 1 7.008 -0.401 -0.326 
200 1 2.698 -10.442 -5.554 
ITEM: TIMESTEP
4000
ITEM: NUMBER OF ATOMS
200
ITEM: BOX BOUNDS pp pp pp
-12.74986103408113 12.74986103408113
-12.74986103408113 12.74986103408113
-12.74986103408113 12.74986103408113
ITEM: ATOMS id type x y z
1 1 4.631 5.750 1.347 
2 1 1.642 8.888 -0.029 
3 1 0.864 2.702 -9.503 
4 1 -2.929 6.229 8.022 
5 1 -7.566 -2.133 2.861 
6 1 3.451 12.311 9.608 
7 1 3.580 -4.778 5.731 
8 1 1.734 8.810 11.734 
9 1 4.372 10.429 2.277 
10 1 -5.988 7.462 -1.697 
11 1 -0.326 -10.236 4.301 
12 1 10.887 10.720 6.203 
13 1 -9.435 -5.411 -1.333 
14 1 -11.739 -7.114 6.843 
15 1 6.138 2.547 11.839 
16 1 -0.547 11.848 -12.286 
17 1 -4.304 -9.364 -1.080 
18 1 -0.750 -10.108 -2.967 
19 1 -5.516 1.332 2.413 
20 1 -3.060 0.233 -3.188 
21 1 1.925 -1.140 -11.047 
22 1 -2.171 -8.426 -8.319 
23 1 7.992 7.661 -8.105 
24 1 11.170 8.465 -7.824 
25 1 -7.671 11.615 12.117 
26 1 7.466 -12.595 -9.773 
27 1 -11.520 1.222 4.320 
28 1 -10.833 -12.670 -7.525 
29 1 -2.337 5.025 -6.557 
30 1 -7.493 -3.709 6.882 
31 1 -9.043 1.138 1.710 
32 1 0.354 9.816 3.104 
33 1 -0.901 0.341 -8.047 
34 1 -9.738 6.017 10.185 
35 1 -2.297 -10.313 9.324 
36 1 -9.183 -0.415 12.273 
37 1 5.067 -3.401 -12.745 
38 1 -2.422 -9.025 2.142 
39 1 -6.813 3.210 7.060 
40 1 2.297 4.481 12.509 
41 1 -1.601 -6.900 -1.231 
42 1 11.666 -12.619 -8.929 
43 1 -9.888 -2.324 0.619 
44 1 4.407 -0.053 -7.873 
45 1 3.358 -10.911 -2.555 
46 1 -8.883 12.726 8.360 
47 1 -8.070 -7.769 6.119 
48 1 2.809 -9.545 1.592 
49 1 5.404 0.143 7.783 
50 1 5.077 9.323 -9.738 
51 1 -3.254 8.284 5.357 
52 1 1.939 6.434 8.742 
53 1 6.224 -9.023 -8.165 
54 1 7.932 10.228 1.908 
55 1 2.160 -4.857 -10.905 
56 1 -5.490 0.994 12.369 
57 1 8.086 7.211 4.610 
58 1 -11.739 0.817 -8.313 
59 1 3.255 -8.873 -10.837 
60 1 -1.814 1.339 0.428 
61 1 10.697 8.459 2.988 
62 1 -8.410 -2.426 -7.572 
63 1 6.127 11.419 6.254 
64 1 -9.187 -9.527 1.404 
65 1 -6.175 5.027 11.100 
66 1 -9.359 11.033 -2.666 
67 1 9.993 2.295 5.664 
68 1 9.607 1.229 -5.045 
69 1 -0.495 -6.762 -12.533 
70 1 -6.530 8.070 6.132 
71 1 10.964 -0.680 3.381 
72 1 7.248 -11.449 2.570 
73 1 -5.724 -11.332 1.436 
74 1 -8.386 -0.175 -10.205 
75 1 -0.219 -10.572 0.244 
76 1 8.603 -10.209 12.624 
77 1 -3.432 -4.823 2.963 
78 1 1.141 -7.080 -7.766 
79 1 5.347 -12.438 12.121 
80 1 -10.289 -1.561 5.418 
81 1 -1.245 -3.109 -7.871 
82 1 -5.998 10.832 3.207 
83 1 -4.552 -10.598 -4.047 
84 1 -7.065 -1.566 9.830 
85 1 -10.973 10.105 -12.105 
86 1 -2.844 -7.648 -4.534 
87 1 -4.844 6.287 -8.711 
88 1 -0.644 3.095 -3.249 
89 1 -1.505 -2.148 -4.864 
90 1 3.290 3.450 -3.265 
91 1 -12.414 -9.900 4.455 
92 1 0.819 12.285 6.442 
93 1 -7.178 2.966 -7.104 
94 1 10.493 4.683 -10.006 
95 1 1.409 12.590 1.537 
96 1 -10.366 5.052 -3.352 
97 1 -4.716 5.454 4.514 
98 1 -11.373 3.764 -6.290 
99 1 -4.798 12.305 -2.150 
100 1 1.993 -0.214 -5.030 
101 1 -0.659 9.006 7.708 
102 1 -9.954 -6.529 2.577 
103 1 12.627 -4.875 -9.260 
104 1 -7.509 7.358 -11.090 
105 1 -6.317 -10.332 8.880 
106 1 6.236 -7.215 -11.637 
107 1 1.248 -3.864 1.210 
108 1 8.566 10.083 -11.991 
109 1 -5.107 4.922 0.793 
110 1 0.445 3.403 9.507 
111 1 1.946 -4.084 9.861 
112 1 9.064 10.813 9.669 
113 1 -10.569 4.079 -11.750 
114 1 4.199 3.571 9.176 
115 1 -8.702 -7.451 -10.478 
116 1 3.774 -7.086 -1.568 
117 1 8.273 -2.917 4.471 
118 1 -5.577 -2.127 -2.462 
119 1 10.510 -10.236 -6.674 
120 1 -2.726 -3.325 6.105 
121 1 5.424 6.123 12.292 
122 1 -7.937 6.442 -6.622 
123 1 -2.858 9.468 1.906 
124 1 3.823 3.009 4.619 
125 1 2.124 -3.109 -6.682 
126 1 -8.139 -6.733 9.466 
127 1 -3.020 2.210 6.682 
128 1 11.891 11.595 -3.188 
129 1 -5.119 9.917 -12.537 
130 1 9.644 -3.714 -12.527 
131 1 -1.351 -0.885 4.528 
132 1 -8.625 11.246 5.115 
133 1 6.454 -3.491 -9.618 
134 1 11.380 12.086 12.249 
135 1 11.452 -3.674 5.539 
136 1 -1.396 0.250 10.924 
137 1 0.930 3.785 0.935 
138 1 -1.076 11.695 -1.307 
139 1 -5.926 -10.151 -7.577 
140 1 1.076 -10.999 9.666 
141 1 -5.890 -1.190 -5.753 
142 1 -7.091 -0.339 6.114 
143 1 -6.127 -7.038 -3.545 
144 1 -2.880 12.230 7.978 
145 1 -9.788 9.235 7.855 
146 1 -5.394 -5.724 -7.195 
147 1 -10.758 -2.571 -3.294 
148 1 -0.249 5.483 5.774 
149 1 -5.947 -2.413 -11.758 
150 1 -4.155 -6.571 6.256 
151 1 3.870 1.902 0.289 
152 1 -9.132 4.306 4.112 
153 1 1.066 0.955 6.280 
154 1 -1.550 -9.850 -11.973 
155 1 -2.867 7.030 11.976 
156 1 3.325 6.712 -2.325 
157 1 8.755 5.658 11.323 
158 1 -2.624 -2.698 12.506 
159 1 -10.593 6.091 -8.553 
160 1 -4.408 -4.984 10.668 
161 1 -6.289 -9.692 12.300 
162 1 4.816 -7.715 4.899 
163 1 -0.093 -5.169 -4.273 
164 1 5.640 9.302 9.887 
165 1 -4.718 8.368 -5.485 
166 1 -5.099 -6.409 -11.463 
167 1 -2.169 3.687 2.975 
168 1 -0.503 6.778 1.736 
169 1 -3.593 -1.589 0.002 
170 1 -8.338 8.034 3.388 
171 1 0.585 -0.034 -1.552 
172 1 4.248 7.315 5.582 
173 1 -1.974 7.718 -1.699 
174 1 -10.789 -4.591 -12.749 
175 1 7.147 -2.794 9.889 
176 1 2.436 0.979 11.003 
177 1 7.124 11.365 -6.970 
178 1 2.611 -0.830 3.151 
179 1 -5.524 -12.014 5.751 
180 1 -4.000 -4.478 -4.079 
181 1 8.638 -11.503 7.747 
182 1 -6.301 -7.165 2.640 
183 1 6.819 2.864 2.448 
184 1 -3.450 9.139 -9.998 
185 1 11.806 -0.679 -1.820 
186 1 -1.913 11.493 -7.254 
187 1 -3.198 12.583 11.404 
188 1 6.457 4.774 6.722 
189 1 7.812 7.903 7.499 
190 1 3.145 -11.000 4.702 
191 1 -2.607 12.700 2.727 
192 1 -3.725 -0.935 -9.194 
193 1 -7.971 -11.705 -10.605 
194 1 1.644 9.820 -4.417 
195 1 12.176 3.651 8.307 
196 1 -5.903 10.218 9.898 
197 1 -3.310 2.920 10.287 
198 1 -0.488 2.663 -12.535 
199 1 7.554 0.122 0.446 
200 1 2.251 -10.162 -6.031 
ITEM: TIMESTEP
5000
ITEM: NUMBER OF ATOMS
200
ITEM: BOX BOUNDS pp pp pp
-12.74986103408113 12.74986103408113
-12.74986103408113 12.74986103408113
-12.74986103408113 12.74986103408113
ITEM: ATOMS id type x y z
1 1 5.280 6.092 1.303 
2 1 2.767 7.789 -0.191 
3 1 1.560 3.275 -9.443 
4 1 -2.596 6.385 8.156 
5 1 -7.046 -2.409 2.714 
6 1 4.318 12.268 7.249 
7 1 3.556 -3.436 5.328 
8 1 2.994 8.609 11.785 
9 1 4.225 9.682 2.480 
10 1 -6.873 8.545 -0.528 
11 1 0.259 -10.777 4.844 
12 1 11.756 10.900 7.396 
13 1 -9.131 -6.087 -1.895 
14 1 12.687 -7.261 7.073 
15 1 6.099 1.968 -12.261 
16 1 -0.428 10.863 -12.319 
17 1 -4.119 -9.165 -0.619 
18 1 -0.654 -10.990 -3.638 
19 1 -4.810 1.718 3.009 
20 1 -3.054 0.201 -2.877 
21 1 1.926 -1.168 -10.579 
22 1 -2.619 -7.252 -7.961 
23 1 7.505 7.546 -8.005 
24 1 11.500 9.748 -7.166 
25 1 -8.058 11.179 -12.433 
26 1 7.363 -12.129 -9.914 
27 1 -10.971 1.770 3.917 
28 1 -9.875 12.406 -6.458 
29 1 -0.060 3.622 -6.474 
30 1 -6.768 -3.156 6.322 
31 1 -8.851 0.817 0.785 
32 1 0.140 9.258 3.457 
33 1 0.006 -0.095 -7.834 
34 1 -10.113 5.401 11.091 
35 1 -1.542 -9.381 9.917 
36 1 -9.448 -0.245 12.366 
37 1 4.624 -1.647 11.825 
38 1 -1.960 -7.304 2.259 
39 1 -6.688 3.746 7.027 
40 1 2.146 5.137 12.578 
41 1 -1.207 -6.731 -1.096 
42 1 12.615 -11.811 -8.679 
43 1 -10.434 -2.946 1.271 
44 1 4.718 -0.216 -8.175 
45 1 3.698 -10.147 -3.176 
46 1 -8.996 -12.433 9.444 
47 1 -8.807 -8.146 6.164 
48 1 3.034 -8.961 2.107 
49 1 6.322 0.347 8.083 
50 1 4.460 8.092 -10.341 
51 1 -2.784 8.847 5.399 
52 1 2.185 6.863 8.637 
53 1 6.189 -8.968 -7.670 
54 1 8.086 10.677 1.878 
55 1 1.202 -4.504 -11.575 
56 1 -5.555 1.082 11.983 
57 1 7.421 7.015 4.322 
58 1 -12.070 0.916 -8.794 
59 1 2.624 -9.180 -10.465 
60 1 -1.740 2.069 0.019 
61 1 11.246 8.760 3.609 
62 1 -8.643 -3.305 -7.926 
63 1 6.980 10.834 5.319 
64 1 -10.661 -10.399 1.854 
65 1 -5.708 5.179 11.541 
66 1 -9.135 11.539 -1.999 
67 1 10.146 2.806 6.314 
68 1 9.976 2.134 -5.065 
69 1 -0.065 -6.573 11.576 
70 1 -6.057 8.408 6.596 
71 1 11.389 -1.077 2.665 
72 1 8.207 -10.895 3.050 
73 1 -5.908 -12.164 0.328 
74 1 -7.601 0.359 -9.923 
75 1 0.070 -10.226 -0.131 
76 1 8.834 -10.556 12.163 
77 1 -3.756 -4.202 3.347 
78 1 1.162 -7.244 -7.727 
79 1 6.110 -12.517 11.925 
80 1 -10.056 -2.058 4.738 
81 1 -0.803 -3.160 -7.564 
82 1 -5.282 10.242 3.355 
83 1 -4.278 -10.182 -3.703 
84 1 -7.231 -1.605 9.452 
85 1 -11.016 9.367 -11.506 
86 1 -1.875 -7.134 -4.660 
87 1 -3.639 4.987 -10.821 
88 1 -0.689 2.887 -3.230 
89 1 -0.939 -1.894 -4.712 
90 1 2.856 3.051 -2.454 
91 1 12.523 -9.857 4.099 
92 1 1.468 11.512 5.939 
93 1 -6.961 2.675 -6.938 
94 1 10.162 4.586 -10.726 
95 1 1.598 12.494 1.930 
96 1 -9.580 5.427 -2.685 
97 1 -5.642 6.523 3.681 
98 1 -11.119 3.757 -5.937 
99 1 -3.927 12.400 -2.203 
100 1 2.411 0.094 -5.058 
101 1 -0.359 9.272 7.927 
102 1 -9.380 -6.227 1.849 
103 1 -11.912 -5.465 -8.767 
104 1 -6.946 8.198 -9.956 
105 1 -5.941 -10.728 9.083 
106 1 5.951 -7.134 -11.520 
107 1 0.681 -3.671 0.364 
108 1 7.214 9.376 12.504 
109 1 -5.088 5.463 0.382 
110 1 0.808 3.003 9.162 
111 1 2.976 -4.411 9.478 
112 1 9.530 10.572 10.460 
113 1 -10.443 4.501 -11.322 
114 1 4.325 3.781 9.972 
115 1 -8.347 -7.172 -9.397 
116 1 3.569 -6.619 -1.165 
117 1 7.841 -2.155 4.672 
118 1 -6.962 -1.497 -1.730 
119 1 9.385 -9.587 -5.996 
120 1 -3.208 -4.026 6.642 
121 1 5.552 6.420 12.240 
122 1 -8.379 6.983 -5.771 
123 1 -2.163 9.633 1.055 
124 1 3.180 3.326 3.746 
125 1 2.746 -3.024 -7.018 
126 1 -8.603 -6.947 10.626 
127 1 -3.267 3.065 6.973 
128 1 11.711 11.690 -3.014 
129 1 -4.827 9.097 -12.703 
130 1 9.816 -4.578 -11.673 
131 1 -2.192 -0.964 5.334 
132 1 -9.045 11.336 5.816 
133 1 7.147 -3.496 -9.275 
134 1 11.705 12.745 -12.669 
135 1 11.657 -3.944 5.825 
136 1 -2.011 -0.056 11.447 
137 1 0.688 3.887 0.711 
138 1 -0.445 10.808 -1.738 
139 1 -4.946 -10.101 -7.478 
140 1 1.156 -11.941 8.540 
141 1 -6.861 -1.220 -5.434 
142 1 -7.011 0.286 6.080 
143 1 -6.535 -7.746 -4.180 
144 1 -2.343 12.041 7.370 
145 1 -10.351 8.998 9.362 
146 1 -5.934 -5.747 -7.033 
147 1 -11.525 -2.737 -2.273 
148 1 -0.463 5.287 5.912 
149 1 -5.954 -2.028 -11.716 
150 1 -5.194 -7.304 7.286 
151 1 3.707 2.241 0.776 
152 1 -9.628 4.992 3.503 
153 1 1.754 -0.051 6.545 
154 1 -1.113 -9.307 -10.380 
155 1 -2.622 6.894 12.421 
156 1 3.814 7.286 -3.075 
157 1 8.480 6.337 10.699 
158 1 -2.378 -3.305 12.452 
159 1 -10.925 6.606 -8.775 
160 1 -4.785 -5.063 10.461 
161 1 -6.553 -9.539 -12.625 
162 1 5.567 -6.823 5.454 
163 1 0.196 -4.945 -3.664 
164 1 5.476 9.298 9.807 
165 1 -4.823 8.645 -5.171 
166 1 -4.357 -7.183 -10.654 
167 1 -2.572 4.163 2.488 
168 1 -0.372 6.758 0.988 
169 1 -2.923 -1.443 0.635 
170 1 -9.635 8.040 3.657 
171 1 0.878 0.216 -0.146 
172 1 4.220 7.481 5.046 
173 1 -2.609 7.058 -1.726 
174 1 -11.944 -4.366 11.903 
175 1 7.636 -2.778 10.125 
176 1 2.608 0.548 11.192 
177 1 7.417 11.265 -6.825 
178 1 2.703 -0.464 3.484 
179 1 -5.297 -11.493 5.548 
180 1 -4.160 -4.368 -4.208 
181 1 9.502 -11.879 8.145 
182 1 -5.752 -7.107 3.033 
183 1 6.641 2.758 2.298 
184 1 -2.623 8.824 -10.029 
185 1 10.849 -0.574 -1.351 
186 1 -2.994 11.501 -8.250 
187 1 -3.714 12.546 11.459 
188 1 6.315 4.504 6.355 
189 1 7.629 7.926 7.876 
190 1 3.515 -11.157 4.905 
191 1 -2.675 -12.719 2.771 
192 1 -3.482 -0.939 -9.704 
193 1 -8.644 -11.323 -10.688 
194 1 2.056 9.352 -7.114 
195 1 12.706 5.400 7.856 
196 1 -5.956 10.433 9.321 
197 1 -3.083 3.096 10.659 
198 1 -0.492 3.220 -12.482 
199 1 6.614 0.205 -0.512 
200 1 1.672 -10.776 -5.525 
ITEM: TIMESTEP
6000
ITEM: NUMBER OF ATOMS
200
ITEM: BOX BOUNDS pp pp pp
-12.74986103408113 12.74986103408113
-12.74986103408113 12.74986103408113
-12.74986103408113 12.74986103408113
ITEM: ATOMS id type x y z
1 1 5.526 5.579 1.114 
2 1 2.552 8.044 0.476 
3 1 1.445 4.002 -9.353 
4 1 -2.005 6.487 8.338 
5 1 -6.897 -2.653 2.841 
6 1 4.109 12.060 7.464 
7 1 4.426 -2.561 5.028 
8 1 2.784 8.998 11.600 
9 1 5.205 11.247 2.226 
10 1 -7.857 7.831 -0.394 
11 1 -0.113 -9.264 5.123 
12 1 12.007 11.011 8.397 
13 1 -9.231 -5.899 -1.486 
14 1 11.462 -7.153 6.979 
15 1 6.552 1.850 -12.574 
16 1 0.115 10.224 -12.053 
17 1 -3.852 -8.905 -0.087 
18 1 -0.371 -10.859 -4.313 
19 1 -5.345 2.040 2.799 
20 1 -3.481 0.583 -2.700 
21 1 1.731 -0.616 -11.323 
22 1 -1.385 -7.580 -7.936 
23 1 8.067 7.794 -7.479 
24 1 11.512 9.862 -6.643 
25 1 -7.542 12.096 12.370 
26 1 7.205 -12.499 -9.696 
27 1 -10.606 2.078 4.518 
28 1 -10.050 12.489 -6.952 
29 1 0.035 3.611 -6.219 
30 1 -7.304 -3.080 6.071 
31 1 -9.222 0.801 0.201 
32 1 0.741 9.538 3.361 
33 1 0.250 0.550 -8.610 
34 1 -9.734 4.946 11.255 
35 1 -1.156 -9.720 10.405 
36 1 -10.322 0.457 11.616 
37 1 4.634 -1.448 12.535 
38 1 -1.607 -7.521 1.671 
39 1 -7.321 4.572 6.427 
40 1 2.756 4.681 -12.511 
41 1 -1.606 -6.271 -1.572 
42 1 11.827 -11.667 -8.364 
43 1 -10.572 -2.524 1.228 
44 1 5.697 0.446 -8.758 
45 1 4.495 -10.314 -2.756 
46 1 -10.128 12.550 10.585 
47 1 -8.195 -7.283 6.984 
48 1 3.636 -8.291 2.225 
49 1 5.757 0.551 8.145 
50 1 4.864 10.143 -10.250 
51 1 -2.206 9.605 5.321 
52 1 2.591 6.608 7.659 
53 1 6.336 -8.877 -7.781 
54 1 8.309 10.968 1.056 
55 1 1.617 -3.995 -12.275 
56 1 -5.614 0.864 12.343 
57 1 7.874 7.183 3.960 
58 1 -12.582 1.273 -8.695 
59 1 2.685 -8.960 -11.424 
60 1 -2.455 1.851 0.534 
61 1 11.426 9.317 3.088 
62 1 -8.924 -3.118 -8.292 
63 1 6.802 10.655 5.171 
64 1 -9.916 -10.242 1.473 
65 1 -6.172 5.559 11.549 
66 1 -8.678 12.414 -2.740 
67 1 10.760 2.940 7.358 
68 1 10.856 2.253 -5.715 
69 1 1.261 -6.743 11.646 
70 1 -6.346 7.903 6.444 
71 1 12.184 -0.729 2.619 
72 1 7.481 -9.370 1.358 
73 1 -5.867 -12.473 0.879 
74 1 -7.568 0.447 -10.070 
75 1 0.444 -10.054 0.205 
76 1 9.832 -11.048 11.705 
77 1 -3.253 -3.604 2.883 
78 1 1.625 -6.203 -8.051 
79 1 6.417 12.543 11.533 
80 1 -10.280 -2.212 4.487 
81 1 -0.725 -4.156 -7.804 
82 1 -5.790 10.782 4.381 
83 1 -3.982 -10.549 -3.471 
84 1 -7.137 -0.883 8.793 
85 1 -12.005 8.944 -12.512 
86 1 -3.047 -7.300 -4.800 
87 1 -4.376 3.762 -10.667 
88 1 -1.146 3.198 -2.348 
89 1 -0.997 -1.394 -5.151 
90 1 3.198 3.150 -2.610 
91 1 -12.433 -8.985 3.609 
92 1 1.427 12.652 5.619 
93 1 -6.058 1.772 -7.205 
94 1 9.973 4.258 -10.494 
95 1 2.413 -12.712 2.185 
96 1 -9.595 4.730 -2.582 
97 1 -5.019 7.111 3.380 
98 1 -11.570 4.759 -5.854 
99 1 -4.127 11.953 -1.732 
100 1 3.298 0.760 -5.939 
101 1 0.391 10.203 8.022 
102 1 -9.860 -5.885 1.914 
103 1 -11.318 -5.682 -8.779 
104 1 -6.713 6.712 -9.679 
105 1 -6.150 -11.441 8.879 
106 1 6.059 -7.432 -12.441 
107 1 0.611 -3.949 -0.784 
108 1 8.433 9.448 -12.187 
109 1 -4.726 5.362 0.366 
110 1 1.518 2.754 9.674 
111 1 2.518 -4.104 9.800 
112 1 8.747 10.923 9.652 
113 1 -10.669 3.855 -11.079 
114 1 4.729 4.390 9.475 
115 1 -8.037 -7.063 -9.069 
116 1 3.133 -6.304 -1.418 
117 1 8.074 -2.708 4.996 
118 1 -6.861 -0.991 -2.388 
119 1 9.560 -9.507 -6.145 
120 1 -3.517 -3.401 7.203 
121 1 5.606 6.887 12.398 
122 1 -8.588 6.629 -6.735 
123 1 -2.031 10.491 1.227 
124 1 2.131 4.010 4.290 
125 1 2.638 -3.146 -6.232 
126 1 -8.834 -6.380 10.140 
127 1 -2.700 3.028 6.859 
128 1 12.234 10.965 -3.160 
129 1 -5.472 9.228 12.100 
130 1 9.123 -4.622 11.909 
131 1 -1.511 -0.388 4.257 
132 1 -8.810 11.947 5.687 
133 1 7.169 -4.042 -8.768 
134 1 12.135 12.589 -12.054 
135 1 11.825 -2.720 5.991 
136 1 -2.170 0.469 12.673 
137 1 1.079 3.255 0.764 
138 1 0.318 10.080 -1.703 
139 1 -5.805 -9.239 -6.981 
140 1 1.588 -11.694 9.683 
141 1 -7.289 -2.033 -5.671 
142 1 -7.838 0.492 5.651 
143 1 -6.736 -7.702 -4.274 
144 1 -3.094 -12.589 6.393 
145 1 -10.589 9.232 9.679 
146 1 -5.616 -5.583 -6.876 
147 1 -11.244 -1.872 -2.702 
148 1 -0.568 5.273 5.599 
149 1 -5.107 -2.435 -12.529 
150 1 -4.399 -7.816 7.530 
151 1 4.081 2.254 1.378 
152 1 -8.998 4.721 3.234 
153 1 1.851 0.476 7.088 
154 1 -1.247 -9.219 -10.783 
155 1 -1.771 7.284 12.131 
156 1 4.523 6.825 -3.893 
157 1 8.946 6.222 10.334 
158 1 -2.415 -4.299 -12.410 
159 1 -10.894 8.010 -8.919 
160 1 -5.555 -5.771 10.790 
161 1 -6.615 -10.155 -12.546 
162 1 5.990 -6.894 5.982 
163 1 -0.259 -5.089 -4.796 
164 1 4.531 9.302 8.869 
165 1 -4.097 9.224 -4.972 
166 1 -5.205 -6.909 -11.090 
167 1 -2.608 4.212 3.248 
168 1 -0.586 6.406 1.499 
169 1 -3.526 -1.221 0.408 
170 1 -9.748 8.765 3.227 
171 1 2.287 -1.499 -0.145 
172 1 4.153 8.695 5.228 
173 1 -2.279 7.730 -1.218 
174 1 -12.311 -5.345 12.243 
175 1 8.487 -2.481 9.506 
176 1 2.970 1.461 11.951 
177 1 8.595 11.695 -6.516 
178 1 2.161 0.594 3.922 
179 1 -6.605 -11.553 5.374 
180 1 -4.717 -4.278 -3.367 
181 1 9.616 -10.913 8.312 
182 1 -4.904 -8.314 3.563 
183 1 7.149 2.427 2.652 
184 1 -2.298 8.756 -9.563 
185 1 9.455 -1.168 -0.209 
186 1 -2.771 11.619 -7.211 
187 1 -3.458 12.556 11.566 
188 1 5.933 4.442 5.510 
189 1 7.989 8.100 7.503 
190 1 4.701 -10.006 5.819 
191 1 -2.727 -11.764 2.614 
192 1 -2.624 -1.339 -9.529 
193 1 -8.967 -9.934 -10.087 
194 1 2.349 9.051 -7.735 
195 1 -12.277 5.727 8.455 
196 1 -5.846 10.416 8.722 
197 1 -3.044 3.688 10.778 
198 1 -0.175 3.432 -12.533 
199 1 6.806 0.832 -0.734 
200 1 2.320 -10.500 -6.347 
ITEM: TIMESTEP
7000
ITEM: NUMBER OF ATOMS
200
ITEM: BOX BOUNDS pp pp pp
-12.74986103408113 12.74986103408113
-12.74986103408113 12.74986103408113
-12.74986103408113 12.74986103408113
ITEM: ATOMS id type x y z
1 1 5.863 5.624 1.095 
2 1 2.437 7.790 0.272 
3 1 2.094 5.141 -9.087 
4 1 -1.515 6.746 8.934 
5 1 -6.912 -2.368 3.126 
6 1 5.442 12.734 7.164 
7 1 4.299 -1.948 5.174 
8 1 2.626 9.181 11.941 
9 1 5.511 10.505 1.904 
10 1 -8.023 7.997 -1.091 
11 1 -1.061 -9.246 3.994 
12 1 11.891 10.551 8.439 
13 1 -8.910 -5.949 -0.732 
14 1 11.567 -6.094 7.320 
15 1 7.198 3.404 12.259 
16 1 -0.309 11.039 -12.216 
17 1 -5.310 -8.411 -0.752 
18 1 -0.038 -11.428 -4.161 
19 1 -6.227 1.402 2.550 
20 1 -3.220 0.199 -3.089 
21 1 1.944 -0.133 -10.516 
22 1 -1.796 -7.923 -7.353 
23 1 8.047 7.724 -7.630 
24 1 11.279 10.292 -7.764 
25 1 -7.049 11.975 12.293 
26 1 7.296 -12.325 -9.672 
27 1 -10.674 1.738 4.155 
28 1 -10.640 -12.734 -7.416 
29 1 -1.338 4.270 -6.005 
30 1 -7.403 -3.724 6.543 
31 1 -9.522 1.389 -0.143 
32 1 1.031 9.494 3.328 
33 1 -0.570 1.132 -8.294 
34 1 -10.156 5.568 10.490 
35 1 -1.858 -10.022 10.595 
36 1 -11.781 -0.109 11.982 
37 1 5.136 -1.553 12.501 
38 1 -2.093 -7.189 1.794 
39 1 -7.156 4.642 6.638 
40 1 2.414 5.789 11.867 
41 1 -1.242 -6.497 -1.692 
42 1 11.280 -11.923 -7.191 
43 1 -10.775 -2.690 0.785 
44 1 5.418 1.448 -8.900 
45 1 3.850 -9.876 -3.303 
46 1 -9.755 -12.468 10.513 
47 1 -7.525 -6.901 5.992 
48 1 2.657 -8.312 1.622 
49 1 4.652 -0.113 8.494 
50 1 4.783 10.126 -9.777 
51 1 -2.219 9.572 6.192 
52 1 2.295 6.059 7.732 
53 1 6.647 -8.011 -7.640 
54 1 8.550 10.915 -0.043 
55 1 1.809 -3.232 12.710 
56 1 -5.664 1.951 12.185 
57 1 7.664 6.842 3.815 
58 1 -11.874 1.024 -8.261 
59 1 1.914 -8.387 -11.848 
60 1 -3.080 2.264 0.093 
61 1 10.654 8.452 3.306 
62 1 -8.691 -2.589 -8.336 
63 1 7.675 10.493 5.595 
64 1 -9.469 -10.320 1.636 
65 1 -6.456 5.430 11.988 
66 1 -8.316 -12.005 -1.923 
67 1 10.067 3.377 7.097 
68 1 9.553 2.219 -5.188 
69 1 0.493 -6.641 10.532 
70 1 -5.666 7.949 6.279 
71 1 12.365 -0.460 2.192 
72 1 6.702 -9.315 0.398 
73 1 -6.773 -12.356 1.358 
74 1 -8.295 1.920 -9.893 
75 1 0.308 -10.177 -0.163 
76 1 9.424 -10.532 12.541 
77 1 -4.397 -4.679 4.250 
78 1 3.122 -6.078 -9.341 
79 1 6.449 -12.515 12.051 
80 1 -10.487 -2.304 4.311 
81 1 -1.147 -4.153 -7.909 
82 1 -5.653 11.160 3.966 
83 1 -4.317 -10.458 -4.577 
84 1 -7.098 -0.969 8.917 
85 1 -11.407 7.863 -12.192 
86 1 -3.177 -6.813 -4.391 
87 1 -3.593 4.226 -11.438 
88 1 -0.071 3.297 -2.652 
89 1 -0.652 -1.231 -4.918 
90 1 3.425 2.441 -2.800 
91 1 12.274 -9.284 3.757 
92 1 1.093 12.667 5.311 
93 1 -6.448 1.386 -6.785 
94 1 9.946 5.956 -10.154 
95 1 2.280 12.341 -0.085 
96 1 -9.341 4.651 -2.553 
97 1 -3.942 7.564 3.620 
98 1 -11.911 4.693 -6.401 
99 1 -4.135 12.060 -1.517 
100 1 3.067 1.811 -6.933 
101 1 0.340 10.739 8.534 
102 1 -9.916 -7.192 2.183 
103 1 -11.301 -5.470 -8.815 
104 1 -6.800 7.020 -9.717 
105 1 -7.268 -10.867 9.184 
106 1 5.766 -8.234 -12.050 
107 1 0.730 -4.089 -0.668 
108 1 7.998 9.542 -11.831 
109 1 -6.119 4.701 1.058 
110 1 1.292 3.109 9.223 
111 1 2.391 -3.789 9.640 
112 1 8.386 10.417 9.165 
113 1 -11.268 3.986 -11.058 
114 1 4.670 3.408 9.234 
115 1 -7.916 -6.862 -8.978 
116 1 4.268 -5.948 -0.859 
117 1 8.159 -3.394 4.251 
118 1 -6.570 -1.195 -1.415 
119 1 10.123 -9.050 -6.124 
120 1 -2.974 -4.579 7.267 
121 1 5.380 7.489 11.774 
122 1 -8.199 5.812 -6.357 
123 1 -2.205 10.494 1.142 
124 1 2.253 4.135 4.412 
125 1 4.011 -1.989 -6.270 
126 1 -8.619 -7.575 10.020 
127 1 -1.611 2.770 7.271 
128 1 12.627 10.433 -4.298 
129 1 -5.374 8.630 12.400 
130 1 8.510 -6.106 11.975 
131 1 -2.077 0.129 3.524 
132 1 -10.234 11.665 5.426 
133 1 5.818 -4.102 -8.308 
134 1 11.925 -12.361 -11.225 
135 1 11.739 -2.115 6.627 
136 1 -2.235 0.342 -12.518 
137 1 1.333 2.949 0.325 
138 1 -0.412 10.636 -2.125 
139 1 -6.296 -9.747 -7.828 
140 1 2.174 -11.221 9.770 
141 1 -5.686 -1.742 -5.332 
142 1 -7.642 1.379 5.652 
143 1 -6.730 -7.052 -3.501 
144 1 -3.085 -11.726 5.532 
145 1 -10.211 9.700 10.327 
146 1 -5.712 -4.667 -7.198 
147 1 -9.922 -1.133 -2.681 
148 1 -0.503 6.153 5.812 
149 1 -5.464 -2.252 12.374 
150 1 -3.935 -7.964 6.984 
151 1 4.392 2.054 0.931 
152 1 -9.612 4.815 3.143 
153 1 0.697 0.445 7.292 
154 1 -1.164 -10.342 -10.717 
155 1 -1.842 7.576 12.329 
156 1 4.394 7.326 -4.666 
157 1 9.093 6.611 10.389 
158 1 -1.982 -3.405 -11.901 
159 1 -11.155 7.384 -8.331 
160 1 -5.482 -5.484 10.793 
161 1 -6.475 -10.825 -11.742 
162 1 7.010 -7.522 6.995 
163 1 0.603 -4.523 -4.403 
164 1 4.528 8.741 8.333 
165 1 -5.179 9.706 -4.187 
166 1 -5.194 -6.882 -11.148 
167 1 -2.625 3.883 4.208 
168 1 -0.535 6.602 1.241 
169 1 -3.749 -1.219 1.028 
170 1 -9.036 8.667 3.328 
171 1 2.508 -1.440 -0.170 
172 1 3.909 8.153 5.161 
173 1 -2.108 7.314 -1.725 
174 1 -11.128 -4.019 12.053 
175 1 8.592 -3.349 9.204 
176 1 3.596 1.874 12.363 
177 1 8.057 10.617 -6.035 
178 1 2.405 0.385 3.526 
179 1 -7.324 -10.964 5.396 
180 1 -4.404 -3.670 -2.550 
181 1 9.213 -10.647 8.518 
182 1 -5.130 -8.837 3.153 
183 1 7.725 2.256 3.407 
184 1 -2.250 8.416 -9.824 
185 1 9.358 -0.199 0.586 
186 1 -1.444 12.089 -7.013 
187 1 -3.641 12.406 12.690 
188 1 6.023 4.772 6.479 
189 1 8.560 7.847 7.292 
190 1 4.289 -10.290 4.559 
191 1 -3.515 -12.116 2.137 
192 1 -3.585 -0.991 -8.719 
193 1 -9.719 -10.506 -11.084 
194 1 1.428 8.589 -8.200 
195 1 -12.129 5.913 8.173 
196 1 -5.479 10.918 9.198 
197 1 -3.533 3.997 10.649 
198 1 -0.322 3.736 -12.317 
199 1 7.451 1.266 -1.263 
200 1 2.882 -10.091 -7.549 
ITEM: TIMESTEP
8000
ITEM: NUMBER OF ATOMS
200
ITEM: BOX BOUNDS pp pp pp
-12.74986103408113 12.74986103408113
-12.74986103408113 12.74986103408113
-12.74986103408113 12.74986103408113
ITEM: ATOMS id type x y z
1 1 6.797 6.437 0.479 
2 1 2.705 7.151 -0.059 
3 1 2.318 5.364 -8.819 
4 1 -1.080 5.952 9.285 
5 1 -7.373 -2.346 2.989 
6 1 4.932 -12.644 7.215 
7 1 3.067 -2.983 5.944 
8 1 2.943 9.984 -12.547 
9 1 5.569 10.612 1.938 
10 1 -8.538 9.531 -1.493 
11 1 -1.215 -9.762 4.524 
12 1 11.661 11.304 8.366 
13 1 -8.012 -6.170 -0.899 
14 1 12.578 -5.462 7.356 
15 1 7.304 3.775 11.698 
16 1 -0.048 10.949 -11.272 
17 1 -5.879 -9.281 -0.281 
18 1 1.516 -11.654 -4.237 
19 1 -6.356 1.302 3.311 
20 1 -3.333 0.473 -2.907 
21 1 2.242 0.479 -9.877 
22 1 -1.203 -7.671 -7.692 
23 1 8.564 8.151 -8.428 
24 1 11.811 9.523 -7.928 
25 1 -7.333 -12.540 -12.416 
26 1 8.222 -12.281 -9.200 
27 1 -11.574 1.942 4.346 
28 1 -9.947 -12.349 -7.361 
29 1 -1.406 4.474 -6.157 
30 1 -8.408 -3.279 7.382 
31 1 -9.591 1.497 -0.636 
32 1 0.950 9.314 3.248 
33 1 -1.269 1.669 -8.418 
34 1 -9.223 6.098 10.213 
35 1 -1.544 -9.105 11.134 
36 1 -11.680 0.809 10.841 
37 1 5.095 -0.739 11.221 
38 1 -1.544 -6.179 2.013 
39 1 -6.499 4.310 7.854 
40 1 2.230 5.620 11.777 
41 1 -1.915 -6.926 -1.286 
42 1 11.350 -11.871 -5.848 
43 1 -10.068 -3.373 0.561 
44 1 6.086 2.184 -9.049 
45 1 5.402 -9.108 -4.668 
46 1 -10.247 12.721 10.497 
47 1 -7.274 -7.662 6.149 
48 1 2.742 -8.258 2.252 
49 1 5.712 0.717 8.150 
50 1 4.314 10.606 -9.666 
51 1 -1.760 10.177 4.808 
52 1 2.161 7.118 7.974 
53 1 6.644 -7.807 -7.673 
54 1 9.120 10.951 -0.172 
55 1 2.018 -2.820 12.643 
56 1 -6.290 1.693 12.290 
57 1 7.077 6.678 3.793 
58 1 12.540 0.474 -8.291 
59 1 1.702 -8.938 -11.650 
60 1 -3.300 2.708 0.894 
61 1 10.801 7.967 4.044 
62 1 -8.131 -2.115 -8.286 
63 1 8.040 10.179 5.435 
64 1 -9.568 -10.730 2.054 
65 1 -6.776 5.416 12.260 
66 1 -8.344 -12.384 -1.670 
67 1 10.163 2.720 5.847 
68 1 9.339 1.927 -5.523 
69 1 -0.158 -6.206 10.474 
70 1 -5.840 7.945 6.323 
71 1 -12.185 -0.536 1.192 
72 1 7.097 -10.184 0.927 
73 1 -6.944 12.402 1.138 
74 1 -8.765 2.616 -9.287 
75 1 0.505 -9.829 -0.706 
76 1 8.939 -9.507 12.654 
77 1 -3.364 -3.655 4.221 
78 1 2.642 -6.097 -9.299 
79 1 5.494 -12.133 12.688 
80 1 -9.607 -1.148 4.896 
81 1 0.202 -3.577 -8.475 
82 1 -5.548 11.951 4.219 
83 1 -2.520 -11.173 -3.541 
84 1 -6.253 -0.599 8.215 
85 1 -12.181 7.970 -12.432 
86 1 -2.750 -6.736 -4.815 
87 1 -3.766 3.447 -10.911 
88 1 -0.766 3.999 -2.158 
89 1 -0.121 -1.410 -4.994 
90 1 4.245 2.366 -3.032 
91 1 -12.223 -10.152 4.506 
92 1 1.814 -12.553 5.336 
93 1 -6.761 0.777 -6.834 
94 1 10.718 5.305 -10.097 
95 1 2.901 12.558 -0.127 
96 1 -9.717 4.759 -2.202 
97 1 -3.663 6.942 2.631 
98 1 -11.885 4.624 -5.989 
99 1 -4.187 12.088 -1.707 
100 1 2.974 1.941 -7.080 
101 1 0.188 10.527 8.613 
102 1 -9.526 -7.137 2.593 
103 1 -10.558 -5.044 -8.194 
104 1 -5.966 6.899 -8.167 
105 1 -6.043 -9.926 8.541 
106 1 6.036 -7.954 -11.757 
107 1 0.769 -4.644 -1.040 
108 1 7.625 9.931 -11.338 
109 1 -6.387 4.836 0.904 
110 1 0.859 2.426 10.344 
111 1 2.024 -3.251 9.513 
112 1 8.201 11.319 10.747 
113 1 -11.185 3.807 -11.607 
114 1 4.201 3.821 9.694 
115 1 -7.232 -6.526 -8.147 
116 1 4.021 -6.428 -0.808 
117 1 7.918 -2.511 4.623 
118 1 -6.633 -1.790 -1.055 
119 1 10.003 -8.203 -6.304 
120 1 -3.982 -4.122 7.786 
121 1 5.878 7.159 11.682 
122 1 -8.403 6.841 -5.930 
123 1 -2.846 10.338 1.407 
124 1 2.346 3.706 4.913 
125 1 3.517 -1.610 -5.607 
126 1 -9.816 -8.222 9.725 
127 1 -2.630 2.807 6.970 
128 1 -12.323 9.392 -4.092 
129 1 -4.732 8.428 12.638 
130 1 7.699 -5.428 11.557 
131 1 -2.348 0.764 3.843 
132 1 -9.554 11.513 5.077 
133 1 5.378 -4.361 -7.815 
134 1 11.307 12.160 -10.731 
135 1 11.330 -1.548 6.733 
136 1 -1.976 0.652 12.579 
137 1 0.003 3.602 1.363 
138 1 -0.524 11.293 -1.458 
139 1 -5.575 -9.962 -7.616 
140 1 2.086 -12.552 9.551 
141 1 -4.571 -1.712 -5.364 
142 1 -8.249 1.992 5.851 
143 1 -6.549 -7.167 -4.698 
144 1 -3.277 -12.139 6.809 
145 1 -9.119 9.235 9.420 
146 1 -4.417 -4.175 -7.685 
147 1 -10.388 -1.577 -2.629 
148 1 -0.673 5.993 5.982 
149 1 -5.032 -2.097 -12.595 
150 1 -3.538 -7.841 6.601 
151 1 4.708 1.249 0.852 
152 1 -9.765 4.393 2.046 
153 1 0.990 0.063 8.311 
154 1 -1.339 -9.900 -10.807 
155 1 -1.047 7.525 12.519 
156 1 4.036 6.430 -3.825 
157 1 9.724 6.904 11.380 
158 1 -1.639 -4.296 -12.442 
159 1 -10.990 7.129 -8.943 
160 1 -5.778 -5.665 11.024 
161 1 -6.316 -9.499 -12.556 
162 1 6.614 -7.771 6.927 
163 1 0.094 -4.621 -4.329 
164 1 5.197 8.464 8.688 
165 1 -5.009 9.009 -4.134 
166 1 -4.789 -6.915 -10.483 
167 1 -2.713 4.164 3.913 
168 1 -0.360 6.525 1.884 
169 1 -3.749 -0.647 0.900 
170 1 -8.717 7.945 2.812 
171 1 1.223 -0.813 -1.519 
172 1 3.791 8.645 5.300 
173 1 -2.765 7.836 -1.334 
174 1 -10.625 -3.871 11.642 
175 1 9.003 -2.990 9.296 
176 1 3.207 2.300 -12.734 
177 1 8.510 10.953 -6.422 
178 1 1.441 0.378 3.769 
179 1 -7.855 -11.298 5.266 
180 1 -4.302 -4.028 -2.424 
181 1 9.185 -11.114 8.354 
182 1 -4.363 -8.870 2.839 
183 1 7.029 1.990 4.276 
184 1 -2.697 8.736 -9.713 
185 1 10.229 0.140 1.102 
186 1 -1.531 12.257 -8.351 
187 1 -3.106 12.099 12.023 
188 1 6.253 4.871 7.123 
189 1 9.466 7.232 7.554 
190 1 5.167 -10.384 4.428 
191 1 -2.722 -11.802 2.188 
192 1 -3.382 -1.079 -9.597 
193 1 -9.898 -10.864 -10.804 
194 1 0.882 8.511 -8.216 
195 1 -12.345 5.685 7.038 
196 1 -5.744 11.535 8.566 
197 1 -3.524 3.594 10.475 
198 1 -0.044 3.210 -11.162 
199 1 7.582 1.552 -1.185 
200 1 2.635 -10.138 -6.999 
ITEM: TIMESTEP
9000
ITEM: NUMBER OF ATOMS
200
ITEM: BOX BOUNDS pp pp pp
-12.74986103408113 12.74986103408113
-12.74986103408113 12.74986103408113
-12.74986103408113 12.74986103408113
ITEM: ATOMS id type x y z
1 1 6.840 6.598 0.303 
2 1 2.733 7.165 -0.662 
3 1 2.532 5.270 -8.544 
4 1 -1.170 5.388 8.940 
5 1 -7.274 -1.520 2.631 
6 1 4.720 12.574 7.865 
7 1 3.610 -1.925 5.779 
8 1 2.921 9.884 -12.049 
9 1 5.597 10.550 2.527 
10 1 -9.416 10.086 -1.430 
11 1 -1.257 -10.031 4.798 
12 1 11.614 12.143 7.647 
13 1 -7.585 -6.434 -1.231 
14 1 12.676 -5.870 6.654 
15 1 7.850 3.526 -12.236 
16 1 -0.302 11.472 -11.450 
17 1 -5.297 -9.298 -1.024 
18 1 1.322 -11.988 -3.917 
19 1 -6.524 2.122 2.447 
20 1 -2.984 0.361 -2.456 
21 1 1.735 0.513 -9.791 
22 1 -1.173 -8.450 -8.012 
23 1 8.216 7.168 -8.986 
24 1 12.542 9.836 -8.715 
25 1 -7.424 11.612 -12.535 
26 1 8.104 -11.938 -8.879 
27 1 -11.702 1.744 4.298 
28 1 -9.669 -11.807 -7.326 
29 1 -2.167 4.739 -5.623 
30 1 -8.597 -3.617 6.729 
31 1 -9.026 1.224 -0.900 
32 1 1.721 9.927 2.946 
33 1 -0.444 2.433 -7.777 
34 1 -9.621 5.776 9.906 
35 1 -1.030 -9.541 10.455 
36 1 -11.435 0.246 9.854 
37 1 5.672 -0.619 11.541 
38 1 -2.126 -5.100 1.667 
39 1 -6.014 4.099 7.216 
40 1 2.299 6.217 11.615 
41 1 -1.763 -7.390 -0.942 
42 1 11.916 -11.681 -5.930 
43 1 -9.109 -3.558 0.277 
44 1 6.592 2.533 -8.955 
45 1 5.161 -9.250 -5.311 
46 1 -9.836 12.341 10.233 
47 1 -7.186 -7.498 6.369 
48 1 2.674 -8.853 2.272 
49 1 6.654 0.997 7.429 
50 1 4.077 9.320 -7.768 
51 1 -1.401 9.778 4.806 
52 1 2.101 6.973 7.688 
53 1 7.548 -6.794 -8.186 
54 1 8.416 11.156 -0.773 
55 1 2.150 -1.604 -12.535 
56 1 -6.577 1.973 12.425 
57 1 7.909 7.136 3.775 
58 1 10.896 0.269 -8.451 
59 1 1.100 -8.507 -12.084 
60 1 -3.433 2.410 0.253 
61 1 11.046 8.544 4.245 
62 1 -6.971 -2.845 -8.274 
63 1 8.052 10.449 5.504 
64 1 -9.107 -10.024 2.119 
65 1 -6.092 5.809 10.942 
66 1 -7.342 -11.578 -2.905 
67 1 9.675 3.400 6.953 
68 1 7.899 2.877 -4.029 
69 1 -0.055 -5.987 10.504 
70 1 -5.973 8.245 5.927 
71 1 -11.521 0.234 0.866 
72 1 7.148 -9.730 1.191 
73 1 -6.938 -12.300 0.964 
74 1 -10.325 2.299 -8.432 
75 1 0.885 -9.414 -0.520 
76 1 9.234 -9.522 12.530 
77 1 -2.739 -3.417 4.189 
78 1 3.027 -6.206 -8.698 
79 1 5.495 -11.929 -12.350 
80 1 -11.132 -1.770 4.576 
81 1 0.412 -2.705 -8.513 
82 1 -4.544 10.755 4.039 
83 1 -2.490 -10.734 -4.567 
84 1 -5.909 -0.384 9.575 
85 1 -11.708 7.834 -12.186 
86 1 -2.638 -6.528 -4.762 
87 1 -3.515 3.235 -10.653 
88 1 -1.622 4.088 -2.254 
89 1 -0.163 -1.147 -4.416 
90 1 3.855 2.979 -2.928 
91 1 -12.246 -10.642 5.216 
92 1 1.811 -11.789 6.585 
93 1 -7.670 0.584 -6.790 
94 1 10.787 5.181 -11.676 
95 1 3.083 12.399 -0.216 
96 1 -10.499 4.981 -2.036 
97 1 -3.953 7.427 2.494 
98 1 -12.023 4.928 -5.489 
99 1 -4.809 11.553 -1.655 
100 1 3.501 2.411 -6.377 
101 1 0.944 10.358 7.770 
102 1 -8.356 -6.858 3.449 
103 1 -10.882 -4.911 -7.066 
104 1 -4.727 7.226 -8.063 
105 1 -4.608 -9.894 9.782 
106 1 4.739 -7.889 -11.211 
107 1 0.385 -4.520 -0.888 
108 1 7.333 10.136 -11.765 
109 1 -6.187 5.587 0.975 
110 1 0.718 2.820 10.907 
111 1 2.559 -3.320 9.771 
112 1 7.018 10.813 10.480 
113 1 -10.854 3.648 -11.920 
114 1 4.342 4.363 9.376 
115 1 -7.282 -5.894 -7.965 
116 1 3.343 -6.160 -0.937 
117 1 8.051 -2.445 4.274 
118 1 -6.092 -1.456 -1.101 
119 1 9.652 -9.544 -4.969 
120 1 -4.291 -4.881 7.194 
121 1 5.728 7.429 11.842 
122 1 -7.339 6.443 -6.242 
123 1 -2.613 10.905 1.413 
124 1 1.071 3.957 4.882 
125 1 3.246 -1.081 -5.640 
126 1 -8.880 -7.851 9.624 
127 1 -2.690 2.028 7.276 
128 1 -11.803 9.364 -5.370 
129 1 -4.245 9.366 12.499 
130 1 7.886 -6.279 11.814 
131 1 -2.376 0.713 3.573 
132 1 -10.634 11.833 5.251 
133 1 6.061 -4.631 -6.159 
134 1 11.353 -12.147 -11.582 
135 1 10.817 -0.912 6.322 
136 1 -1.836 -0.171 -12.227 
137 1 -0.072 3.146 1.642 
138 1 -0.484 11.267 -1.093 
139 1 -4.397 -10.172 -8.182 
140 1 2.358 -11.103 10.018 
141 1 -3.038 -1.880 -5.650 
142 1 -7.817 1.175 5.737 
143 1 -6.856 -8.797 -5.094 
144 1 -2.641 -12.353 6.989 
145 1 -9.848 9.312 7.575 
146 1 -3.831 -3.234 -8.732 
147 1 -11.162 -1.224 -2.317 
148 1 -1.042 6.372 5.343 
149 1 -4.906 -2.344 12.460 
150 1 -3.843 -8.059 6.213 
151 1 4.088 1.576 0.911 
152 1 -11.170 5.937 1.133 
153 1 1.368 -0.288 8.076 
154 1 -1.644 -10.287 -10.797 
155 1 -1.722 6.592 12.573 
156 1 5.092 6.603 -4.052 
157 1 8.474 6.350 10.279 
158 1 -1.892 -3.318 12.512 
159 1 -10.209 7.448 -8.890 
160 1 -5.537 -6.109 10.872 
161 1 -5.248 -9.832 -12.172 
162 1 5.259 -8.263 7.896 
163 1 0.767 -4.931 -4.783 
164 1 4.155 9.338 9.696 
165 1 -5.340 9.720 -4.557 
166 1 -4.120 -6.484 -9.913 
167 1 -3.107 3.860 3.382 
168 1 -0.917 7.880 1.083 
169 1 -2.867 -1.348 1.043 
170 1 -8.443 7.551 1.973 
171 1 2.144 -0.511 -1.737 
172 1 3.612 7.566 4.673 
173 1 -2.471 8.484 -2.586 
174 1 -11.343 -4.315 12.201 
175 1 9.111 -2.767 9.081 
176 1 3.649 2.243 -12.372 
177 1 7.264 10.038 -6.881 
178 1 0.801 -0.564 4.049 
179 1 -7.081 -11.416 5.503 
180 1 -3.739 -4.203 -2.458 
181 1 8.862 -11.638 8.988 
182 1 -5.240 -8.511 2.790 
183 1 7.396 2.166 3.855 
184 1 -2.266 8.542 -9.883 
185 1 9.764 -0.454 1.275 
186 1 -1.658 12.052 -8.162 
187 1 -3.182 12.466 11.364 
188 1 6.215 4.761 6.805 
189 1 9.966 7.923 7.243 
190 1 5.194 -10.032 4.943 
191 1 -2.942 -11.234 2.314 
192 1 -4.612 0.039 -9.251 
193 1 -9.550 -11.924 -10.973 
194 1 0.469 8.327 -7.157 
195 1 -12.087 4.061 6.893 
196 1 -6.686 11.367 9.037 
197 1 -3.949 2.833 10.779 
198 1 -0.166 3.557 -11.328 
199 1 6.423 0.470 -1.388 
200 1 2.674 -10.133 -8.186 
ITEM: TIMESTEP
10000
ITEM: NUMBER OF ATOMS
200
ITEM: BOX BOUNDS pp pp pp
-12.74986103408113 12.74986103408113
-12.74986103408113 12.74986103408113
-12.74986103408113 12.74986103408113
ITEM: ATOMS id type x y z
1 1 6.564 5.623 0.236 
2 1 2.670 7.312 -0.944 
3 1 2.671 5.063 -8.752 
4 1 -1.283 5.223 9.099 
5 1 -7.416 -1.905 3.061 
6 1 6.392 -12.493 7.171 
7 1 4.901 -2.536 5.811 
8 1 3.236 9.619 -11.165 
9 1 5.241 9.326 1.709 
10 1 -8.755 9.377 -2.322 
11 1 0.016 -10.168 4.290 
12 1 11.075 11.787 7.104 
13 1 -7.856 -5.832 -1.966 
14 1 12.595 -6.717 7.561 
15 1 7.246 3.262 -11.300 
16 1 -0.904 11.678 -11.820 
17 1 -4.964 -8.797 -1.775 
18 1 0.891 12.303 -4.298 
19 1 -6.222 2.206 2.504 
20 1 -2.938 0.580 -2.932 
21 1 2.156 0.301 -9.871 
22 1 -0.530 -7.842 -7.940 
23 1 9.065 7.186 -9.647 
24 1 11.927 10.618 -7.776 
25 1 -8.000 10.989 -12.067 
26 1 8.523 -11.457 -8.926 
27 1 11.993 1.044 3.550 
28 1 -9.996 11.756 -7.189 
29 1 -2.748 5.047 -5.758 
30 1 -8.623 -3.982 6.702 
31 1 -8.218 1.458 -1.215 
32 1 1.460 10.498 2.901 
33 1 -1.158 2.541 -7.887 
34 1 -9.155 5.625 10.094 
35 1 -1.564 -9.911 9.539 
36 1 -10.792 -0.247 10.444 
37 1 5.568 -0.594 11.686 
38 1 -2.108 -5.448 1.527 
39 1 -6.691 3.568 7.726 
40 1 1.775 5.979 11.980 
41 1 -1.708 -7.836 -1.010 
42 1 12.475 -11.503 -4.674 
43 1 -8.602 -2.992 0.394 
44 1 5.327 1.707 -8.635 
45 1 5.307 -10.013 -4.161 
46 1 -9.538 -12.721 9.943 
47 1 -7.207 -7.453 6.557 
48 1 2.516 -9.381 1.846 
49 1 6.216 0.771 7.861 
50 1 3.020 9.365 -6.968 
51 1 -1.510 9.986 5.461 
52 1 2.158 6.936 8.856 
53 1 6.884 -7.811 -7.592 
54 1 9.034 12.655 -1.517 
55 1 2.425 -1.989 12.485 
56 1 -7.237 2.970 -12.345 
57 1 8.006 5.707 3.645 
58 1 11.589 -0.064 -8.163 
59 1 0.937 -8.559 -12.006 
60 1 -3.483 2.343 0.058 
61 1 11.642 8.790 4.395 
62 1 -7.538 -2.731 -8.112 
63 1 8.325 10.635 4.101 
64 1 -8.779 -9.593 2.183 
65 1 -5.817 6.420 9.740 
66 1 -7.073 -12.106 -3.370 
67 1 10.190 3.211 7.714 
68 1 7.698 2.591 -3.869 
69 1 -0.281 -5.406 9.646 
70 1 -6.178 7.332 6.031 
71 1 -11.016 0.736 0.614 
72 1 7.862 -10.169 1.037 
73 1 -7.292 -12.279 0.327 
74 1 -10.687 1.844 -9.241 
75 1 -0.075 -10.599 -1.186 
76 1 9.101 -10.058 12.582 
77 1 -3.254 -3.547 3.514 
78 1 3.715 -6.082 -8.380 
79 1 4.834 -12.492 12.685 
80 1 -10.403 -0.840 4.066 
81 1 -0.143 -2.095 -8.305 
82 1 -4.968 10.428 4.253 
83 1 -2.333 -10.986 -4.489 
84 1 -6.059 -0.300 9.505 
85 1 -11.110 8.245 11.620 
86 1 -3.038 -7.427 -5.241 
87 1 -3.784 3.148 -11.004 
88 1 -1.319 4.310 -2.548 
89 1 0.037 -2.014 -4.427 
90 1 3.310 2.990 -3.443 
91 1 12.329 -10.336 5.008 
92 1 2.339 -12.053 6.122 
93 1 -7.228 0.636 -6.770 
94 1 11.963 5.692 12.609 
95 1 3.015 12.474 0.175 
96 1 -10.245 5.247 -2.059 
97 1 -4.060 7.962 2.037 
98 1 -12.189 4.880 -6.989 
99 1 -4.238 12.135 -2.060 
100 1 2.899 2.382 -6.518 
101 1 0.569 10.795 8.485 
102 1 -6.936 -5.822 2.303 
103 1 -11.339 -5.749 -6.304 
104 1 -3.715 5.970 -9.183 
105 1 -5.130 -9.621 9.542 
106 1 5.140 -8.506 -11.027 
107 1 0.689 -4.385 -0.938 
108 1 7.102 9.602 -10.907 
109 1 -6.321 5.839 1.207 
110 1 0.808 2.329 10.914 
111 1 3.512 -4.149 9.203 
112 1 7.297 11.018 10.255 
113 1 -10.682 3.828 12.493 
114 1 4.159 4.036 9.770 
115 1 -6.423 -5.892 -7.411 
116 1 4.597 -5.609 -0.342 
117 1 7.713 -1.981 3.187 
118 1 -6.029 -1.333 -1.440 
119 1 8.642 -10.365 -4.849 
120 1 -4.374 -4.649 6.690 
121 1 5.655 7.417 12.171 
122 1 -7.803 6.560 -5.445 
123 1 -2.553 10.755 1.388 
124 1 1.219 3.595 5.134 
125 1 3.391 -2.931 -5.907 
126 1 -9.921 -7.733 9.592 
127 1 -2.799 2.370 6.407 
128 1 -11.344 9.325 -5.166 
129 1 -4.654 8.684 -12.558 
130 1 7.865 -6.768 10.866 
131 1 -1.941 0.282 3.527 
132 1 -9.635 11.787 4.962 
133 1 6.337 -5.166 -5.524 
134 1 12.479 12.673 -11.210 
135 1 10.604 -1.528 6.896 
136 1 -1.522 0.104 -10.713 
137 1 -0.269 3.301 1.438 
138 1 -0.615 11.087 -1.290 
139 1 -4.722 -10.216 -8.722 
140 1 1.908 -11.240 9.793 
141 1 -3.264 -1.396 -6.055 
142 1 -7.741 0.619 5.383 
143 1 -6.512 -9.314 -5.066 
144 1 -3.045 -12.290 7.421 
145 1 -9.848 9.456 7.643 
146 1 -3.248 -3.569 -9.193 
147 1 -11.048 -1.270 -2.048 
148 1 -1.237 6.565 4.429 
149 1 -5.369 -1.009 12.691 
150 1 -3.259 -8.616 6.246 
151 1 4.066 0.936 1.018 
152 1 -12.174 6.622 0.663 
153 1 1.901 -0.979 7.295 
154 1 -1.702 -10.999 -10.810 
155 1 -2.128 6.332 12.375 
156 1 5.605 6.429 -4.042 
157 1 8.249 6.032 10.328 
158 1 -1.156 -3.172 -12.356 
159 1 -10.794 7.358 -8.627 
160 1 -6.194 -5.407 9.103 
161 1 -5.323 -10.859 -12.455 
162 1 4.721 -8.471 8.698 
163 1 0.573 -5.698 -4.797 
164 1 3.265 10.021 10.739 
165 1 -4.781 9.538 -4.641 
166 1 -4.586 -6.594 -10.350 
167 1 -3.621 4.430 3.405 
168 1 -0.346 7.403 1.163 
169 1 -2.501 -2.290 0.366 
170 1 -9.345 8.459 1.449 
171 1 2.550 -1.443 -0.962 
172 1 3.701 7.725 4.869 
173 1 -2.362 7.837 -2.172 
174 1 -11.993 -4.737 -10.994 
175 1 8.417 -2.512 9.619 
176 1 3.172 2.400 -12.225 
177 1 6.344 10.201 -7.907 
178 1 1.797 -0.162 3.881 
179 1 -6.391 -11.868 5.557 
180 1 -4.059 -4.438 -2.064 
181 1 9.595 -11.430 9.634 
182 1 -4.582 -8.720 2.785 
183 1 8.375 2.633 2.445 
184 1 -2.514 8.991 -10.296 
185 1 9.938 -0.541 0.607 
186 1 -2.212 11.744 -8.429 
187 1 -2.744 11.723 10.957 
188 1 5.709 4.722 6.830 
189 1 10.795 8.408 8.005 
190 1 5.469 -10.636 4.549 
191 1 -3.038 -11.558 1.824 
192 1 -5.546 0.469 -9.503 
193 1 -9.727 -11.984 -10.881 
194 1 -0.128 8.542 -6.922 
195 1 -12.526 5.444 6.424 
196 1 -6.589 10.272 9.841 
197 1 -3.667 2.712 10.040 
198 1 -0.100 3.489 -11.205 
199 1 6.608 0.234 -1.471 
200 1 2.261 -10.314 -8.883 
ITEM: TIMESTEP
11000
ITEM: NUMBER OF ATOMS
200
ITEM: BOX BOUNDS pp pp pp
-12.74986103408113 12.74986103408113
-12.74986103408113 12.74986103408113
-12.74986103408113 12.74986103408113
ITEM: ATOMS id type x y z
1 1 7.159 5.246 -0.228 
2 1 2.546 7.656 -1.322 
3 1 3.505 5.745 -8.973 
4 1 -1.582 5.527 8.399 
5 1 -7.616 -2.425 3.574 
6 1 8.103 -12.305 7.172 
7 1 3.318 -3.369 5.985 
8 1 3.563 10.193 -10.431 
9 1 5.963 9.426 1.329 
10 1 -9.033 10.423 -1.979 
11 1 -0.659 -9.280 3.659 
12 1 11.335 11.677 6.289 
13 1 -8.527 -6.281 -0.766 
14 1 12.304 -7.080 7.897 
15 1 7.710 3.459 -11.310 
16 1 -0.728 11.054 -12.118 
17 1 -4.859 -8.759 -1.195 
18 1 0.809 12.598 -4.275 
19 1 -6.747 1.537 1.732 
20 1 -3.037 1.389 -3.318 
21 1 2.387 0.548 -9.845 
22 1 -0.524 -7.522 -8.281 
23 1 9.138 7.522 -8.590 
24 1 11.975 10.512 -8.043 
25 1 -8.129 11.617 -12.663 
26 1 10.209 -11.230 -8.756 
27 1 11.196 0.715 4.037 
28 1 -10.085 11.929 -6.243 
29 1 -2.826 4.740 -5.636 
30 1 -8.847 -4.057 6.013 
31 1 -8.037 1.315 -1.589 
32 1 2.387 10.387 2.508 
33 1 -0.009 3.104 -7.583 
34 1 -9.551 5.547 9.371 
35 1 -1.419 -9.884 9.620 
36 1 -11.918 -1.039 10.262 
37 1 5.530 -0.128 11.309 
38 1 -1.772 -6.573 2.305 
39 1 -7.659 2.274 8.611 
40 1 1.476 5.895 12.355 
41 1 -1.755 -7.159 -0.920 
42 1 11.742 -12.247 -3.842 
43 1 -9.111 -2.230 0.833 
44 1 6.076 0.906 -6.370 
45 1 5.914 -8.938 -3.605 
46 1 -8.835 12.612 8.805 
47 1 -6.447 -7.224 6.164 
48 1 1.315 -9.139 0.751 
49 1 5.241 0.576 7.479 
50 1 2.886 10.374 -5.496 
51 1 -1.762 9.834 5.848 
52 1 2.198 5.909 8.047 
53 1 6.198 -8.738 -6.924 
54 1 7.997 12.656 -1.809 
55 1 2.509 -3.877 12.647 
56 1 -7.428 2.207 12.204 
57 1 6.827 6.135 4.056 
58 1 10.520 1.326 -9.368 
59 1 0.320 -8.703 -12.733 
60 1 -4.045 3.256 -0.571 
61 1 10.769 8.469 4.533 
62 1 -7.257 -3.878 -8.788 
63 1 7.763 11.793 4.254 
64 1 -9.011 -9.750 2.005 
65 1 -5.089 7.071 9.390 
66 1 -7.206 12.600 -3.598 
67 1 10.641 4.127 7.884 
68 1 7.143 2.609 -3.698 
69 1 0.330 -6.310 9.065 
70 1 -6.877 6.753 5.543 
71 1 -10.671 1.726 0.826 
72 1 7.075 -8.455 1.421 
73 1 -7.037 12.044 1.120 
74 1 -10.484 1.623 -9.475 
75 1 -0.170 -11.093 -1.626 
76 1 8.561 -10.212 -12.116 
77 1 -3.826 -3.249 3.191 
78 1 3.449 -4.913 -9.116 
79 1 4.120 -12.563 -12.363 
80 1 -10.983 -1.510 4.330 
81 1 -0.551 -2.343 -8.302 
82 1 -6.452 10.783 4.963 
83 1 -2.151 -10.811 -4.384 
84 1 -5.605 -0.562 8.829 
85 1 -10.942 7.862 12.316 
86 1 -2.787 -7.524 -4.958 
87 1 -4.108 3.474 -11.544 
88 1 -0.900 4.066 -2.844 
89 1 -0.116 -2.073 -4.011 
90 1 2.754 3.136 -2.923 
91 1 -12.314 -11.304 5.087 
92 1 2.607 -11.715 5.468 
93 1 -7.526 1.175 -6.732 
94 1 11.806 5.762 12.411 
95 1 3.609 -12.415 -0.300 
96 1 -10.282 4.603 -1.636 
97 1 -4.443 8.077 2.842 
98 1 -11.214 4.566 -7.002 
99 1 -4.495 11.294 -1.461 
100 1 3.274 2.336 -5.954 
101 1 0.171 11.048 9.149 
102 1 -6.662 -5.341 2.340 
103 1 -11.947 -6.040 -7.258 
104 1 -5.586 6.666 -8.320 
105 1 -4.693 -8.909 9.495 
106 1 5.413 -8.818 -10.784 
107 1 -0.155 -4.210 -0.479 
108 1 7.386 9.909 -10.592 
109 1 -5.521 5.760 0.694 
110 1 -0.189 2.015 10.373 
111 1 4.364 -4.867 8.906 
112 1 7.530 9.893 10.513 
113 1 -10.932 3.544 12.463 
114 1 4.303 3.910 10.549 
115 1 -5.554 -6.988 -8.388 
116 1 4.029 -6.392 1.100 
117 1 7.754 -1.924 3.863 
118 1 -5.883 -0.992 -2.206 
119 1 8.499 -11.242 -5.618 
120 1 -4.322 -3.593 6.655 
121 1 5.755 7.123 -12.711 
122 1 -8.319 7.801 -6.245 
123 1 -2.311 10.717 1.700 
124 1 0.531 3.431 5.092 
125 1 3.917 -3.254 -5.451 
126 1 -10.049 -8.174 8.456 
127 1 -2.530 1.517 6.206 
128 1 -11.383 9.070 -5.155 
129 1 -5.329 9.330 -11.672 
130 1 7.682 -7.311 10.726 
131 1 -1.912 -0.581 3.388 
132 1 -9.540 -12.368 4.111 
133 1 6.581 -5.632 -4.955 
134 1 12.345 -12.210 -12.060 
135 1 10.913 -0.834 6.945 
136 1 -1.465 0.137 -10.811 
137 1 -1.130 3.832 1.277 
138 1 0.193 10.395 -0.866 
139 1 -4.517 -10.294 -7.956 
140 1 1.935 -11.566 10.057 
141 1 -3.474 -0.634 -5.765 
142 1 -8.520 1.247 4.847 
143 1 -6.129 -9.028 -5.030 
144 1 -3.032 12.522 6.890 
145 1 -11.024 9.309 7.772 
146 1 -3.668 -3.680 -7.481 
147 1 -10.862 -1.534 -2.234 
148 1 -0.984 6.751 3.634 
149 1 -5.467 -2.198 -11.918 
150 1 -2.795 -8.676 6.414 
151 1 3.222 1.894 0.916 
152 1 -12.381 7.167 2.237 
153 1 0.947 -0.346 8.539 
154 1 -1.926 -10.737 -10.497 
155 1 -3.091 5.870 12.178 
156 1 5.778 5.755 -3.674 
157 1 8.974 6.063 10.202 
158 1 -0.989 -3.245 -11.882 
159 1 -11.565 7.679 -9.275 
160 1 -5.738 -4.690 9.793 
161 1 -4.627 -10.635 12.718 
162 1 4.582 -8.321 9.648 
163 1 0.446 -6.026 -4.337 
164 1 2.584 10.219 11.382 
165 1 -4.938 10.529 -6.401 
166 1 -3.597 -6.165 -11.009 
167 1 -3.616 4.458 4.089 
168 1 0.191 6.775 0.724 
169 1 -2.386 -0.984 -0.193 
170 1 -8.862 7.529 1.509 
171 1 2.738 -1.560 -1.742 
172 1 4.016 7.402 4.461 
173 1 -2.590 7.779 -2.892 
174 1 -11.589 -5.823 -11.307 
175 1 8.174 -2.559 8.157 
176 1 3.532 2.151 -12.453 
177 1 6.210 11.200 -7.752 
178 1 1.353 -0.243 3.239 
179 1 -5.710 -11.167 4.924 
180 1 -4.842 -4.712 -1.108 
181 1 10.532 -11.242 9.399 
182 1 -4.512 -8.491 2.981 
183 1 8.660 2.221 2.087 
184 1 -2.594 7.906 -10.366 
185 1 10.400 -1.228 0.574 
186 1 -2.475 12.035 -7.264 
187 1 -2.876 11.489 11.282 
188 1 5.983 4.983 7.191 
189 1 10.255 9.149 8.471 
190 1 5.372 -10.152 3.548 
191 1 -3.662 -11.134 1.465 
192 1 -5.590 0.748 -9.733 
193 1 -9.967 -11.446 -10.288 
194 1 -0.122 8.546 -6.331 
195 1 -12.002 6.050 5.749 
196 1 -7.385 9.221 8.369 
197 1 -3.610 2.776 10.228 
198 1 0.397 2.850 -11.231 
199 1 7.538 -0.430 -2.286 
200 1 2.330 -8.187 -9.562 
ITEM: TIMESTEP
12000
ITEM: NUMBER OF ATOMS
200
ITEM: BOX BOUNDS pp pp pp
-12.74986103408113 12.74986103408113
-12.74986103408113 12.74986103408113
-12.74986103408113 12.74986103408113
ITEM: ATOMS id type x y z
1 1 8.046 5.843 -0.640 
2 1 2.891 7.930 -1.292 
3 1 3.537 5.082 -9.152 
4 1 -1.389 5.756 7.949 
5 1 -6.835 -1.832 3.807 
6 1 8.264 -12.577 7.293 
7 1 3.837 -3.448 6.548 
8 1 3.686 10.658 -9.552 
9 1 5.692 8.795 0.058 
10 1 -9.127 10.778 -1.843 
11 1 -0.581 -9.529 3.873 
12 1 11.380 11.438 6.572 
13 1 -9.076 -6.845 -0.774 
14 1 11.010 -6.152 6.718 
15 1 7.793 3.334 -10.819 
16 1 -0.180 10.679 -10.921 
17 1 -5.678 -9.222 -1.501 
18 1 0.696 12.411 -4.150 
19 1 -6.498 1.950 2.624 
20 1 -3.221 1.736 -3.541 
21 1 3.429 -0.089 -9.639 
22 1 -0.344 -8.707 -7.149 
23 1 9.303 7.177 -9.554 
24 1 10.752 10.393 -8.782 
25 1 -7.854 12.376 12.604 
26 1 9.672 -10.583 -9.153 
27 1 10.864 1.841 3.766 
28 1 -9.271 11.826 -6.121 
29 1 -3.067 5.737 -5.975 
30 1 -9.096 -4.243 5.680 
31 1 -7.722 2.369 -1.709 
32 1 2.485 9.895 2.603 
33 1 0.335 4.076 -7.205 
34 1 -10.087 6.697 9.539 
35 1 -1.223 -10.549 9.124 
36 1 -11.557 -1.486 11.196 
37 1 6.176 0.306 11.197 
38 1 -1.565 -6.418 1.866 
39 1 -7.689 3.177 8.646 
40 1 0.876 5.954 12.553 
41 1 -1.852 -7.028 -2.159 
42 1 12.081 -11.449 -4.839 
43 1 -8.858 -1.971 0.263 
44 1 6.553 0.964 -7.381 
45 1 5.443 -9.525 -3.707 
46 1 -9.662 12.152 8.943 
47 1 -6.759 -7.876 7.308 
48 1 1.232 -9.749 0.574 
49 1 4.936 -0.138 7.826 
50 1 3.198 9.556 -5.783 
51 1 0.135 10.669 5.258 
52 1 2.332 6.876 7.878 
53 1 6.648 -8.238 -7.516 
54 1 8.305 -11.709 -2.703 
55 1 2.499 -3.988 -12.563 
56 1 -7.308 1.927 -11.907 
57 1 7.955 6.235 2.950 
58 1 10.836 1.258 -10.480 
59 1 0.403 -9.000 11.700 
60 1 -3.393 2.968 -0.278 
61 1 11.021 8.672 4.764 
62 1 -8.328 -3.787 -8.417 
63 1 6.726 10.838 3.474 
64 1 -8.498 -9.392 1.920 
65 1 -5.629 6.523 9.131 
66 1 -6.851 -12.708 -3.616 
67 1 11.225 3.773 8.187 
68 1 6.309 2.523 -4.125 
69 1 0.829 -5.111 9.744 
70 1 -6.470 7.016 5.431 
71 1 -9.836 1.365 0.591 
72 1 7.600 -8.130 1.662 
73 1 -7.236 12.650 1.091 
74 1 -10.758 1.657 -10.073 
75 1 -1.277 -11.423 -1.183 
76 1 9.343 -9.869 -12.030 
77 1 -3.123 -3.761 3.651 
78 1 2.596 -4.174 -9.169 
79 1 4.112 -12.318 -12.107 
80 1 -10.637 -1.335 3.639 
81 1 -0.645 -2.006 -8.494 
82 1 -6.397 11.245 4.310 
83 1 -2.448 -11.082 -4.324 
84 1 -5.550 -0.090 8.609 
85 1 -10.246 8.305 12.697 
86 1 -3.060 -7.219 -5.912 
87 1 -3.837 3.546 -11.275 
88 1 -0.788 4.542 -2.750 
89 1 -0.074 -2.758 -3.450 
90 1 3.183 2.570 -1.822 
91 1 -12.523 -9.509 4.386 
92 1 1.768 -11.451 4.624 
93 1 -7.123 1.585 -6.785 
94 1 12.202 5.900 -12.466 
95 1 5.228 -12.694 0.600 
96 1 -10.899 4.386 -0.926 
97 1 -4.398 8.454 2.327 
98 1 -11.128 4.655 -7.549 
99 1 -4.063 10.460 -1.844 
100 1 3.687 2.852 -6.068 
101 1 0.137 10.223 9.283 
102 1 -6.899 -5.570 2.357 
103 1 -10.353 -6.912 -7.019 
104 1 -5.466 7.234 -8.258 
105 1 -4.679 -9.522 9.341 
106 1 5.846 -9.710 -11.216 
107 1 0.604 -4.569 0.211 
108 1 7.778 10.052 -11.424 
109 1 -5.643 5.425 1.732 
110 1 -0.573 1.237 11.118 
111 1 4.631 -5.196 9.302 
112 1 6.912 9.814 9.692 
113 1 -11.108 2.788 11.881 
114 1 3.652 4.791 10.638 
115 1 -5.530 -6.466 -8.832 
116 1 3.748 -5.775 1.882 
117 1 8.241 -2.892 4.024 
118 1 -5.450 -1.648 -2.120 
119 1 8.239 -11.076 -6.021 
120 1 -5.703 -4.596 6.320 
121 1 5.994 6.323 -12.577 
122 1 -8.547 7.194 -6.626 
123 1 -2.409 10.742 0.986 
124 1 -0.036 1.916 5.382 
125 1 4.078 -3.089 -5.213 
126 1 -10.190 -7.915 8.807 
127 1 -2.828 1.262 6.958 
128 1 -10.750 9.295 -4.607 
129 1 -5.879 9.934 -11.604 
130 1 7.556 -7.457 11.221 
131 1 -1.922 0.029 2.331 
132 1 -9.399 -12.307 3.955 
133 1 5.214 -6.279 -4.444 
134 1 11.932 -11.977 -11.010 
135 1 10.893 -1.438 8.049 
136 1 -1.351 0.084 -11.365 
137 1 -1.296 4.314 2.188 
138 1 1.082 10.906 -0.849 
139 1 -4.459 -10.053 -8.090 
140 1 1.507 -12.303 10.653 
141 1 -4.146 -1.238 -5.174 
142 1 -7.994 0.800 5.602 
143 1 -7.018 -8.085 -5.675 
144 1 -3.445 12.154 8.258 
145 1 -10.760 9.322 7.647 
146 1 -3.338 -3.798 -8.019 
147 1 -11.089 -0.895 -1.915 
148 1 -0.825 7.353 4.212 
149 1 -6.644 -3.105 -11.656 
150 1 -2.437 -8.188 6.542 
151 1 3.631 2.382 1.334 
152 1 -12.117 7.156 1.668 
153 1 1.610 -1.069 8.925 
154 1 -2.460 -10.335 -10.712 
155 1 -2.584 6.154 11.963 
156 1 6.321 6.510 -3.410 
157 1 8.537 4.954 9.792 
158 1 -2.425 -2.898 -12.737 
159 1 -11.266 7.737 -9.933 
160 1 -5.388 -3.900 10.681 
161 1 -4.763 -11.307 12.337 
162 1 3.932 -9.031 10.829 
163 1 0.639 -5.173 -6.131 
164 1 2.029 9.143 12.030 
165 1 -4.812 9.384 -5.604 
166 1 -2.749 -5.695 -10.904 
167 1 -3.283 4.537 5.044 
168 1 0.032 7.910 0.731 
169 1 -2.527 -0.882 -0.642 
170 1 -8.732 7.289 2.031 
171 1 1.889 -1.313 -1.422 
172 1 3.132 7.254 4.352 
173 1 -2.181 7.611 -3.293 
174 1 -11.363 -5.565 -11.517 
175 1 7.581 -2.818 7.802 
176 1 3.070 1.846 -12.711 
177 1 7.529 11.118 -7.069 
178 1 1.628 -1.630 3.471 
179 1 -4.919 -11.097 4.839 
180 1 -5.658 -4.690 -0.739 
181 1 11.845 -11.109 8.760 
182 1 -4.995 -8.456 2.429 
183 1 7.925 1.450 1.328 
184 1 -3.194 8.480 -10.451 
185 1 11.109 -1.170 1.021 
186 1 -2.197 12.208 -8.278 
187 1 -3.538 10.981 11.478 
188 1 5.493 3.789 6.874 
189 1 11.867 8.565 9.191 
190 1 5.477 -10.007 3.923 
191 1 -4.035 -11.602 1.155 
192 1 -5.515 0.243 -9.293 
193 1 -9.320 -12.317 -9.171 
194 1 -0.104 9.191 -6.175 
195 1 -12.546 5.686 6.692 
196 1 -7.654 9.225 8.298 
197 1 -4.012 3.618 9.470 
198 1 0.355 3.114 -10.148 
199 1 8.379 -0.992 -2.914 
200 1 1.713 -9.419 -10.102 
ITEM: TIMESTEP
13000
ITEM: NUMBER OF ATOMS
200
ITEM: BOX BOUNDS pp pp pp
-12.74986103408113 12.74986103408113
-12.74986103408113 12.74986103408113
-12.74986103408113 12.74986103408113
ITEM: ATOMS id type x y z
1 1 7.556 5.870 0.040 
2 1 2.683 7.562 -2.810 
3 1 3.776 4.222 -9.233 
4 1 -2.744 6.094 7.071 
5 1 -7.168 -2.598 3.891 
6 1 7.278 -12.157 8.303 
7 1 3.941 -3.370 6.996 
8 1 3.710 11.107 -8.965 
9 1 5.829 9.629 0.338 
10 1 -8.578 10.483 -1.588 
11 1 -1.313 -9.128 3.550 
12 1 12.035 11.692 6.711 
13 1 -9.234 -6.590 -0.705 
14 1 11.709 -6.773 7.851 
15 1 7.109 3.154 -10.465 
16 1 -0.537 11.150 -11.222 
17 1 -5.501 -9.227 -1.063 
18 1 0.590 11.872 -4.517 
19 1 -6.343 2.045 2.323 
20 1 -2.195 1.134 -3.323 
21 1 3.275 -0.009 -9.285 
22 1 -1.788 -9.118 -7.410 
23 1 9.160 7.042 -9.506 
24 1 11.136 10.598 -9.140 
25 1 -8.615 12.450 12.292 
26 1 9.949 -11.633 -8.876 
27 1 10.489 1.263 3.873 
28 1 -8.652 11.373 -5.916 
29 1 -2.552 6.011 -6.812 
30 1 -9.970 -4.306 6.254 
31 1 -7.468 2.572 -1.798 
32 1 2.237 9.632 3.105 
33 1 -0.035 3.634 -6.486 
34 1 -11.003 6.576 9.477 
35 1 0.249 -10.645 8.287 
36 1 -11.328 -1.872 11.864 
37 1 6.758 -0.023 11.658 
38 1 -2.037 -5.712 1.905 
39 1 -8.153 3.174 8.534 
40 1 1.157 5.702 -12.691 
41 1 -1.150 -7.334 -3.011 
42 1 -12.528 -11.807 -4.110 
43 1 -9.464 -2.623 0.505 
44 1 6.324 1.329 -6.511 
45 1 5.277 -9.342 -4.201 
46 1 -9.490 12.432 8.674 
47 1 -7.168 -7.151 6.627 
48 1 1.371 -10.175 1.367 
49 1 5.063 0.279 7.768 
50 1 3.246 9.245 -5.941 
51 1 0.084 11.649 5.360 
52 1 2.096 7.196 8.083 
53 1 5.667 -6.110 -9.166 
54 1 9.048 -11.764 -1.915 
55 1 1.264 -4.744 -12.608 
56 1 -7.483 2.086 -12.227 
57 1 8.517 5.462 3.683 
58 1 10.316 1.335 -11.484 
59 1 0.668 -8.563 11.274 
60 1 -4.205 2.486 -0.757 
61 1 10.258 9.135 4.386 
62 1 -8.515 -3.376 -8.268 
63 1 7.329 11.249 3.020 
64 1 -8.142 -9.259 2.668 
65 1 -5.689 6.566 10.072 
66 1 -6.914 -12.668 -3.274 
67 1 11.987 2.111 8.005 
68 1 6.854 2.734 -3.191 
69 1 0.390 -4.439 9.213 
70 1 -5.706 6.521 5.602 
71 1 -9.379 0.893 0.823 
72 1 9.093 -7.009 1.881 
73 1 -7.269 11.780 1.724 
74 1 -11.304 1.110 -10.593 
75 1 -1.643 -11.493 -0.933 
76 1 9.638 -9.200 -12.736 
77 1 -2.891 -3.529 4.049 
78 1 2.961 -4.014 -8.809 
79 1 4.039 -11.787 -12.504 
80 1 -11.343 -0.502 3.958 
81 1 -0.541 -1.787 -9.299 
82 1 -6.361 11.648 5.196 
83 1 -1.979 -11.199 -4.134 
84 1 -7.363 0.078 9.758 
85 1 -9.551 8.308 11.826 
86 1 -4.398 -6.345 -5.766 
87 1 -4.074 3.813 -11.648 
88 1 -1.583 4.929 -2.370 
89 1 -0.075 -2.767 -4.171 
90 1 2.187 3.326 -1.856 
91 1 12.531 -8.584 4.190 
92 1 2.263 -10.403 4.970 
93 1 -7.990 2.058 -6.122 
94 1 10.275 5.473 12.270 
95 1 4.843 -11.760 -0.677 
96 1 -10.278 4.312 -1.294 
97 1 -4.523 9.453 3.147 
98 1 -11.362 4.574 -6.599 
99 1 -3.919 10.973 -2.144 
100 1 3.767 3.432 -5.596 
101 1 -0.595 10.390 9.165 
102 1 -6.437 -5.281 2.541 
103 1 -10.554 -7.173 -6.984 
104 1 -5.060 7.433 -8.786 
105 1 -4.290 -9.313 9.884 
106 1 6.794 -9.388 -11.096 
107 1 1.377 -4.720 0.231 
108 1 7.138 10.809 -10.794 
109 1 -5.613 6.536 1.383 
110 1 -0.234 1.438 10.407 
111 1 5.209 -6.870 9.138 
112 1 6.319 10.042 8.897 
113 1 -10.633 3.230 11.882 
114 1 4.016 5.170 10.080 
115 1 -5.166 -7.220 -9.496 
116 1 3.885 -6.203 2.396 
117 1 8.448 -2.445 3.281 
118 1 -4.706 -2.542 -2.035 
119 1 7.410 -11.097 -6.649 
120 1 -5.297 -4.412 6.546 
121 1 6.893 6.732 -12.107 
122 1 -7.736 6.387 -6.729 
123 1 -1.581 11.138 1.595 
124 1 0.313 2.182 4.895 
125 1 3.749 -2.883 -5.002 
126 1 -11.004 -7.736 8.877 
127 1 -3.939 1.100 6.700 
128 1 -11.486 10.000 -4.142 
129 1 -6.434 9.626 -10.855 
130 1 7.675 -6.762 11.665 
131 1 -2.312 0.165 3.232 
132 1 -9.624 12.499 4.233 
133 1 5.368 -6.195 -4.964 
134 1 12.551 -11.954 -10.946 
135 1 10.235 -0.802 7.799 
136 1 -2.663 0.664 -12.652 
137 1 -1.075 4.746 2.080 
138 1 1.454 11.302 -1.234 
139 1 -4.597 -10.980 -8.046 
140 1 1.906 12.399 10.437 
141 1 -4.361 -2.106 -5.281 
142 1 -7.999 0.678 6.412 
143 1 -7.275 -8.516 -5.107 
144 1 -4.049 11.649 8.005 
145 1 -10.626 9.804 6.792 
146 1 -2.149 -3.824 -7.204 
147 1 -10.064 -0.815 -2.374 
148 1 -0.708 7.761 3.846 
149 1 -6.888 -3.142 -11.936 
150 1 -1.687 -8.353 7.088 
151 1 3.983 1.677 1.108 
152 1 12.518 8.257 1.035 
153 1 2.024 -1.050 8.874 
154 1 -1.809 -10.896 -10.122 
155 1 -1.915 7.088 11.528 
156 1 5.688 6.880 -3.992 
157 1 8.554 4.843 9.915 
158 1 -1.921 -3.051 11.974 
159 1 -10.935 7.011 -9.657 
160 1 -5.735 -3.363 9.701 
161 1 -5.372 -10.881 12.364 
162 1 3.446 -10.198 9.733 
163 1 0.841 -5.849 -5.869 
164 1 2.506 9.096 12.681 
165 1 -4.217 9.733 -5.469 
166 1 -1.757 -5.450 -10.279 
167 1 -3.402 3.931 4.321 
168 1 0.125 8.137 0.527 
169 1 -1.892 -0.167 -0.477 
170 1 -8.589 8.755 2.865 
171 1 2.322 -1.290 -0.957 
172 1 3.155 6.608 3.976 
173 1 -1.787 8.170 -3.019 
174 1 -11.318 -5.615 -11.536 
175 1 7.019 -3.775 8.686 
176 1 3.412 0.368 -12.733 
177 1 7.367 10.516 -6.644 
178 1 1.563 -0.500 2.695 
179 1 -4.130 -11.170 5.105 
180 1 -4.513 -5.755 -1.459 
181 1 12.084 -10.760 9.493 
182 1 -4.743 -8.284 2.937 
183 1 7.728 1.924 2.352 
184 1 -2.837 8.381 -10.768 
185 1 10.802 -0.388 1.053 
186 1 -2.474 11.795 -7.279 
187 1 -4.046 11.423 12.179 
188 1 6.009 3.623 6.548 
189 1 12.109 9.558 9.851 
190 1 5.819 -9.314 3.173 
191 1 -4.466 -12.508 1.130 
192 1 -5.459 -0.729 -9.116 
193 1 -9.417 -11.538 -9.095 
194 1 -0.730 8.702 -6.742 
195 1 -12.514 5.656 6.574 
196 1 -6.900 9.941 7.936 
197 1 -3.542 3.782 9.505 
198 1 0.441 2.484 -9.896 
199 1 8.106 -1.056 -1.930 
200 1 2.159 -8.787 -11.334 
ITEM: TIMESTEP
14000
ITEM: NUMBER OF ATOMS
200
ITEM: BOX BOUNDS pp pp pp
-12.74986103408113 12.74986103408113
-12.74986103408113 12.74986103408113
-12.74986103408113 12.74986103408113
ITEM: ATOMS id type x y z
1 1 8.224 6.355 0.315 
2 1 2.056 7.419 -3.571 
3 1 3.428 4.339 -9.646 
4 1 -2.078 6.819 7.526 
5 1 -6.893 -2.173 4.241 
6 1 7.294 -12.302 9.536 
7 1 3.201 -3.384 6.722 
8 1 3.126 11.994 -8.913 
9 1 6.052 8.724 0.496 
10 1 -8.523 10.185 -1.696 
11 1 -0.744 -9.887 4.178 
12 1 12.608 12.103 4.981 
13 1 -8.821 -5.824 0.294 
14 1 11.637 -7.556 7.582 
15 1 6.113 1.648 -9.881 
16 1 0.060 11.365 -11.259 
17 1 -5.728 -9.523 -1.499 
18 1 -0.220 10.913 -4.650 
19 1 -6.393 2.315 2.355 
20 1 -2.970 0.523 -3.359 
21 1 3.107 -0.301 -9.476 
22 1 -1.864 -9.214 -7.208 
23 1 9.594 5.885 -9.388 
24 1 11.680 10.292 -8.281 
25 1 -8.947 -12.739 -11.452 
26 1 10.508 -11.502 -7.423 
27 1 10.102 1.382 3.970 
28 1 -8.841 11.097 -6.407 
29 1 -2.754 5.520 -6.913 
30 1 -9.552 -4.449 5.696 
31 1 -7.169 3.299 -1.900 
32 1 2.078 9.112 3.123 
33 1 -0.141 2.434 -6.483 
34 1 -11.773 6.260 10.057 
35 1 0.707 -10.912 8.155 
36 1 -11.960 -1.050 11.963 
37 1 7.801 0.324 12.086 
38 1 -1.965 -5.840 1.622 
39 1 -7.912 2.814 8.824 
40 1 1.644 5.793 12.010 
41 1 -2.556 -7.330 -2.932 
42 1 -11.321 -11.208 -4.538 
43 1 -9.473 -2.917 1.402 
44 1 6.236 0.403 -6.746 
45 1 4.071 -9.828 -4.419 
46 1 -9.487 12.268 8.834 
47 1 -7.768 -7.109 7.092 
48 1 1.718 -10.078 1.162 
49 1 5.145 0.720 8.373 
50 1 4.302 8.016 -6.953 
51 1 0.498 11.316 5.730 
52 1 2.183 6.732 8.614 
53 1 5.779 -6.276 -8.441 
54 1 9.381 -11.630 -1.166 
55 1 0.743 -4.856 -11.984 
56 1 -7.176 2.398 -11.848 
57 1 7.328 6.116 4.607 
58 1 10.287 0.415 -11.007 
59 1 0.255 -8.135 10.969 
60 1 -3.978 3.409 -0.720 
61 1 10.582 9.742 4.374 
62 1 -8.785 -2.821 -7.130 
63 1 7.128 10.782 4.273 
64 1 -8.585 -9.841 1.355 
65 1 -6.455 5.860 10.385 
66 1 -6.752 12.410 -3.913 
67 1 12.384 2.345 8.116 
68 1 7.500 2.709 -3.603 
69 1 1.004 -5.231 8.777 
70 1 -5.111 7.313 6.604 
71 1 -9.089 0.785 0.907 
72 1 8.577 -6.269 1.077 
73 1 -7.549 12.343 1.450 
74 1 -11.385 1.273 -11.247 
75 1 -0.951 -12.117 -0.985 
76 1 8.713 -8.968 12.402 
77 1 -3.342 -3.870 4.352 
78 1 3.110 -3.424 -8.295 
79 1 4.464 -11.922 -11.973 
80 1 -10.269 -1.238 4.142 
81 1 -0.532 -1.905 -8.936 
82 1 -6.054 11.045 4.536 
83 1 -1.760 -11.370 -5.090 
84 1 -8.376 -0.228 11.265 
85 1 -9.246 8.819 10.702 
86 1 -4.223 -6.806 -5.638 
87 1 -4.072 3.383 -11.423 
88 1 -1.407 4.287 -3.885 
89 1 0.175 -3.617 -3.060 
90 1 2.317 3.398 -1.510 
91 1 -12.556 -7.819 3.846 
92 1 2.645 -10.951 4.649 
93 1 -8.452 1.466 -5.473 
94 1 10.100 6.810 12.002 
95 1 3.605 -12.132 -0.601 
96 1 -10.263 3.910 -0.533 
97 1 -4.921 9.201 2.423 
98 1 -11.560 3.608 -6.908 
99 1 -4.660 10.651 -1.418 
100 1 3.039 2.716 -5.372 
101 1 -1.548 9.887 8.490 
102 1 -6.094 -5.171 2.228 
103 1 -10.301 -7.780 -9.030 
104 1 -5.910 6.935 -9.414 
105 1 -2.964 -9.566 10.518 
106 1 6.409 -9.317 -10.836 
107 1 1.109 -5.361 0.355 
108 1 7.686 10.823 -10.887 
109 1 -5.547 6.258 1.544 
110 1 -0.528 1.844 9.546 
111 1 4.848 -7.012 9.084 
112 1 5.513 10.144 8.601 
113 1 -10.030 3.274 11.484 
114 1 4.559 4.379 9.489 
115 1 -4.623 -7.358 -9.541 
116 1 4.021 -6.226 2.313 
117 1 7.750 -3.481 2.735 
118 1 -6.205 -1.268 -1.964 
119 1 6.195 -10.170 -7.840 
120 1 -5.821 -4.615 6.982 
121 1 6.454 7.296 -12.452 
122 1 -8.194 6.416 -6.421 
123 1 -1.222 10.925 1.986 
124 1 -0.121 2.239 4.385 
125 1 4.320 -3.039 -4.101 
126 1 -10.408 -8.012 9.496 
127 1 -4.386 1.364 6.218 
128 1 -11.204 10.326 -4.056 
129 1 -6.529 10.077 -10.520 
130 1 6.824 -5.834 11.304 
131 1 -3.208 -0.060 3.455 
132 1 -9.481 12.543 4.881 
133 1 6.501 -6.024 -5.495 
134 1 -12.386 -11.704 -10.757 
135 1 9.707 -0.260 8.735 
136 1 -2.348 0.100 -12.228 
137 1 -0.442 4.071 1.584 
138 1 1.683 10.523 -0.123 
139 1 -4.873 -10.826 -8.207 
140 1 1.415 11.680 10.038 
141 1 -4.571 -2.402 -6.086 
142 1 -7.590 0.598 6.173 
143 1 -7.274 -8.887 -5.967 
144 1 -4.640 11.851 8.446 
145 1 -11.403 9.580 5.992 
146 1 -1.536 -4.571 -6.244 
147 1 -10.579 0.242 -2.694 
148 1 -1.621 8.216 3.923 
149 1 -6.667 -3.657 -10.263 
150 1 -0.867 -8.061 7.775 
151 1 2.881 2.477 1.750 
152 1 -12.057 9.654 0.272 
153 1 2.502 -1.346 9.833 
154 1 -1.705 -10.976 -10.279 
155 1 -1.566 6.639 11.186 
156 1 6.283 6.623 -4.071 
157 1 8.539 4.524 9.197 
158 1 -2.355 -3.369 12.010 
159 1 -11.218 7.474 -10.248 
160 1 -6.468 -4.233 10.633 
161 1 -6.305 -9.892 -12.577 
162 1 4.188 -10.997 8.480 
163 1 1.214 -6.853 -6.273 
164 1 3.188 8.380 -11.954 
165 1 -5.357 9.821 -6.518 
166 1 -1.761 -4.990 -9.818 
167 1 -2.703 4.114 5.196 
168 1 -0.620 7.539 0.721 
169 1 -3.079 -0.067 -0.369 
170 1 -9.171 8.891 2.554 
171 1 2.412 -2.256 -0.812 
172 1 3.704 6.372 4.847 
173 1 -2.178 8.428 -3.285 
174 1 -10.416 -6.598 -12.304 
175 1 6.441 -3.219 8.323 
176 1 3.471 2.096 -12.663 
177 1 7.004 9.777 -6.228 
178 1 1.399 -1.110 2.389 
179 1 -4.279 -11.500 6.108 
180 1 -5.021 -5.601 -0.974 
181 1 12.107 -10.655 9.400 
182 1 -4.887 -8.574 3.104 
183 1 7.075 3.029 1.643 
184 1 -3.157 9.185 -11.175 
185 1 11.327 -0.242 1.311 
186 1 -3.011 11.500 -8.144 
187 1 -4.319 11.736 11.838 
188 1 6.366 3.271 6.596 
189 1 12.655 10.564 9.596 
190 1 6.331 -8.472 3.173 
191 1 -3.984 -12.308 2.183 
192 1 -5.467 -0.183 -9.744 
193 1 -9.290 -11.227 -7.926 
194 1 -0.395 7.979 -6.285 
195 1 -11.777 5.832 6.426 
196 1 -7.586 9.592 7.636 
197 1 -4.495 3.319 9.407 
198 1 0.596 1.943 -10.344 
199 1 9.420 -0.280 -2.390 
200 1 2.595 -7.733 -11.314 
ITEM: TIMESTEP
15000
ITEM: NUMBER OF ATOMS
200
ITEM: BOX BOUNDS pp pp pp
-12.74986103408113 12.74986103408113
-12.74986103408113 12.74986103408113
-12.74986103408113 12.74986103408113
ITEM: ATOMS id type x y z
1 1 7.567 5.369 -0.108 
2 1 1.204 5.703 -3.899 
3 1 3.827 3.264 -9.292 
4 1 -1.868 6.707 7.601 
5 1 -7.118 -1.832 3.619 
6 1 7.396 -12.336 9.929 
7 1 4.443 -4.214 6.054 
8 1 4.087 11.175 -8.788 
9 1 6.478 8.594 -0.253 
10 1 -8.645 9.430 -1.431 
11 1 -1.195 -9.649 4.614 
12 1 11.386 -12.205 5.227 
13 1 -8.542 -6.083 -0.060 
14 1 11.279 -7.681 7.844 
15 1 5.887 0.728 -10.505 
16 1 -0.517 11.842 -11.369 
17 1 -5.972 -9.494 -1.854 
18 1 0.970 11.337 -5.493 
19 1 -5.648 2.630 3.450 
20 1 -3.238 1.115 -3.622 
21 1 2.843 -0.830 -9.822 
22 1 -1.185 -9.188 -8.860 
23 1 8.728 6.404 -9.263 
24 1 12.356 10.078 -8.780 
25 1 -8.483 -11.438 -10.543 
26 1 10.676 -11.417 -7.133 
27 1 11.571 2.769 5.356 
28 1 -8.965 11.524 -7.050 
29 1 -2.579 5.505 -7.037 
30 1 -9.731 -4.003 5.753 
31 1 -8.018 3.222 -2.954 
32 1 2.078 8.973 2.652 
33 1 0.257 2.583 -6.560 
34 1 12.694 5.682 11.172 
35 1 0.308 -11.136 8.669 
36 1 -12.507 -0.321 11.460 
37 1 7.410 0.357 11.201 
38 1 -2.196 -6.073 1.486 
39 1 -8.428 2.198 8.398 
40 1 1.738 5.884 12.287 
41 1 -2.259 -7.857 -3.200 
42 1 -11.687 -11.550 -4.733 
43 1 -9.878 -2.865 0.731 
44 1 6.201 0.560 -6.536 
45 1 4.797 -9.381 -4.374 
46 1 -9.493 -12.620 9.120 
47 1 -7.410 -7.781 8.079 
48 1 1.759 -9.662 0.872 
49 1 5.079 -0.119 8.701 
50 1 3.844 7.403 -6.821 
51 1 0.357 10.873 5.231 
52 1 2.585 7.156 9.195 
53 1 5.392 -6.162 -8.364 
54 1 9.995 -12.149 -2.749 
55 1 0.312 -5.197 -11.670 
56 1 -7.438 2.175 -11.992 
57 1 8.287 5.748 4.841 
58 1 10.634 0.422 -11.843 
59 1 0.631 -7.855 10.984 
60 1 -4.197 3.305 -0.624 
61 1 9.214 9.231 2.497 
62 1 -8.876 -2.958 -7.257 
63 1 7.728 11.721 4.318 
64 1 -9.605 -9.931 1.782 
65 1 -6.562 5.360 11.035 
66 1 -5.530 -11.961 -4.633 
67 1 -12.622 2.854 8.888 
68 1 6.101 1.570 -3.171 
69 1 1.193 -5.580 8.184 
70 1 -5.638 6.824 6.863 
71 1 -9.289 0.937 0.825 
72 1 8.406 -6.544 1.426 
73 1 -7.062 12.474 0.940 
74 1 -11.843 1.985 -11.553 
75 1 -0.344 -11.493 -2.024 
76 1 8.966 -9.081 11.511 
77 1 -3.767 -3.210 4.802 
78 1 3.022 -3.664 -8.304 
79 1 4.974 -12.147 -11.303 
80 1 -10.634 -1.564 3.815 
81 1 -1.454 -2.008 -8.878 
82 1 -5.495 11.232 4.548 
83 1 -1.891 -11.551 -5.521 
84 1 -7.879 -0.646 10.784 
85 1 -9.276 9.073 10.451 
86 1 -4.822 -5.415 -5.076 
87 1 -3.122 2.219 -10.153 
88 1 -2.036 4.050 -4.326 
89 1 -0.187 -4.066 -2.890 
90 1 3.050 4.705 -0.985 
91 1 -12.021 -7.887 3.788 
92 1 2.219 -11.385 4.709 
93 1 -7.607 1.552 -6.302 
94 1 9.353 6.996 11.680 
95 1 3.431 -11.901 -2.093 
96 1 -10.063 4.380 -0.047 
97 1 -4.629 9.512 2.013 
98 1 -11.294 3.546 -7.330 
99 1 -4.659 10.972 -1.178 
100 1 3.587 3.228 -5.366 
101 1 -1.552 10.008 8.302 
102 1 -5.464 -5.249 2.511 
103 1 -8.770 -6.720 -8.701 
104 1 -5.137 7.147 -9.008 
105 1 -2.781 -9.751 10.230 
106 1 6.380 -9.020 -11.168 
107 1 1.061 -5.516 0.753 
108 1 7.072 10.670 -10.273 
109 1 -5.464 6.395 1.354 
110 1 0.456 3.035 9.271 
111 1 5.229 -6.744 8.687 
112 1 5.947 10.336 8.057 
113 1 -9.890 4.041 11.851 
114 1 5.004 4.036 9.513 
115 1 -5.470 -7.375 -9.913 
116 1 4.145 -5.591 2.306 
117 1 8.165 -3.901 3.983 
118 1 -6.809 -0.965 -2.133 
119 1 6.654 -11.184 -7.612 
120 1 -5.620 -4.293 7.319 
121 1 6.036 6.324 12.037 
122 1 -8.191 7.427 -5.998 
123 1 -1.266 10.738 2.343 
124 1 -0.561 2.042 4.330 
125 1 4.419 -3.095 -3.702 
126 1 -10.581 -7.661 8.506 
127 1 -4.950 0.290 6.190 
128 1 -10.595 10.842 -3.659 
129 1 -6.720 10.610 -10.212 
130 1 6.776 -5.667 12.192 
131 1 -3.359 0.017 2.388 
132 1 -9.483 12.654 4.393 
133 1 7.513 -5.441 -5.152 
134 1 12.356 -12.294 -11.501 
135 1 9.056 -0.016 8.086 
136 1 -1.428 1.358 12.324 
137 1 -1.029 3.604 1.297 
138 1 1.947 10.071 -0.334 
139 1 -4.301 -10.194 -8.049 
140 1 2.059 11.854 11.091 
141 1 -4.359 -2.320 -6.352 
142 1 -8.494 1.130 4.817 
143 1 -7.056 -8.783 -5.805 
144 1 -4.698 11.455 7.901 
145 1 -11.543 9.053 7.399 
146 1 -1.510 -3.706 -6.027 
147 1 -11.203 1.489 -2.350 
148 1 -2.768 8.473 4.891 
149 1 -6.089 -3.738 -10.645 
150 1 -1.046 -7.924 7.664 
151 1 3.558 2.166 1.230 
152 1 -10.881 9.930 0.797 
153 1 2.176 -1.722 10.343 
154 1 -2.787 -11.155 -11.087 
155 1 -1.830 6.358 11.792 
156 1 5.375 7.515 -3.513 
157 1 9.315 4.374 9.235 
158 1 -1.898 -3.069 12.046 
159 1 -10.374 7.661 -10.147 
160 1 -5.817 -4.312 11.079 
161 1 -6.293 -9.227 12.609 
162 1 4.114 -11.666 8.475 
163 1 1.493 -5.609 -5.953 
164 1 4.095 8.690 -11.100 
165 1 -5.678 10.338 -6.289 
166 1 -2.626 -5.581 -9.731 
167 1 -3.418 4.786 4.729 
168 1 -1.011 7.436 1.195 
169 1 -3.129 -0.996 -0.982 
170 1 -9.389 8.659 3.608 
171 1 2.485 -1.805 -1.142 
172 1 3.610 6.385 4.280 
173 1 -2.211 8.106 -3.700 
174 1 -10.647 -7.018 -12.437 
175 1 7.041 -3.675 8.968 
176 1 3.154 2.959 -12.733 
177 1 6.510 10.417 -6.261 
178 1 1.120 -1.126 2.538 
179 1 -4.662 -9.964 7.255 
180 1 -4.534 -4.870 -1.230 
181 1 -12.491 -10.488 8.844 
182 1 -5.054 -9.301 3.586 
183 1 7.226 1.825 0.769 
184 1 -3.016 9.666 -12.276 
185 1 11.108 0.526 0.515 
186 1 -2.862 11.199 -8.578 
187 1 -5.242 12.050 11.788 
188 1 6.625 3.225 6.205 
189 1 -12.677 10.881 9.958 
190 1 6.307 -8.837 1.734 
191 1 -3.316 -12.073 3.534 
192 1 -5.585 -0.381 -10.637 
193 1 -10.024 -10.411 -8.045 
194 1 0.603 7.835 -6.758 
195 1 -11.303 5.310 6.234 
196 1 -7.813 9.358 7.452 
197 1 -4.617 2.117 8.970 
198 1 0.184 2.251 -10.050 
199 1 8.648 -0.383 -1.782 
200 1 2.915 -7.644 -10.713 
ITEM: TIMESTEP
16000
ITEM: NUMBER OF ATOMS
200
ITEM: BOX BOUNDS pp pp pp
-12.74986103408113 12.74986103408113
-12.74986103408113 12.74986103408113
-12.74986103408113 12.74986103408113
ITEM: ATOMS id type x y z
1 1 7.444 4.779 0.030 
2 1 1.360 5.775 -4.094 
3 1 3.598 3.915 -9.519 
4 1 -1.603 6.355 7.735 
5 1 -7.112 -1.982 3.260 
6 1 7.135 -11.624 9.057 
7 1 4.603 -4.550 6.578 
8 1 3.830 12.172 -8.444 
9 1 5.178 8.816 0.219 
10 1 -8.270 9.114 -1.755 
11 1 -1.091 -9.721 5.180 
12 1 10.489 -10.962 5.934 
13 1 -9.128 -6.621 -0.552 
14 1 10.065 -7.440 7.919 
15 1 5.969 0.787 -10.006 
16 1 1.254 10.694 -10.022 
17 1 -7.049 -8.910 -2.250 
18 1 1.173 10.682 -5.788 
19 1 -5.322 2.514 3.308 
20 1 -3.259 0.985 -3.833 
21 1 2.943 -1.490 -10.670 
22 1 -0.300 -9.828 -8.454 
23 1 9.151 6.537 -9.100 
24 1 11.935 9.835 -9.243 
25 1 -8.573 -12.344 -10.690 
26 1 11.354 -11.317 -7.968 
27 1 12.432 2.552 4.494 
28 1 -9.095 11.469 -7.515 
29 1 -3.529 5.620 -7.461 
30 1 -9.630 -4.187 6.888 
31 1 -7.672 3.384 -2.593 
32 1 3.193 10.276 3.785 
33 1 -0.013 2.669 -5.869 
34 1 12.116 5.649 11.628 
35 1 0.100 -12.031 8.388 
36 1 -12.085 -0.093 11.587 
37 1 7.053 0.276 11.601 
38 1 -2.555 -6.881 2.562 
39 1 -8.351 1.967 9.280 
40 1 1.790 6.142 12.421 
41 1 -2.388 -7.618 -2.391 
42 1 -11.801 -11.165 -4.005 
43 1 -9.161 -2.739 0.017 
44 1 5.354 -0.067 -6.401 
45 1 3.769 -9.235 -4.816 
46 1 -8.124 -11.975 8.822 
47 1 -6.412 -7.283 8.047 
48 1 1.625 -9.355 0.893 
49 1 4.934 -0.091 8.355 
50 1 4.456 7.408 -7.183 
51 1 0.213 11.307 5.331 
52 1 2.730 7.923 9.417 
53 1 5.354 -7.556 -8.255 
54 1 9.181 -12.397 -2.824 
55 1 0.076 -5.397 -11.945 
56 1 -6.591 2.342 -12.163 
57 1 7.818 6.433 5.310 
58 1 9.616 1.795 -12.338 
59 1 1.087 -8.129 11.203 
60 1 -4.745 2.916 -0.533 
61 1 9.570 9.045 3.208 
62 1 -8.030 -2.371 -7.904 
63 1 7.687 11.199 5.141 
64 1 -10.372 -10.869 1.782 
65 1 -6.317 5.296 11.636 
66 1 -5.578 -12.005 -4.279 
67 1 -12.022 2.082 8.599 
68 1 6.202 1.338 -3.204 
69 1 1.507 -5.509 7.946 
70 1 -6.184 7.546 6.315 
71 1 -9.084 0.617 1.403 
72 1 8.247 -6.958 1.445 
73 1 -8.298 11.589 0.974 
74 1 -12.511 2.248 -11.213 
75 1 -0.390 -10.559 -1.582 
76 1 9.686 -9.071 10.839 
77 1 -3.522 -3.203 5.146 
78 1 3.489 -3.663 -7.894 
79 1 5.658 -12.553 -12.187 
80 1 -11.296 -1.982 3.613 
81 1 -1.496 -1.518 -9.201 
82 1 -5.926 11.192 4.698 
83 1 -1.891 12.579 -4.734 
84 1 -8.767 -0.501 -12.563 
85 1 -9.071 8.722 10.231 
86 1 -4.379 -5.603 -5.125 
87 1 -4.050 2.162 -9.619 
88 1 -1.835 4.404 -3.771 
89 1 0.309 -4.973 -2.568 
90 1 3.334 4.486 -1.491 
91 1 -11.747 -8.526 5.048 
92 1 2.109 -11.301 4.951 
93 1 -8.392 1.006 -6.181 
94 1 9.459 7.449 12.605 
95 1 2.655 -11.888 -3.198 
96 1 -10.687 4.953 -0.201 
97 1 -4.407 9.396 1.996 
98 1 -11.853 3.707 -7.094 
99 1 -4.960 11.912 -1.004 
100 1 3.921 2.674 -5.062 
101 1 -1.124 10.167 8.578 
102 1 -5.417 -5.261 3.101 
103 1 -9.375 -6.599 -9.203 
104 1 -6.282 7.215 -8.976 
105 1 -2.807 -10.981 11.120 
106 1 7.227 -9.015 -12.239 
107 1 1.231 -5.444 0.869 
108 1 8.740 10.687 -11.248 
109 1 -5.843 5.985 1.524 
110 1 1.280 3.815 9.683 
111 1 4.965 -7.670 9.592 
112 1 6.310 9.925 7.847 
113 1 -10.281 3.741 11.760 
114 1 5.734 3.439 8.965 
115 1 -6.123 -8.277 -9.494 
116 1 3.928 -5.636 3.533 
117 1 9.089 -3.373 2.973 
118 1 -6.141 -0.776 -0.547 
119 1 6.958 -11.154 -7.624 
120 1 -5.723 -4.263 7.124 
121 1 5.950 6.245 11.787 
122 1 -8.443 8.439 -5.925 
123 1 -1.187 10.968 1.764 
124 1 -0.962 1.261 4.067 
125 1 5.879 -3.443 -4.677 
126 1 -11.044 -6.324 9.081 
127 1 -5.598 0.239 6.530 
128 1 -10.306 10.838 -4.397 
129 1 -5.850 10.436 -10.506 
130 1 6.458 -4.860 12.024 
131 1 -3.156 -0.559 2.389 
132 1 -9.997 12.191 4.289 
133 1 8.652 -5.460 -6.069 
134 1 -12.047 -11.405 -11.642 
135 1 9.040 -0.247 7.423 
136 1 -1.796 1.203 11.215 
137 1 -1.363 3.198 1.276 
138 1 1.492 9.569 -0.373 
139 1 -3.696 -10.606 -7.420 
140 1 2.328 11.155 10.947 
141 1 -4.794 -1.679 -7.093 
142 1 -8.320 1.773 5.086 
143 1 -6.685 -8.663 -6.158 
144 1 -4.502 11.191 8.222 
145 1 -11.575 9.009 6.659 
146 1 -1.380 -2.711 -5.537 
147 1 -10.868 1.592 -2.138 
148 1 -3.134 9.310 5.721 
149 1 -6.671 -4.121 -10.749 
150 1 -0.756 -7.788 7.594 
151 1 3.831 1.728 0.713 
152 1 -11.453 9.419 0.956 
153 1 1.258 -2.030 10.946 
154 1 -2.853 -10.524 -11.083 
155 1 -2.110 6.371 11.370 
156 1 4.784 7.479 -3.694 
157 1 9.570 3.750 9.895 
158 1 -2.793 -3.634 12.564 
159 1 -11.258 7.323 -9.035 
160 1 -5.891 -4.098 10.619 
161 1 -6.095 -10.236 12.336 
162 1 3.335 -10.882 8.879 
163 1 1.581 -5.835 -6.246 
164 1 4.117 8.434 -10.854 
165 1 -5.264 10.491 -5.546 
166 1 -3.294 -5.004 -9.723 
167 1 -3.194 4.624 4.532 
168 1 -1.496 7.363 1.619 
169 1 -2.318 -1.246 -0.847 
170 1 -9.543 7.949 3.612 
171 1 3.078 -0.964 -1.709 
172 1 3.736 6.253 4.723 
173 1 -1.736 7.908 -3.173 
174 1 -11.987 -7.374 -12.692 
175 1 7.663 -3.618 8.149 
176 1 3.256 2.233 12.007 
177 1 7.674 11.234 -5.278 
178 1 0.768 -1.468 1.825 
179 1 -4.720 -10.430 7.800 
180 1 -5.164 -5.169 -0.899 
181 1 -12.656 -10.021 9.696 
182 1 -5.156 -8.712 3.514 
183 1 7.650 1.053 0.988 
184 1 -2.664 9.504 -12.386 
185 1 10.687 -0.082 0.056 
186 1 -2.030 10.981 -8.839 
187 1 -4.731 12.080 11.517 
188 1 7.557 3.175 5.846 
189 1 12.446 11.518 9.062 
190 1 5.619 -9.843 0.783 
191 1 -3.240 -11.903 3.727 
192 1 -5.602 -0.904 -10.826 
193 1 -10.499 -10.036 -7.684 
194 1 0.710 7.792 -7.901 
195 1 -11.442 5.751 6.557 
196 1 -7.596 10.168 7.339 
197 1 -4.626 2.092 9.130 
198 1 0.586 2.522 -10.818 
199 1 8.864 -1.362 -2.247 
200 1 2.188 -7.827 -10.310 
ITEM: TIMESTEP
17000
ITEM: NUMBER OF ATOMS
200
ITEM: BOX BOUNDS pp pp pp
-12.74986103408113 12.74986103408113
-12.74986103408113 12.74986103408113
-12.74986103408113 12.74986103408113
ITEM: ATOMS id type x y z
1 1 9.041 4.315 0.873 
2 1 1.287 5.378 -3.903 
3 1 3.438 4.464 -9.767 
4 1 -1.215 6.276 7.592 
5 1 -7.043 -2.632 3.543 
6 1 6.429 -10.955 8.333 
7 1 4.953 -4.181 6.524 
8 1 3.876 12.393 -8.502 
9 1 4.858 7.952 -0.191 
10 1 -8.072 9.684 -2.055 
11 1 -1.183 -10.491 5.472 
12 1 11.858 -10.274 6.317 
13 1 -8.401 -7.578 1.112 
14 1 9.433 -7.361 8.029 
15 1 5.223 1.069 -11.187 
16 1 1.034 9.630 -10.544 
17 1 -6.996 -8.907 -1.909 
18 1 0.888 10.337 -4.965 
19 1 -5.879 3.521 3.065 
20 1 -2.888 0.388 -4.900 
21 1 2.465 -1.677 -10.878 
22 1 -0.864 -9.801 -7.540 
23 1 10.723 5.947 -8.564 
24 1 11.903 10.247 -8.475 
25 1 -7.977 -12.368 -10.526 
26 1 11.029 -12.018 -7.577 
27 1 12.647 3.664 4.663 
28 1 -8.523 12.339 -7.214 
29 1 -2.584 6.437 -7.845 
30 1 -9.550 -3.553 7.353 
31 1 -6.530 3.998 -3.498 
32 1 3.745 11.162 2.932 
33 1 -0.123 3.073 -6.110 
34 1 12.662 6.613 10.924 
35 1 -0.058 -11.967 8.212 
36 1 -11.428 -0.336 11.551 
37 1 7.303 -0.345 10.304 
38 1 -2.591 -5.989 2.309 
39 1 -8.838 2.200 9.490 
40 1 1.006 6.657 12.641 
41 1 -3.499 -8.521 -1.895 
42 1 -12.053 -10.981 -3.113 
43 1 -10.297 -3.547 0.802 
44 1 5.639 -0.136 -5.971 
45 1 3.886 -8.884 -5.200 
46 1 -8.803 -12.119 7.918 
47 1 -6.450 -7.124 7.933 
48 1 2.173 -9.512 0.712 
49 1 3.582 0.315 8.611 
50 1 5.544 7.172 -7.061 
51 1 0.327 10.754 5.594 
52 1 2.057 8.184 8.989 
53 1 5.619 -6.621 -8.704 
54 1 8.273 -11.437 -2.912 
55 1 0.143 -5.164 -12.221 
56 1 -7.111 1.858 -11.587 
57 1 6.864 6.829 3.983 
58 1 8.736 1.843 12.713 
59 1 1.558 -7.964 10.888 
60 1 -3.972 2.942 -0.773 
61 1 10.430 8.553 3.068 
62 1 -8.300 -2.335 -7.956 
63 1 7.329 12.646 5.614 
64 1 -10.199 -10.559 1.352 
65 1 -6.354 4.693 11.617 
66 1 -4.906 -11.740 -2.895 
67 1 -12.223 0.944 8.697 
68 1 7.079 2.268 -3.058 
69 1 1.153 -4.681 8.885 
70 1 -5.755 7.917 5.610 
71 1 -9.284 0.440 0.669 
72 1 7.547 -5.518 0.341 
73 1 -8.658 11.626 1.007 
74 1 12.434 2.060 -11.176 
75 1 -0.677 -10.006 -1.267 
76 1 8.735 -9.390 10.627 
77 1 -2.875 -1.761 5.726 
78 1 3.769 -2.864 -7.799 
79 1 5.888 -12.080 -11.534 
80 1 -11.130 -1.601 4.070 
81 1 -1.422 -1.044 -9.322 
82 1 -6.368 11.175 5.006 
83 1 -1.956 12.743 -4.845 
84 1 -8.187 -1.026 12.537 
85 1 -9.473 9.304 10.932 
86 1 -4.992 -6.838 -5.126 
87 1 -4.437 1.506 -8.393 
88 1 -1.802 4.321 -3.559 
89 1 0.356 -3.886 -2.593 
90 1 3.839 3.601 -1.550 
91 1 -11.136 -7.772 3.379 
92 1 2.039 -10.489 4.269 
93 1 -9.181 1.475 -6.229 
94 1 9.684 8.802 11.720 
95 1 2.104 -11.786 -3.533 
96 1 -11.262 5.555 -0.847 
97 1 -4.469 9.761 2.587 
98 1 -11.604 4.481 -7.550 
99 1 -4.315 11.393 -0.735 
100 1 3.398 3.497 -5.580 
101 1 -0.956 10.105 8.793 
102 1 -5.034 -6.143 4.550 
103 1 -9.654 -6.274 -9.139 
104 1 -6.614 6.659 -9.772 
105 1 -2.369 -10.239 10.050 
106 1 6.953 -8.513 -12.025 
107 1 2.348 -4.854 0.444 
108 1 8.761 11.165 -11.917 
109 1 -5.704 5.800 0.427 
110 1 0.789 3.913 10.175 
111 1 5.078 -7.532 9.316 
112 1 6.144 8.607 8.796 
113 1 -10.243 3.370 12.030 
114 1 5.186 3.251 9.027 
115 1 -5.519 -8.511 -9.162 
116 1 3.740 -6.009 3.763 
117 1 8.014 -3.145 3.010 
118 1 -5.509 -0.070 -0.615 
119 1 7.175 -10.759 -6.208 
120 1 -5.415 -4.000 7.414 
121 1 6.296 5.972 12.461 
122 1 -8.105 8.736 -5.651 
123 1 -1.172 11.053 1.880 
124 1 -0.692 0.888 5.222 
125 1 5.704 -4.152 -3.974 
126 1 -9.755 -6.920 8.918 
127 1 -4.533 1.011 5.857 
128 1 -10.707 11.052 -4.424 
129 1 -5.279 10.328 -9.788 
130 1 7.312 -4.996 11.576 
131 1 -3.936 -1.234 2.045 
132 1 -9.251 12.339 4.527 
133 1 8.018 -5.048 -7.041 
134 1 12.289 -11.077 -11.555 
135 1 9.791 -0.140 7.808 
136 1 -3.595 0.170 11.328 
137 1 -1.244 1.771 1.751 
138 1 0.779 9.986 -0.702 
139 1 -4.242 -10.283 -6.999 
140 1 2.089 11.929 11.217 
141 1 -4.653 -3.095 -5.278 
142 1 -8.758 1.572 4.643 
143 1 -7.127 -9.105 -5.499 
144 1 -4.351 11.321 8.118 
145 1 -11.210 10.237 6.406 
146 1 -0.396 -3.354 -6.507 
147 1 -11.674 0.910 -3.486 
148 1 -2.697 8.753 5.803 
149 1 -6.967 -4.367 -11.110 
150 1 -2.313 -6.938 7.714 
151 1 3.142 2.726 1.792 
152 1 -11.959 10.116 1.171 
153 1 1.426 -1.115 10.453 
154 1 -2.998 -10.816 -10.875 
155 1 -3.374 6.683 11.503 
156 1 5.074 7.644 -3.569 
157 1 9.483 3.984 10.148 
158 1 -3.092 -3.033 12.313 
159 1 -10.161 7.906 -8.523 
160 1 -5.505 -4.609 11.015 
161 1 -6.967 -9.331 -12.287 
162 1 2.966 -10.825 9.223 
163 1 1.847 -6.004 -7.320 
164 1 4.174 7.936 -10.504 
165 1 -4.911 10.260 -5.986 
166 1 -3.391 -4.480 -9.251 
167 1 -3.712 5.004 5.166 
168 1 -0.431 6.998 2.603 
169 1 -1.884 -0.344 -1.382 
170 1 -9.483 7.857 3.431 
171 1 3.157 -0.988 -1.935 
172 1 2.460 6.464 4.894 
173 1 -1.453 7.144 -2.251 
174 1 -10.467 -6.679 -12.589 
175 1 8.248 -4.354 7.894 
176 1 2.904 2.732 12.484 
177 1 7.785 11.001 -4.447 
178 1 1.136 -1.311 2.383 
179 1 -4.848 -10.523 6.552 
180 1 -4.471 -4.795 -1.432 
181 1 -11.246 -10.354 9.364 
182 1 -6.438 -9.577 3.206 
183 1 8.265 0.517 0.210 
184 1 -2.396 9.533 -11.346 
185 1 11.682 0.339 -0.016 
186 1 -1.559 12.362 -8.173 
187 1 -5.282 11.242 11.969 
188 1 6.798 3.449 4.932 
189 1 -12.558 11.313 9.652 
190 1 5.660 -9.727 1.040 
191 1 -3.052 -11.775 3.048 
192 1 -5.310 -1.297 -10.732 
193 1 -11.485 -9.873 -8.429 
194 1 1.280 6.761 -7.673 
195 1 -10.481 6.109 6.620 
196 1 -8.102 9.927 7.432 
197 1 -4.454 2.636 9.319 
198 1 -0.226 2.994 -11.695 
199 1 9.086 -1.748 -2.155 
200 1 2.011 -8.223 -10.078 
ITEM: TIMESTEP
18000
ITEM: NUMBER OF ATOMS
200
ITEM: BOX BOUNDS pp pp pp
-12.74986103408113 12.74986103408113
-12.74986103408113 12.74986103408113
-12.74986103408113 12.74986103408113
ITEM: ATOMS id type x y z
1 1 9.364 4.441 1.805 
2 1 1.504 5.577 -3.322 
3 1 4.040 4.353 -10.721 
4 1 -1.068 6.100 7.266 
5 1 -7.144 -2.834 3.399 
6 1 5.840 -11.739 8.161 
7 1 5.147 -4.550 6.785 
8 1 3.046 -12.562 -7.297 
9 1 5.511 7.036 0.112 
10 1 -7.820 9.912 -2.313 
11 1 -1.719 -10.421 5.355 
12 1 11.836 -9.618 6.516 
13 1 -7.948 -5.859 1.176 
14 1 9.958 -7.107 8.084 
15 1 4.961 0.930 -11.039 
16 1 0.977 9.668 -10.251 
17 1 -7.025 -9.839 -1.699 
18 1 0.920 10.592 -3.977 
19 1 -5.895 2.687 3.177 
20 1 -3.691 1.030 -4.976 
21 1 2.374 -1.841 -10.940 
22 1 0.106 -9.768 -7.802 
23 1 10.661 5.451 -8.635 
24 1 12.192 9.505 -9.073 
25 1 -7.747 -11.830 -10.296 
26 1 9.579 -11.933 -8.058 
27 1 -12.303 2.373 4.120 
28 1 -8.668 12.134 -6.333 
29 1 -2.099 6.663 -7.636 
30 1 -9.450 -3.909 7.310 
31 1 -6.471 3.531 -1.790 
32 1 3.306 11.493 2.247 
33 1 -0.279 3.949 -6.782 
34 1 -12.274 6.164 10.200 
35 1 0.250 -11.944 7.809 
36 1 -11.083 0.708 12.292 
37 1 6.834 -0.828 10.720 
38 1 -1.788 -6.300 3.764 
39 1 -9.172 2.235 9.405 
40 1 1.622 6.859 -12.699 
41 1 -3.829 -8.584 -1.628 
42 1 -10.899 -10.842 -2.829 
43 1 -10.372 -3.283 0.784 
44 1 5.435 -0.259 -4.971 
45 1 4.462 -9.484 -4.800 
46 1 -9.288 -12.629 7.600 
47 1 -6.893 -6.576 6.963 
48 1 0.946 -8.760 1.145 
49 1 4.306 1.470 7.503 
50 1 4.736 7.660 -7.317 
51 1 1.194 10.800 5.806 
52 1 2.876 7.904 9.366 
53 1 5.723 -7.212 -9.360 
54 1 8.671 -12.161 -2.279 
55 1 -0.132 -5.302 12.652 
56 1 -6.866 2.573 -11.580 
57 1 7.180 6.895 3.795 
58 1 8.765 2.219 -12.360 
59 1 2.156 -7.354 11.555 
60 1 -3.121 3.096 0.284 
61 1 11.061 8.921 3.013 
62 1 -8.931 -1.851 -8.187 
63 1 5.903 11.939 5.247 
64 1 -10.746 -10.383 1.729 
65 1 -6.781 4.689 11.429 
66 1 -4.622 -12.348 -3.506 
67 1 -12.625 0.918 9.134 
68 1 7.383 1.793 -2.695 
69 1 2.184 -4.335 9.511 
70 1 -5.741 7.519 5.452 
71 1 -9.862 0.247 -0.083 
72 1 8.884 -6.059 0.141 
73 1 -7.722 11.734 1.157 
74 1 12.587 0.682 -10.370 
75 1 -0.557 -10.745 -1.190 
76 1 8.105 -9.719 10.464 
77 1 -2.777 -2.467 4.548 
78 1 3.460 -2.843 -7.872 
79 1 5.590 -11.374 -10.820 
80 1 -10.837 -1.481 3.902 
81 1 -1.516 -0.460 -8.342 
82 1 -6.333 11.543 5.131 
83 1 -1.595 -12.725 -3.909 
84 1 -7.961 -1.142 12.095 
85 1 -10.114 8.836 11.280 
86 1 -5.060 -6.267 -4.256 
87 1 -4.195 1.135 -8.882 
88 1 -2.380 4.322 -3.473 
89 1 0.823 -3.588 -1.973 
90 1 3.927 3.806 -2.096 
91 1 -9.633 -8.197 4.088 
92 1 2.812 -11.008 3.785 
93 1 -9.041 1.343 -6.695 
94 1 9.481 9.158 11.317 
95 1 2.045 -11.456 -4.406 
96 1 -11.815 5.663 -2.531 
97 1 -4.030 9.628 1.996 
98 1 -11.191 4.598 -6.494 
99 1 -4.182 10.669 -1.082 
100 1 3.095 3.564 -6.175 
101 1 -0.319 10.165 9.257 
102 1 -5.532 -5.448 4.205 
103 1 -9.000 -6.335 -8.365 
104 1 -6.458 5.597 -8.739 
105 1 -2.496 -10.160 10.431 
106 1 7.385 -8.843 -12.150 
107 1 3.503 -3.925 1.103 
108 1 8.930 11.783 -12.388 
109 1 -5.838 6.785 0.680 
110 1 1.178 4.725 10.334 
111 1 4.774 -7.277 8.836 
112 1 6.332 8.689 9.669 
113 1 -9.967 4.266 -12.725 
114 1 4.648 4.688 9.150 
115 1 -5.804 -7.491 -9.308 
116 1 2.096 -5.890 3.965 
117 1 8.131 -2.166 3.478 
118 1 -5.782 -0.258 -0.972 
119 1 7.835 -10.605 -5.186 
120 1 -5.195 -3.578 7.150 
121 1 5.835 6.425 12.653 
122 1 -7.937 7.758 -5.529 
123 1 -0.782 11.134 2.992 
124 1 -1.370 2.341 5.796 
125 1 5.838 -3.682 -4.485 
126 1 -11.121 -6.807 8.213 
127 1 -4.805 0.524 5.637 
128 1 -11.090 10.180 -4.191 
129 1 -5.389 11.284 -9.942 
130 1 7.126 -5.407 11.721 
131 1 -2.493 -0.863 1.525 
132 1 -9.749 -12.740 4.112 
133 1 7.850 -4.965 -7.339 
134 1 -12.443 -11.050 -12.565 
135 1 9.399 0.158 8.145 
136 1 -4.126 0.556 11.824 
137 1 -0.370 1.881 2.163 
138 1 0.804 9.352 -0.555 
139 1 -4.650 -10.684 -7.125 
140 1 1.174 11.566 12.042 
141 1 -4.588 -2.868 -5.392 
142 1 -8.492 0.877 4.502 
143 1 -7.841 -8.907 -6.285 
144 1 -4.145 12.620 8.595 
145 1 -11.958 10.334 6.372 
146 1 -0.679 -2.946 -6.161 
147 1 -11.201 2.013 -3.474 
148 1 -1.540 8.540 5.093 
149 1 -7.052 -5.077 -11.313 
150 1 -2.911 -6.640 8.573 
151 1 3.749 4.040 1.940 
152 1 -12.081 10.937 1.964 
153 1 0.903 0.132 10.998 
154 1 -2.936 -10.379 -11.599 
155 1 -2.488 6.074 10.720 
156 1 4.040 7.886 -3.103 
157 1 9.921 3.902 9.724 
158 1 -1.806 -2.224 -12.746 
159 1 -9.600 7.532 -8.535 
160 1 -6.360 -4.290 10.359 
161 1 -6.422 -9.460 -12.351 
162 1 3.215 -10.332 9.874 
163 1 2.165 -6.050 -6.551 
164 1 3.937 8.117 -10.639 
165 1 -5.565 10.111 -6.039 
166 1 -3.636 -5.269 -10.546 
167 1 -3.214 5.356 4.910 
168 1 -1.038 6.669 0.810 
169 1 -1.638 -0.394 -1.825 
170 1 -8.915 6.779 3.335 
171 1 3.146 -0.634 -1.814 
172 1 2.381 7.162 5.677 
173 1 -1.671 7.974 -2.659 
174 1 -10.989 -6.709 12.360 
175 1 8.191 -3.616 8.352 
176 1 3.033 2.434 12.210 
177 1 8.457 10.455 -4.604 
178 1 1.060 -1.439 2.192 
179 1 -5.430 -9.958 7.015 
180 1 -4.773 -4.411 -1.168 
181 1 -12.397 -9.820 9.873 
182 1 -6.462 -9.290 2.990 
183 1 8.801 0.627 1.117 
184 1 -2.305 9.623 -9.886 
185 1 12.335 0.026 0.065 
186 1 -2.133 12.587 -8.315 
187 1 -5.678 12.712 12.387 
188 1 7.311 3.468 5.013 
189 1 -12.291 11.743 9.890 
190 1 5.988 -9.297 1.941 
191 1 -3.136 -11.591 2.457 
192 1 -5.948 -2.040 -10.314 
193 1 -10.552 -10.431 -8.770 
194 1 1.224 7.789 -7.706 
195 1 -11.470 6.500 5.925 
196 1 -9.140 8.524 8.034 
197 1 -4.033 2.954 8.540 
198 1 -1.301 3.321 12.039 
199 1 9.993 -2.509 -1.832 
200 1 1.513 -8.192 -10.878 
ITEM: TIMESTEP
19000
ITEM: NUMBER OF ATOMS
200
ITEM: BOX BOUNDS pp pp pp
-12.74986103408113 12.74986103408113
-12.74986103408113 12.74986103408113
-12.74986103408113 12.74986103408113
ITEM: ATOMS id type x y z
1 1 9.492 5.181 2.848 
2 1 1.126 6.316 -3.808 
3 1 3.358 4.551 -10.534 
4 1 -1.378 6.224 7.798 
5 1 -7.226 -2.279 2.588 
6 1 5.697 -10.635 8.220 
7 1 4.292 -3.520 6.737 
8 1 3.459 12.441 -6.786 
9 1 5.300 6.897 -0.202 
10 1 -7.697 9.794 -2.106 
11 1 -2.064 -10.465 5.230 
12 1 12.297 -11.231 5.657 
13 1 -7.926 -7.314 0.442 
14 1 8.711 -8.374 8.479 
15 1 4.640 -0.322 -10.446 
16 1 1.284 10.654 -9.654 
17 1 -7.348 -11.602 -1.621 
18 1 0.078 10.336 -4.253 
19 1 -5.387 2.071 3.338 
20 1 -4.118 0.810 -5.097 
21 1 2.595 -2.147 -11.848 
22 1 -0.435 -9.441 -7.496 
23 1 12.636 5.846 -9.332 
24 1 12.708 9.626 -9.593 
25 1 -7.991 -12.068 -10.970 
26 1 10.067 -12.064 -7.949 
27 1 12.601 3.518 4.525 
28 1 -9.323 11.874 -5.657 
29 1 -2.655 6.395 -7.113 
30 1 -9.582 -3.506 7.674 
31 1 -6.750 2.494 -2.377 
32 1 3.536 11.650 2.220 
33 1 -0.617 3.213 -5.979 
34 1 -11.925 6.188 9.024 
35 1 -0.198 -10.301 7.781 
36 1 -11.592 1.488 -12.176 
37 1 6.339 -1.437 10.775 
38 1 -1.595 -6.428 3.640 
39 1 -9.025 2.924 9.524 
40 1 1.372 6.964 -12.365 
41 1 -4.636 -9.169 -1.038 
42 1 -11.026 -11.536 -3.301 
43 1 -10.204 -2.769 1.154 
44 1 4.780 -0.362 -5.019 
45 1 4.372 -8.518 -5.710 
46 1 -9.509 -10.837 8.155 
47 1 -7.592 -6.649 6.979 
48 1 0.402 -8.126 1.131 
49 1 4.591 0.731 7.603 
50 1 4.093 7.108 -6.919 
51 1 0.903 10.464 4.951 
52 1 2.991 7.900 9.401 
53 1 5.816 -7.745 -8.660 
54 1 8.968 -12.019 -1.693 
55 1 0.376 -4.716 -12.294 
56 1 -6.539 2.337 -11.656 
57 1 5.974 8.373 2.936 
58 1 9.474 0.835 -12.578 
59 1 2.503 -7.068 11.464 
60 1 -3.499 3.343 0.033 
61 1 10.731 8.430 3.176 
62 1 -9.168 -1.433 -7.039 
63 1 8.110 12.074 4.813 
64 1 -11.202 -10.070 1.187 
65 1 -7.155 5.727 10.997 
66 1 -5.419 12.608 -4.170 
67 1 -12.195 2.393 7.738 
68 1 7.593 1.171 -1.702 
69 1 2.268 -3.405 9.767 
70 1 -5.095 7.210 5.779 
71 1 -9.435 1.367 0.020 
72 1 9.546 -5.613 -0.805 
73 1 -7.710 11.839 0.873 
74 1 12.364 0.401 -9.129 
75 1 0.313 -11.306 -0.531 
76 1 8.205 -10.734 11.418 
77 1 -2.458 -2.710 5.417 
78 1 3.536 -2.591 -7.734 
79 1 6.775 -11.349 -9.835 
80 1 -11.322 -1.770 4.902 
81 1 -0.787 -0.180 -9.196 
82 1 -5.199 11.831 4.826 
83 1 -2.131 -10.831 -3.875 
84 1 -8.332 -1.118 -12.604 
85 1 -9.616 9.417 11.281 
86 1 -4.824 -6.271 -4.609 
87 1 -4.331 2.191 -8.515 
88 1 -2.746 4.292 -3.540 
89 1 1.365 -3.995 -3.449 
90 1 4.125 2.988 -2.504 
91 1 -9.451 -7.953 4.028 
92 1 3.298 -10.038 3.594 
93 1 -9.371 1.751 -5.517 
94 1 9.914 9.043 11.075 
95 1 1.201 -11.652 -4.681 
96 1 -12.058 6.561 -3.422 
97 1 -4.293 9.179 1.854 
98 1 -11.018 5.209 -6.691 
99 1 -3.377 10.390 -1.349 
100 1 2.808 3.047 -7.154 
101 1 -1.007 9.543 8.241 
102 1 -5.884 -6.354 3.671 
103 1 -8.541 -5.478 -8.450 
104 1 -6.366 4.423 -6.896 
105 1 -2.139 -10.600 10.865 
106 1 7.162 -8.221 -12.511 
107 1 4.070 -3.976 -0.277 
108 1 7.593 11.815 -12.405 
109 1 -6.399 6.997 -0.720 
110 1 1.330 4.820 9.864 
111 1 4.694 -7.582 8.062 
112 1 6.505 8.521 9.717 
113 1 -10.258 4.897 -12.339 
114 1 5.942 4.130 9.379 
115 1 -5.714 -7.478 -9.215 
116 1 3.231 -5.778 3.228 
117 1 8.748 -3.417 3.258 
118 1 -6.063 -0.512 -0.387 
119 1 7.828 -10.883 -6.039 
120 1 -5.146 -3.052 7.396 
121 1 5.510 6.198 12.393 
122 1 -7.431 7.275 -5.014 
123 1 -0.608 12.175 2.843 
124 1 -0.772 1.958 5.801 
125 1 7.068 -3.150 -5.062 
126 1 -9.728 -6.928 9.577 
127 1 -4.989 0.285 6.211 
128 1 -11.629 10.256 -3.435 
129 1 -6.244 11.336 -9.198 
130 1 6.468 -4.728 11.957 
131 1 -3.102 -2.033 1.703 
132 1 -9.183 -12.471 4.442 
133 1 8.005 -4.980 -7.924 
134 1 12.531 -10.826 -12.557 
135 1 9.704 0.144 9.038 
136 1 -3.863 0.739 -12.635 
137 1 -0.778 2.183 2.082 
138 1 1.240 9.343 -0.775 
139 1 -4.404 -10.407 -6.395 
140 1 1.324 11.188 12.024 
141 1 -4.313 -2.908 -5.408 
142 1 -8.284 0.888 5.402 
143 1 -7.496 -8.582 -5.144 
144 1 -3.200 12.058 8.568 
145 1 -11.408 10.352 5.534 
146 1 -1.010 -2.673 -6.023 
147 1 -11.824 1.589 -3.110 
148 1 -1.152 8.378 3.950 
149 1 -6.954 -5.241 -11.411 
150 1 -2.449 -7.397 8.044 
151 1 4.324 3.398 1.975 
152 1 -11.594 11.535 1.077 
153 1 0.502 0.100 10.833 
154 1 -3.255 -10.660 -10.982 
155 1 -2.650 7.739 11.530 
156 1 4.708 8.017 -3.356 
157 1 10.185 4.262 9.728 
158 1 -2.157 -2.444 11.687 
159 1 -9.376 6.821 -8.984 
160 1 -5.945 -5.851 10.245 
161 1 -6.745 -8.624 12.563 
162 1 3.088 -10.512 10.448 
163 1 2.433 -6.366 -7.114 
164 1 3.777 8.609 -10.889 
165 1 -5.125 10.318 -6.264 
166 1 -3.122 -5.026 -10.847 
167 1 -3.028 4.734 4.440 
168 1 -0.586 5.769 0.951 
169 1 -1.611 -0.728 -2.285 
170 1 -8.899 6.546 3.375 
171 1 2.839 -0.517 -1.114 
172 1 1.357 4.810 5.666 
173 1 -2.242 7.970 -2.961 
174 1 -10.829 -5.638 12.224 
175 1 7.432 -4.760 8.318 
176 1 3.951 2.721 11.670 
177 1 8.548 10.604 -5.847 
178 1 0.723 -1.340 1.967 
179 1 -5.410 -10.930 7.904 
180 1 -3.419 -4.266 -1.409 
181 1 12.696 -9.665 9.072 
182 1 -5.889 -9.359 2.224 
183 1 8.634 0.861 1.602 
184 1 -1.555 9.146 -10.747 
185 1 12.644 -1.320 -0.509 
186 1 -1.999 12.666 -7.674 
187 1 -5.351 12.727 11.118 
188 1 6.405 4.207 4.687 
189 1 -11.696 11.917 9.387 
190 1 6.223 -9.468 1.877 
191 1 -3.921 -12.286 1.624 
192 1 -5.804 -1.396 -10.026 
193 1 -9.909 -11.204 -7.706 
194 1 0.428 8.268 -7.273 
195 1 -12.344 6.665 5.674 
196 1 -8.895 8.247 7.479 
197 1 -4.304 3.117 9.167 
198 1 -1.331 3.680 11.702 
199 1 9.200 -2.748 -2.136 
200 1 1.279 -7.876 -9.963 
ITEM: TIMESTEP
20000
ITEM: NUMBER OF ATOMS
200
ITEM: BOX BOUNDS pp pp pp
-12.74986103408113 12.74986103408113
-12.74986103408113 12.74986103408113
-12.74986103408113 12.74986103408113
ITEM: ATOMS id type x y z
1 1 9.687 5.105 3.535 
2 1 1.281 5.946 -3.139 
3 1 3.520 4.354 -9.548 
4 1 -1.719 4.949 7.568 
5 1 -6.710 -1.757 3.029 
6 1 4.908 -10.779 5.968 
7 1 4.310 -3.548 6.372 
8 1 3.451 11.215 -6.685 
9 1 4.015 7.125 0.483 
10 1 -7.571 10.022 -2.744 
11 1 -2.125 -10.463 4.739 
12 1 12.074 -11.751 6.431 
13 1 -7.431 -6.567 -0.879 
14 1 8.622 -9.110 8.513 
15 1 5.474 0.245 -10.310 
16 1 1.123 11.437 -8.889 
17 1 -7.405 -11.051 -0.944 
18 1 -0.680 10.843 -3.692 
19 1 -5.433 1.440 2.654 
20 1 -4.368 1.160 -5.254 
21 1 1.903 -0.772 -11.445 
22 1 -0.072 -9.094 -6.670 
23 1 -12.124 5.353 -9.625 
24 1 -12.485 9.708 -9.010 
25 1 -8.591 -12.251 -11.587 
26 1 10.397 -12.002 -8.573 
27 1 -12.054 3.561 4.684 
28 1 -9.417 11.252 -6.239 
29 1 -2.869 6.757 -6.401 
30 1 -9.861 -3.408 8.610 
31 1 -5.460 2.242 -2.350 
32 1 3.178 12.237 1.320 
33 1 0.073 3.546 -6.063 
34 1 -12.069 6.016 10.306 
35 1 0.216 -10.479 8.042 
36 1 -11.286 1.262 -11.618 
37 1 6.345 -1.210 10.756 
38 1 -2.265 -5.681 2.224 
39 1 -8.361 2.856 9.445 
40 1 1.618 5.633 -12.365 
41 1 -3.684 -9.707 0.058 
42 1 -10.509 -11.621 -2.557 
43 1 -9.997 -2.166 0.698 
44 1 5.835 -0.733 -4.242 
45 1 4.751 -9.372 -5.301 
46 1 -9.572 -9.769 7.540 
47 1 -6.502 -6.057 6.307 
48 1 0.641 -7.560 1.239 
49 1 3.425 0.070 7.872 
50 1 3.350 7.842 -7.798 
51 1 1.541 10.952 4.033 
52 1 2.124 8.071 9.067 
53 1 5.693 -8.133 -8.693 
54 1 7.757 -11.607 -1.215 
55 1 0.216 -4.988 -12.417 
56 1 -6.726 3.419 -11.179 
57 1 7.555 8.024 2.981 
58 1 9.410 0.513 12.560 
59 1 3.164 -7.420 11.863 
60 1 -3.853 3.378 0.406 
61 1 10.904 9.741 2.971 
62 1 -9.015 -2.333 -8.380 
63 1 8.750 10.934 5.410 
64 1 -10.463 -9.943 2.018 
65 1 -6.707 5.721 10.990 
66 1 -5.585 12.744 -4.046 
67 1 -12.746 3.385 8.256 
68 1 7.954 1.149 -1.588 
69 1 1.784 -3.583 9.107 
70 1 -4.789 7.434 6.633 
71 1 -8.476 2.744 0.781 
72 1 9.566 -6.217 -1.134 
73 1 -7.808 11.560 1.044 
74 1 12.247 0.234 -9.253 
75 1 -0.175 -11.189 -0.762 
76 1 8.260 -10.870 11.618 
77 1 -3.076 -2.911 5.348 
78 1 3.924 -1.783 -7.697 
79 1 5.661 12.601 -9.082 
80 1 -11.274 -1.944 3.832 
81 1 -0.800 0.093 -9.443 
82 1 -5.376 11.474 5.288 
83 1 -1.826 -9.836 -3.931 
84 1 -8.722 -1.008 -12.499 
85 1 -9.039 8.814 10.898 
86 1 -4.764 -6.392 -4.732 
87 1 -4.353 3.498 -8.778 
88 1 -2.462 4.328 -4.046 
89 1 1.814 -3.786 -4.252 
90 1 3.627 2.222 -2.737 
91 1 -8.593 -7.781 3.752 
92 1 3.141 -9.487 2.646 
93 1 -9.371 1.837 -4.966 
94 1 10.197 10.725 11.027 
95 1 1.633 -11.996 -4.402 
96 1 -11.909 6.435 -3.761 
97 1 -4.509 8.692 2.155 
98 1 -11.533 4.598 -6.238 
99 1 -3.516 10.488 -1.626 
100 1 2.722 1.996 -6.996 
101 1 -1.155 9.096 7.276 
102 1 -5.507 -5.731 2.745 
103 1 -8.998 -5.847 -7.480 
104 1 -6.841 3.610 -6.307 
105 1 -1.952 -10.425 10.390 
106 1 6.663 -7.644 12.479 
107 1 4.354 -2.761 1.067 
108 1 5.602 10.170 12.318 
109 1 -6.104 7.031 -0.783 
110 1 0.788 5.020 9.849 
111 1 4.509 -6.783 8.965 
112 1 5.732 8.980 8.950 
113 1 -10.304 4.829 12.603 
114 1 5.982 4.093 8.639 
115 1 -6.321 -7.896 -8.821 
116 1 3.616 -5.685 3.208 
117 1 8.838 -2.914 2.973 
118 1 -6.452 -1.259 -0.637 
119 1 8.032 -11.310 -5.282 
120 1 -4.559 -2.928 8.463 
121 1 5.505 5.937 11.654 
122 1 -6.589 6.737 -4.926 
123 1 -1.788 -12.623 2.509 
124 1 -1.265 1.039 5.340 
125 1 7.204 -3.589 -4.949 
126 1 -9.216 -7.217 9.742 
127 1 -4.841 0.510 6.588 
128 1 -11.927 10.725 -2.071 
129 1 -6.404 11.101 -8.823 
130 1 4.901 -4.496 12.304 
131 1 -2.588 -2.107 1.184 
132 1 -8.705 -12.642 3.990 
133 1 7.790 -5.425 -7.996 
134 1 12.539 -11.255 12.550 
135 1 9.588 -1.013 8.953 
136 1 -4.232 0.554 12.414 
137 1 -0.924 2.202 2.045 
138 1 0.913 8.831 -0.688 
139 1 -5.073 -9.980 -6.392 
140 1 0.401 11.918 -12.685 
141 1 -4.273 -3.204 -6.147 
142 1 -8.760 1.114 5.043 
143 1 -8.313 -8.337 -5.334 
144 1 -3.215 11.464 8.945 
145 1 -11.161 10.738 5.717 
146 1 -0.734 -1.782 -6.060 
147 1 -11.757 0.719 -2.033 
148 1 0.410 8.172 4.016 
149 1 -7.035 -5.346 -11.846 
150 1 -3.561 -8.412 7.654 
151 1 3.408 2.475 2.632 
152 1 -11.422 11.434 2.202 
153 1 0.249 -0.306 10.371 
154 1 -3.377 -10.262 -11.206 
155 1 -2.912 6.974 10.941 
156 1 4.483 8.422 -3.842 
157 1 9.489 3.935 10.271 
158 1 -1.720 -2.111 12.291 
159 1 -8.652 6.794 -9.080 
160 1 -4.803 -6.576 10.188 
161 1 -6.486 -9.150 -12.395 
162 1 3.512 -10.454 10.939 
163 1 3.040 -6.479 -7.709 
164 1 3.147 9.409 -10.489 
165 1 -5.359 9.483 -6.069 
166 1 -3.555 -5.580 -11.269 
167 1 -2.887 4.993 4.181 
168 1 -0.775 5.987 0.361 
169 1 -0.632 0.301 -2.547 
170 1 -8.311 7.670 2.147 
171 1 2.792 -1.018 -1.982 
172 1 1.244 4.421 6.278 
173 1 -1.791 7.809 -2.897 
174 1 -10.454 -4.884 -12.527 
175 1 7.633 -4.299 8.199 
176 1 4.198 3.042 -12.536 
177 1 9.555 10.285 -6.303 
178 1 0.898 -1.368 1.996 
179 1 -5.951 -10.820 7.182 
180 1 -3.009 -5.239 -1.198 
181 1 11.847 -9.490 9.522 
182 1 -6.749 -9.714 1.821 
183 1 7.676 2.039 1.978 
184 1 -2.387 9.295 -10.148 
185 1 11.980 -1.842 0.481 
186 1 -2.592 11.527 -7.934 
187 1 -6.729 12.666 10.700 
188 1 7.065 3.716 5.357 
189 1 -12.015 11.635 9.471 
190 1 6.893 -10.330 1.918 
191 1 -4.820 -12.687 0.499 
192 1 -4.936 -0.869 -9.691 
193 1 -10.841 -10.045 -7.109 
194 1 0.137 8.279 -7.318 
195 1 -11.930 6.881 6.420 
196 1 -8.299 7.749 7.464 
197 1 -4.060 3.145 9.079 
198 1 -1.292 3.846 12.179 
199 1 8.966 -2.676 -1.345 
200 1 0.838 -8.274 -10.706 
