ITEM: TIMESTEP
0
ITEM: NUMBER OF ATOMS
200
ITEM: BOX BOUNDS pp pp pp
-10.725124871596057 10.725124871596057
-10.725124871596057 10.725124871596057
-10.725124871596057 10.725124871596057
ITEM: ATOMS id type x y z
1 1 3.499 4.789 2.431 
2 1 2.907 7.444 -0.306 
3 1 2.241 2.818 -7.415 
4 1 -2.633 5.747 7.994 
5 1 -7.605 -1.779 1.175 
6 1 3.294 10.271 8.763 
7 1 3.703 -2.340 1.959 
8 1 1.150 7.096 9.345 
9 1 3.862 9.869 2.485 
10 1 -6.835 5.655 -1.154 
11 1 0.711 -5.643 5.163 
12 1 9.105 10.471 4.291 
13 1 -7.945 -4.710 -1.547 
14 1 10.360 -6.499 5.298 
15 1 6.684 0.604 10.317 
16 1 1.076 10.714 -7.204 
17 1 -3.299 -9.173 0.313 
18 1 0.280 -8.711 -4.303 
19 1 -4.848 1.281 3.507 
20 1 -1.027 0.560 -3.270 
21 1 0.594 -1.611 -10.404 
22 1 -0.308 -6.678 -7.244 
23 1 6.098 6.108 -6.336 
24 1 9.933 7.434 -6.229 
25 1 -8.033 8.637 8.918 
26 1 4.280 10.512 -9.078 
27 1 10.041 2.891 2.651 
28 1 -8.069 8.905 -6.228 
29 1 -1.487 3.692 -5.585 
30 1 -7.333 -2.393 5.591 
31 1 -5.582 1.183 -0.132 
32 1 0.880 7.507 2.737 
33 1 -0.202 -0.029 -6.834 
34 1 -9.908 5.505 9.195 
35 1 -0.480 -7.579 8.025 
36 1 -8.220 2.392 10.172 
37 1 2.851 -5.356 8.199 
38 1 -1.517 -7.934 3.460 
39 1 -7.001 1.823 6.635 
40 1 -0.208 4.993 -9.096 
41 1 -0.764 -7.025 -1.315 
42 1 -10.597 -10.084 -7.656 
43 1 10.446 -2.985 -0.398 
44 1 3.657 -0.616 -8.273 
45 1 2.385 10.613 -2.162 
46 1 -6.637 -10.014 6.859 
47 1 -7.420 -6.433 5.700 
48 1 3.994 -8.211 0.002 
49 1 4.841 -0.521 7.137 
50 1 2.894 6.856 -8.337 
51 1 -2.850 6.579 3.550 
52 1 3.523 4.504 8.580 
53 1 6.353 -7.761 -7.869 
54 1 7.329 9.237 0.973 
55 1 4.027 -4.077 -9.882 
56 1 -6.927 -0.989 9.138 
57 1 6.435 7.784 4.340 
58 1 9.960 -1.130 -6.605 
59 1 2.778 -7.620 -9.039 
60 1 -1.712 0.875 0.330 
61 1 9.762 6.783 2.886 
62 1 -8.787 -3.369 -6.998 
63 1 5.521 -10.415 5.833 
64 1 -6.342 -7.052 0.656 
65 1 -6.265 5.170 8.727 
66 1 -8.769 -10.043 -3.125 
67 1 8.609 0.972 5.607 
68 1 9.063 1.283 -3.848 
69 1 0.404 -5.261 -10.529 
70 1 -5.181 7.990 6.651 
71 1 9.346 -0.807 2.356 
72 1 6.792 -8.651 2.571 
73 1 -6.986 -10.708 0.242 
74 1 -7.463 -0.009 -8.653 
75 1 1.244 -5.974 1.574 
76 1 7.989 -10.506 -10.302 
77 1 -2.543 -5.228 1.276 
78 1 3.061 -6.243 -5.582 
79 1 5.353 -8.060 9.842 
80 1 10.463 -2.750 5.322 
81 1 -2.160 -3.611 -8.326 
82 1 -5.534 9.304 3.403 
83 1 -5.029 -9.132 -2.902 
84 1 -4.045 -0.781 6.525 
85 1 -10.676 8.268 -9.815 
86 1 -3.149 -6.910 -5.147 
87 1 -3.748 7.024 -7.121 
88 1 2.047 2.487 -3.708 
89 1 -2.711 -2.321 -4.929 
90 1 4.527 5.097 -2.726 
91 1 10.642 -8.242 1.929 
92 1 0.792 -10.225 5.289 
93 1 -5.351 3.027 -7.252 
94 1 9.014 3.822 -6.703 
95 1 0.794 -9.762 1.078 
96 1 -7.636 2.459 -2.884 
97 1 -5.332 4.650 5.043 
98 1 -9.283 1.845 -6.080 
99 1 -6.058 8.816 -3.063 
100 1 2.448 -1.224 -4.414 
101 1 -0.640 8.038 6.079 
102 1 -9.129 -4.853 2.529 
103 1 9.492 -4.971 -6.773 
104 1 -6.795 7.300 -9.316 
105 1 -6.640 -7.171 9.216 
106 1 5.743 -3.799 -6.541 
107 1 0.038 -2.465 1.774 
108 1 6.312 7.550 -9.791 
109 1 -4.408 4.398 1.284 
110 1 0.032 3.474 8.901 
111 1 -0.942 -3.751 7.931 
112 1 8.876 9.378 7.878 
113 1 10.140 1.415 -9.425 
114 1 6.945 3.441 7.936 
115 1 -7.698 -6.520 -8.828 
116 1 2.048 -3.861 -1.318 
117 1 6.817 -2.328 4.573 
118 1 -5.396 -2.009 -1.980 
119 1 9.657 -7.130 -9.913 
120 1 -2.272 -3.541 4.575 
121 1 5.147 3.731 -9.550 
122 1 -6.593 5.603 -4.949 
123 1 -4.272 8.206 0.143 
124 1 3.883 2.595 5.491 
125 1 1.416 -3.391 -7.269 
126 1 -9.089 -4.362 8.333 
127 1 -2.486 2.641 6.194 
128 1 9.749 9.014 -2.581 
129 1 -0.986 8.649 -9.410 
130 1 7.793 -2.526 -9.369 
131 1 -1.352 -0.015 4.026 
132 1 -9.086 8.922 5.334 
133 1 6.917 0.869 -7.393 
134 1 -10.000 -9.638 9.250 
135 1 8.530 -4.806 2.404 
136 1 -0.377 -0.035 7.757 
137 1 1.143 3.438 -0.207 
138 1 -1.218 9.696 -1.647 
139 1 -3.893 -8.757 -8.305 
140 1 -0.511 10.257 8.735 
141 1 -4.615 0.823 -4.286 
142 1 -9.043 0.346 3.968 
143 1 -4.200 -5.517 -1.953 
144 1 -2.961 -10.465 6.028 
145 1 -8.865 5.186 5.564 
146 1 -5.850 -4.263 -5.114 
147 1 -8.911 -1.709 -3.657 
148 1 0.910 4.759 5.541 
149 1 -5.762 -3.368 -9.643 
150 1 -3.600 -6.714 6.360 
151 1 4.624 2.026 -0.437 
152 1 -7.756 3.361 2.301 
153 1 1.692 -1.984 5.219 
154 1 -0.637 -8.914 -9.957 
155 1 -3.714 4.791 -10.058 
156 1 0.729 5.921 -2.932 
157 1 8.616 4.759 -10.288 
158 1 -3.039 -1.577 10.058 
159 1 -9.242 4.848 -8.305 
160 1 -5.137 -3.972 8.058 
161 1 -7.051 -10.279 -9.892 
162 1 4.266 -4.837 4.733 
163 1 -0.109 -4.750 -4.157 
164 1 5.850 7.256 8.011 
165 1 -2.939 6.866 -3.452 
166 1 -3.195 -5.988 10.467 
167 1 -1.112 3.496 2.781 
168 1 -1.305 6.174 0.087 
169 1 -3.860 -1.765 1.591 
170 1 -8.042 7.055 2.113 
171 1 1.690 -0.241 -0.822 
172 1 2.995 7.976 5.774 
173 1 -3.138 3.473 -2.057 
174 1 -10.117 -1.960 -10.476 
175 1 8.125 -2.264 8.247 
176 1 2.832 1.151 9.956 
177 1 7.153 9.857 -6.784 
178 1 1.930 1.089 2.656 
179 1 -5.149 -8.598 3.651 
180 1 -1.677 -2.682 -1.417 
181 1 8.244 -8.439 7.575 
182 1 -5.509 -4.577 3.280 
183 1 5.750 0.750 2.849 
184 1 -0.184 7.353 -6.095 
185 1 -9.968 0.693 -0.465 
186 1 -2.539 10.371 -5.387 
187 1 -3.790 -9.454 9.434 
188 1 6.905 4.150 4.065 
189 1 9.109 6.037 6.437 
190 1 3.270 -8.164 3.710 
191 1 -1.903 9.984 2.673 
192 1 -3.893 -0.370 -7.881 
193 1 -6.919 -8.981 -6.186 
194 1 3.281 8.089 -4.768 
195 1 -10.224 0.096 7.764 
196 1 -4.041 8.424 10.089 
197 1 -4.432 1.825 9.322 
198 1 -1.445 1.527 -9.906 
199 1 6.714 -1.535 -0.113 
200 1 4.135 -9.755 -5.403 
ITEM: TIMESTEP
1000
ITEM: NUMBER OF ATOMS
200
ITEM: BOX BOUNDS pp pp pp
-10.725124871596057 10.725124871596057
-10.725124871596057 10.725124871596057
-10.725124871596057 10.725124871596057
ITEM: ATOMS id type x y z
1 1 4.651 5.332 1.895 
2 1 2.733 7.452 -0.379 
3 1 2.007 2.799 -7.427 
4 1 -2.440 5.845 7.782 
5 1 -7.328 -1.306 1.145 
6 1 3.056 10.405 8.764 
7 1 3.584 -2.326 2.685 
8 1 1.492 7.599 9.263 
9 1 3.478 9.749 2.141 
10 1 -6.094 5.734 -1.706 
11 1 0.451 -5.828 4.978 
12 1 9.661 10.433 4.520 
13 1 -7.477 -4.184 -1.572 
14 1 -10.231 -6.837 5.567 
15 1 6.494 0.792 10.218 
16 1 1.362 -10.327 -7.696 
17 1 -3.256 -9.717 0.667 
18 1 -0.236 -9.282 -4.019 
19 1 -5.877 2.095 2.983 
20 1 -1.295 0.234 -4.065 
21 1 0.854 -1.771 10.500 
22 1 -0.494 -6.934 -6.997 
23 1 5.724 5.614 -6.561 
24 1 10.091 7.348 -5.830 
25 1 -8.808 9.110 8.551 
26 1 4.628 -10.619 -8.457 
27 1 10.329 3.050 3.548 
28 1 -8.148 9.270 -6.227 
29 1 -0.971 3.771 -5.566 
30 1 -6.958 -2.822 5.095 
31 1 -5.641 1.210 -0.337 
32 1 0.720 6.919 2.775 
33 1 -0.355 -0.372 -6.978 
34 1 -9.786 5.339 9.371 
35 1 0.448 -7.085 8.327 
36 1 -8.307 1.941 10.150 
37 1 3.100 -4.714 8.173 
38 1 -1.172 -7.975 2.774 
39 1 -6.936 1.952 6.507 
40 1 0.470 5.169 -9.455 
41 1 -0.917 -7.425 -1.243 
42 1 10.079 -10.342 -7.501 
43 1 10.331 -3.610 -0.607 
44 1 3.533 0.161 -7.805 
45 1 2.565 10.249 -2.014 
46 1 -7.256 -9.934 6.781 
47 1 -6.922 -6.883 6.079 
48 1 3.802 -7.584 -1.310 
49 1 4.804 -0.114 7.259 
50 1 2.936 6.888 -8.427 
51 1 -2.676 6.510 3.928 
52 1 3.307 4.544 8.366 
53 1 6.292 -7.696 -7.252 
54 1 7.119 8.971 1.647 
55 1 3.690 -3.634 -9.805 
56 1 -6.914 -1.189 8.781 
57 1 6.595 7.919 4.696 
58 1 9.419 -1.227 -7.435 
59 1 2.785 -7.731 -9.492 
60 1 -1.899 0.707 0.226 
61 1 9.698 7.231 3.029 
62 1 -9.243 -3.865 -7.076 
63 1 5.543 -10.259 6.011 
64 1 -7.159 -7.299 0.991 
65 1 -6.125 5.995 9.552 
66 1 -9.140 10.472 -2.950 
67 1 8.637 0.734 5.673 
68 1 8.400 2.271 -3.119 
69 1 0.765 -5.240 -9.982 
70 1 -5.128 7.670 6.688 
71 1 9.014 0.057 2.497 
72 1 6.815 -8.895 2.966 
73 1 -6.892 -10.351 0.311 
74 1 -7.038 -0.457 -8.574 
75 1 1.126 -5.859 1.361 
76 1 8.166 10.638 -10.434 
77 1 -2.637 -5.085 1.065 
78 1 2.926 -6.744 -6.235 
79 1 5.759 -8.621 10.089 
80 1 10.535 -2.597 5.629 
81 1 -1.839 -3.384 -8.239 
82 1 -4.886 8.949 3.533 
83 1 -4.421 -9.293 -2.912 
84 1 -4.622 -0.518 6.470 
85 1 10.659 7.627 -9.871 
86 1 -3.054 -5.974 -5.204 
87 1 -3.739 6.370 -7.351 
88 1 1.831 2.633 -3.871 
89 1 -3.379 -2.444 -5.235 
90 1 5.248 4.655 -3.169 
91 1 -10.267 -9.453 1.922 
92 1 1.588 -9.943 5.459 
93 1 -6.916 3.292 -8.182 
94 1 9.435 3.883 -6.435 
95 1 0.845 -10.194 0.684 
96 1 -7.550 2.682 -2.808 
97 1 -5.472 4.928 4.770 
98 1 -9.275 2.584 -5.795 
99 1 -5.814 8.922 -2.504 
100 1 3.563 -0.074 -4.257 
101 1 -0.384 7.974 5.933 
102 1 -8.948 -4.691 2.878 
103 1 8.491 -5.204 -7.017 
104 1 -6.688 7.607 -8.910 
105 1 -6.374 -7.056 9.876 
106 1 4.951 -4.048 -6.760 
107 1 -0.193 -2.848 1.737 
108 1 6.486 8.095 -9.592 
109 1 -4.447 4.784 1.333 
110 1 0.278 3.426 8.577 
111 1 -0.498 -3.853 8.140 
112 1 9.002 9.566 7.700 
113 1 9.796 1.798 -9.836 
114 1 6.228 3.406 8.291 
115 1 -8.247 -7.689 -8.252 
116 1 3.395 -4.431 -1.411 
117 1 6.700 -2.419 4.182 
118 1 -4.982 -1.729 -2.087 
119 1 9.075 -7.417 -9.643 
120 1 -2.160 -3.361 5.098 
121 1 5.297 4.450 -10.159 
122 1 -6.985 5.908 -6.233 
123 1 -4.198 8.156 0.575 
124 1 4.460 2.724 5.416 
125 1 1.433 -3.468 -6.970 
126 1 -9.063 -5.065 8.290 
127 1 -2.921 2.795 5.897 
128 1 8.656 8.619 -2.923 
129 1 -1.611 8.861 -8.599 
130 1 7.630 -3.187 -9.947 
131 1 -1.484 0.136 4.645 
132 1 -8.375 9.123 4.456 
133 1 6.632 1.368 -7.481 
134 1 -9.584 -9.447 10.253 
135 1 7.947 -5.011 2.237 
136 1 -0.424 0.293 7.980 
137 1 1.323 3.531 0.238 
138 1 -1.324 9.631 -1.922 
139 1 -3.979 -8.566 -7.876 
140 1 -0.968 9.768 9.150 
141 1 -4.617 0.918 -4.316 
142 1 -8.748 0.737 3.464 
143 1 -4.241 -6.151 -1.585 
144 1 -3.035 -10.673 5.836 
145 1 -9.096 5.865 5.974 
146 1 -6.695 -5.510 -4.940 
147 1 -8.375 -1.096 -2.898 
148 1 0.696 4.330 5.170 
149 1 -5.380 -3.383 -9.887 
150 1 -3.309 -6.966 6.629 
151 1 4.663 2.463 -0.593 
152 1 -8.808 3.353 1.128 
153 1 1.441 -1.568 4.998 
154 1 -0.759 -9.170 -10.134 
155 1 -3.262 4.145 -10.208 
156 1 1.378 5.678 -2.532 
157 1 8.671 5.049 -10.671 
158 1 -3.056 -2.147 9.867 
159 1 -9.628 5.058 -8.541 
160 1 -4.874 -4.228 8.037 
161 1 -6.441 10.596 -9.927 
162 1 4.723 -5.098 5.266 
163 1 0.810 -4.617 -3.795 
164 1 5.869 7.863 8.105 
165 1 -3.339 6.559 -3.209 
166 1 -3.048 -5.541 10.375 
167 1 -1.659 3.278 2.783 
168 1 -0.987 6.241 -0.505 
169 1 -3.767 -1.858 1.754 
170 1 -7.450 6.776 1.218 
171 1 1.605 -0.457 -1.184 
172 1 2.915 6.760 6.028 
173 1 -2.585 3.248 -2.166 
174 1 -10.505 -2.217 10.343 
175 1 8.082 -2.110 8.254 
176 1 2.683 1.342 10.383 
177 1 5.837 9.236 -4.775 
178 1 1.563 0.811 2.249 
179 1 -5.431 -8.943 3.537 
180 1 -1.665 -2.499 -1.945 
181 1 9.168 -8.345 7.940 
182 1 -5.190 -5.390 3.261 
183 1 5.889 1.353 2.394 
184 1 -0.620 7.127 -5.523 
185 1 -9.815 0.814 -0.854 
186 1 -2.986 10.061 -5.512 
187 1 -3.900 -9.040 9.453 
188 1 7.323 3.963 3.861 
189 1 8.578 5.500 7.040 
190 1 3.393 -8.017 3.815 
191 1 -1.508 9.266 2.206 
192 1 -3.594 0.531 -8.442 
193 1 -6.392 -9.594 -6.191 
194 1 2.744 8.181 -4.733 
195 1 -10.345 0.330 7.852 
196 1 -3.993 8.907 10.103 
197 1 -4.739 1.043 9.411 
198 1 -1.102 1.272 -10.168 
199 1 6.710 -2.746 0.311 
200 1 3.386 -9.466 -4.701 
ITEM: TIMESTEP
2000
ITEM: NUMBER OF ATOMS
200
ITEM: BOX BOUNDS pp pp pp
-10.725124871596057 10.725124871596057
-10.725124871596057 10.725124871596057
-10.725124871596057 10.725124871596057
ITEM: ATOMS id type x y z
1 1 4.634 5.273 2.032 
2 1 2.725 7.001 -0.399 
3 1 1.858 3.264 -7.204 
4 1 -2.726 6.425 8.140 
5 1 -7.560 -1.338 0.858 
6 1 2.614 10.289 8.690 
7 1 3.569 -2.431 1.961 
8 1 1.228 6.784 9.012 
9 1 3.347 9.792 2.278 
10 1 -6.431 6.286 -1.841 
11 1 0.248 -6.413 5.218 
12 1 9.362 10.404 5.277 
13 1 -8.479 -4.908 -1.777 
14 1 -10.069 -7.018 5.791 
15 1 5.651 1.173 -10.244 
16 1 1.109 10.448 -7.613 
17 1 -3.652 -9.887 0.615 
18 1 -0.174 -8.766 -3.961 
19 1 -5.924 1.861 3.715 
20 1 -0.852 0.087 -3.855 
21 1 1.167 -1.412 10.603 
22 1 -0.032 -7.601 -7.077 
23 1 6.053 6.199 -6.117 
24 1 9.695 7.191 -6.284 
25 1 -8.347 8.621 9.270 
26 1 4.541 10.009 -7.747 
27 1 -9.804 2.926 4.669 
28 1 -8.364 8.982 -5.887 
29 1 -1.655 2.877 -6.185 
30 1 -6.627 -2.535 4.794 
31 1 -5.237 1.115 -0.429 
32 1 1.303 6.497 2.851 
33 1 -0.601 0.307 -7.642 
34 1 -9.219 5.157 9.222 
35 1 0.129 -8.053 8.247 
36 1 -8.590 1.978 10.571 
37 1 3.446 -3.475 8.460 
38 1 -2.079 -8.425 3.487 
39 1 -7.157 2.784 6.793 
40 1 -0.239 4.944 -9.477 
41 1 -1.542 -7.254 -1.411 
42 1 9.961 -10.693 -6.835 
43 1 9.736 -2.924 -0.751 
44 1 3.391 -0.305 -7.901 
45 1 1.733 10.303 -2.012 
46 1 -7.527 -9.963 7.208 
47 1 -6.417 -6.647 6.312 
48 1 3.178 -8.047 -0.765 
49 1 4.565 -0.172 7.775 
50 1 2.513 7.167 -9.516 
51 1 -2.159 6.494 4.259 
52 1 3.484 4.481 8.483 
53 1 5.646 -8.225 -7.823 
54 1 6.511 8.392 0.212 
55 1 3.764 -3.689 -9.547 
56 1 -7.109 -1.401 9.427 
57 1 6.363 7.664 4.135 
58 1 9.996 -0.728 -7.350 
59 1 2.423 -8.102 -9.473 
60 1 -1.813 0.725 0.096 
61 1 9.682 7.432 3.666 
62 1 -9.787 -4.257 -7.189 
63 1 5.352 -9.313 6.253 
64 1 -6.445 -7.515 0.239 
65 1 -5.850 5.382 9.093 
66 1 -10.100 10.047 -2.638 
67 1 8.072 1.409 5.539 
68 1 8.815 3.117 -2.307 
69 1 0.196 -5.450 -9.967 
70 1 -5.609 8.452 6.469 
71 1 9.192 0.231 2.568 
72 1 6.340 -9.801 2.868 
73 1 -6.993 -10.656 -0.606 
74 1 -7.507 -0.911 -7.229 
75 1 0.762 -5.680 1.499 
76 1 8.336 -10.137 -10.714 
77 1 -2.823 -5.085 1.021 
78 1 2.787 -6.703 -5.910 
79 1 5.414 -8.082 10.099 
80 1 -10.162 -2.235 5.582 
81 1 -1.461 -2.851 -8.265 
82 1 -5.481 8.696 3.295 
83 1 -4.110 -8.676 -3.369 
84 1 -4.549 -0.583 6.670 
85 1 10.674 7.937 -9.890 
86 1 -3.414 -5.694 -5.379 
87 1 -4.479 6.460 -6.575 
88 1 1.931 2.754 -3.470 
89 1 -3.124 -2.345 -5.343 
90 1 5.475 5.890 -3.052 
91 1 -9.755 -9.286 1.890 
92 1 0.681 -10.056 5.407 
93 1 -6.358 2.902 -7.427 
94 1 9.047 4.021 -7.080 
95 1 0.165 -9.957 0.705 
96 1 -7.987 2.810 -2.098 
97 1 -5.728 5.067 5.093 
98 1 -9.706 2.556 -4.905 
99 1 -5.597 9.445 -3.038 
100 1 3.894 -0.995 -3.814 
101 1 0.109 8.000 6.158 
102 1 -8.739 -4.612 2.154 
103 1 8.490 -5.247 -7.438 
104 1 -7.179 7.317 -8.747 
105 1 -6.689 -7.660 9.577 
106 1 5.471 -3.802 -6.466 
107 1 0.090 -2.113 1.405 
108 1 6.735 7.341 -8.972 
109 1 -4.664 4.820 1.586 
110 1 0.302 3.350 8.230 
111 1 -0.430 -3.410 8.111 
112 1 10.024 8.798 8.259 
113 1 9.755 1.797 -9.836 
114 1 6.445 3.079 8.553 
115 1 -7.875 -7.395 -8.406 
116 1 3.214 -4.477 -0.641 
117 1 6.915 -2.353 3.792 
118 1 -5.344 -1.780 -2.478 
119 1 10.162 -7.745 -8.726 
120 1 -2.151 -3.369 4.216 
121 1 4.942 4.773 -9.650 
122 1 -7.633 5.184 -5.292 
123 1 -4.007 8.425 0.006 
124 1 4.100 2.590 5.531 
125 1 2.004 -2.987 -6.949 
126 1 -8.597 -4.579 7.652 
127 1 -2.904 2.621 5.726 
128 1 8.911 8.014 -2.727 
129 1 -2.109 9.109 -8.735 
130 1 8.007 -2.604 -10.275 
131 1 -2.412 -0.080 3.673 
132 1 -8.798 9.501 4.237 
133 1 6.609 1.477 -5.644 
134 1 -9.408 -9.282 10.208 
135 1 8.497 -5.155 2.667 
136 1 -0.736 -0.069 7.581 
137 1 0.553 3.325 -0.129 
138 1 -1.371 9.048 -2.231 
139 1 -4.182 -8.281 -7.849 
140 1 -0.953 9.882 8.700 
141 1 -4.587 0.992 -4.832 
142 1 -8.943 -0.165 3.457 
143 1 -4.527 -5.326 -2.216 
144 1 -2.599 -10.585 6.103 
145 1 -8.810 6.379 5.654 
146 1 -7.096 -5.816 -4.679 
147 1 -8.524 -1.573 -3.012 
148 1 0.522 3.708 4.976 
149 1 -5.592 -3.194 -9.435 
150 1 -2.880 -6.459 6.708 
151 1 4.416 2.920 -1.084 
152 1 -8.397 2.993 1.346 
153 1 1.761 -1.305 4.510 
154 1 -1.122 -8.896 -9.632 
155 1 -3.730 4.377 -9.574 
156 1 1.420 5.915 -3.287 
157 1 8.251 4.985 -10.605 
158 1 -2.609 -1.527 9.976 
159 1 -9.374 4.608 -8.667 
160 1 -4.911 -4.002 8.025 
161 1 -6.237 -10.532 -9.754 
162 1 4.753 -4.727 4.546 
163 1 0.914 -4.145 -3.707 
164 1 6.561 8.359 9.097 
165 1 -3.095 6.306 -3.432 
166 1 -3.084 -5.545 10.274 
167 1 -1.981 2.998 2.567 
168 1 -1.407 6.501 -0.503 
169 1 -4.297 -1.765 1.397 
170 1 -8.064 7.400 1.705 
171 1 1.706 -1.395 -1.286 
172 1 3.431 6.905 6.017 
173 1 -1.665 3.595 -2.701 
174 1 -10.453 -2.483 9.896 
175 1 8.367 -1.485 7.676 
176 1 2.176 2.075 -10.651 
177 1 5.775 9.394 -4.720 
178 1 1.557 1.055 1.873 
179 1 -5.723 -9.480 3.878 
180 1 -1.912 -3.079 -2.041 
181 1 9.449 -7.661 8.672 
182 1 -5.110 -4.997 3.561 
183 1 6.086 1.057 1.808 
184 1 -0.853 7.272 -5.969 
185 1 -10.594 0.742 -0.603 
186 1 -2.440 10.512 -5.782 
187 1 -3.691 -9.125 8.941 
188 1 7.928 4.036 3.643 
189 1 8.775 5.676 6.726 
190 1 3.240 -8.111 3.328 
191 1 -2.052 9.515 2.570 
192 1 -3.907 0.771 -8.800 
193 1 -6.953 -9.629 -6.168 
194 1 2.769 8.057 -5.010 
195 1 10.428 1.403 8.080 
196 1 -4.245 8.529 10.362 
197 1 -3.827 1.543 9.132 
198 1 -0.853 1.755 -10.651 
199 1 6.203 -2.695 -0.382 
200 1 3.261 -9.603 -5.314 
ITEM: TIMESTEP
3000
ITEM: NUMBER OF ATOMS
200
ITEM: BOX BOUNDS pp pp pp
-10.725124871596057 10.725124871596057
-10.725124871596057 10.725124871596057
-10.725124871596057 10.725124871596057
ITEM: ATOMS id type x y z
1 1 4.940 5.215 2.072 
2 1 2.421 7.365 -0.542 
3 1 2.225 2.802 -6.451 
4 1 -2.915 6.565 7.423 
5 1 -7.502 -1.321 0.969 
6 1 2.264 10.711 9.190 
7 1 4.166 -2.517 1.885 
8 1 0.766 7.067 9.293 
9 1 3.212 9.512 2.101 
10 1 -7.058 5.831 -1.787 
11 1 0.445 -6.308 5.316 
12 1 9.508 -10.691 4.457 
13 1 -8.977 -4.582 -1.822 
14 1 -10.422 -6.988 5.099 
15 1 6.128 0.865 -10.400 
16 1 0.491 10.085 -7.611 
17 1 -3.580 -10.012 0.796 
18 1 -0.716 -9.447 -3.541 
19 1 -5.346 2.214 3.736 
20 1 -1.312 0.422 -3.343 
21 1 1.516 -1.154 -9.922 
22 1 -0.287 -7.374 -6.818 
23 1 6.482 6.085 -6.005 
24 1 10.113 7.027 -6.275 
25 1 -8.480 8.665 9.112 
26 1 4.536 9.960 -7.697 
27 1 -10.138 3.312 5.144 
28 1 -8.462 9.225 -6.013 
29 1 -1.860 2.980 -6.325 
30 1 -7.174 -2.479 5.208 
31 1 -5.109 1.132 -0.001 
32 1 1.518 6.759 2.906 
33 1 0.094 0.167 -6.868 
34 1 -9.501 5.162 9.540 
35 1 -0.440 -7.667 8.778 
36 1 -8.286 1.461 -10.673 
37 1 3.329 -3.986 8.180 
38 1 -1.923 -7.744 2.622 
39 1 -6.693 2.738 6.987 
40 1 -0.253 5.676 -9.270 
41 1 -1.457 -7.217 -1.113 
42 1 9.735 -10.715 -6.497 
43 1 10.121 -2.626 -1.518 
44 1 3.778 0.133 -7.619 
45 1 1.977 -10.615 -1.801 
46 1 -7.391 -9.934 7.253 
47 1 -6.039 -7.052 5.698 
48 1 3.970 -8.349 -0.011 
49 1 4.988 -0.723 7.437 
50 1 2.878 7.606 -9.407 
51 1 -2.457 7.305 3.736 
52 1 3.570 4.697 9.263 
53 1 5.854 -7.438 -7.747 
54 1 7.229 8.566 0.534 
55 1 3.865 -4.183 -9.409 
56 1 -6.988 -1.076 9.197 
57 1 6.892 8.120 4.008 
58 1 9.847 -0.528 -6.845 
59 1 2.384 -8.852 -8.774 
60 1 -1.714 0.655 -0.006 
61 1 10.280 6.818 3.036 
62 1 -9.519 -3.962 -7.573 
63 1 4.623 -8.886 6.540 
64 1 -6.715 -7.230 -0.581 
65 1 -6.027 5.473 8.949 
66 1 -9.592 9.919 -2.438 
67 1 8.116 1.037 5.418 
68 1 9.123 2.410 -3.352 
69 1 0.126 -5.159 -9.352 
70 1 -5.787 8.442 6.397 
71 1 9.408 0.695 2.128 
72 1 6.520 -9.297 2.600 
73 1 -6.796 10.544 0.037 
74 1 -7.707 -0.880 -7.604 
75 1 0.565 -6.289 1.712 
76 1 8.239 -10.427 -10.230 
77 1 -2.826 -5.155 0.933 
78 1 2.584 -6.494 -5.285 
79 1 5.156 -8.155 10.328 
80 1 -10.479 -2.706 5.036 
81 1 -1.595 -2.650 -8.379 
82 1 -5.127 8.499 2.503 
83 1 -4.048 -8.525 -3.266 
84 1 -4.050 -0.968 6.357 
85 1 10.643 8.382 -9.628 
86 1 -2.797 -5.551 -5.146 
87 1 -4.642 5.980 -7.213 
88 1 1.792 1.710 -3.434 
89 1 -2.791 -1.956 -5.312 
90 1 5.690 6.103 -2.119 
91 1 -9.937 -9.350 1.667 
92 1 0.366 -10.158 5.413 
93 1 -5.936 2.948 -7.615 
94 1 9.089 4.169 -7.492 
95 1 0.701 -9.554 1.097 
96 1 -8.300 2.948 -2.396 
97 1 -4.790 5.350 4.773 
98 1 -9.509 2.343 -5.767 
99 1 -6.089 9.581 -3.261 
100 1 3.927 -0.546 -4.091 
101 1 0.006 7.431 5.755 
102 1 -8.800 -6.202 2.039 
103 1 8.458 -5.024 -7.782 
104 1 -6.821 7.126 -9.380 
105 1 -6.793 -7.092 9.536 
106 1 5.825 -2.593 -6.202 
107 1 -0.135 -2.459 1.411 
108 1 7.499 7.607 -8.698 
109 1 -5.132 4.898 1.183 
110 1 0.024 4.063 8.052 
111 1 -0.404 -3.952 7.391 
112 1 9.147 9.548 7.994 
113 1 9.804 1.965 -9.902 
114 1 6.143 2.549 8.051 
115 1 -7.450 -7.487 -8.297 
116 1 3.611 -4.522 -0.759 
117 1 7.631 -2.211 4.145 
118 1 -5.236 -1.671 -2.991 
119 1 10.472 -7.718 -7.846 
120 1 -2.053 -3.807 4.245 
121 1 5.273 4.298 -9.345 
122 1 -7.448 5.142 -5.305 
123 1 -4.081 8.104 -0.594 
124 1 4.676 1.788 3.738 
125 1 1.963 -2.765 -6.257 
126 1 -8.188 -4.020 8.213 
127 1 -2.765 3.005 6.468 
128 1 8.853 7.783 -2.546 
129 1 -3.344 8.913 -8.361 
130 1 7.503 -2.472 -9.630 
131 1 -2.204 0.227 3.639 
132 1 -8.312 9.757 4.139 
133 1 5.716 2.224 -4.911 
134 1 -9.502 -9.868 -10.338 
135 1 8.067 -5.652 2.347 
136 1 0.325 -0.042 8.096 
137 1 1.011 3.367 -0.176 
138 1 -1.207 8.857 -2.091 
139 1 -3.847 -8.011 -8.471 
140 1 -1.291 10.002 9.254 
141 1 -4.626 0.841 -5.384 
142 1 -8.540 0.184 3.609 
143 1 -4.242 -5.263 -2.263 
144 1 -2.581 10.322 6.209 
145 1 -8.889 6.561 6.050 
146 1 -6.759 -5.478 -4.943 
147 1 -8.620 -1.022 -3.037 
148 1 0.644 4.163 4.777 
149 1 -6.237 -4.087 -8.847 
150 1 -2.809 -6.700 6.658 
151 1 4.601 3.296 -1.359 
152 1 -8.071 3.299 1.241 
153 1 2.117 -1.768 4.957 
154 1 -1.287 -9.525 -9.432 
155 1 -3.490 4.873 -10.185 
156 1 1.514 5.425 -2.965 
157 1 7.802 4.763 10.022 
158 1 -3.293 -1.542 9.845 
159 1 -9.161 4.726 -8.376 
160 1 -5.034 -4.403 7.838 
161 1 -5.818 -10.513 -9.724 
162 1 4.377 -5.117 4.373 
163 1 1.248 -4.185 -3.082 
164 1 6.557 7.988 9.376 
165 1 -3.622 6.175 -3.288 
166 1 -3.779 -5.689 10.410 
167 1 -2.297 3.371 2.348 
168 1 -0.943 6.101 0.614 
169 1 -3.798 -1.415 1.440 
170 1 -8.109 6.910 1.358 
171 1 1.610 -1.040 -1.275 
172 1 3.646 6.278 5.451 
173 1 -1.194 3.740 -2.969 
174 1 10.519 -3.457 10.337 
175 1 8.250 -1.688 7.387 
176 1 2.898 1.822 -10.714 
177 1 6.477 9.271 -4.508 
178 1 1.789 0.585 1.889 
179 1 -5.323 -9.720 3.877 
180 1 -1.724 -2.788 -2.064 
181 1 8.096 -8.114 8.352 
182 1 -5.694 -4.972 3.024 
183 1 6.261 1.112 0.830 
184 1 -0.829 7.010 -5.951 
185 1 10.524 0.425 -1.157 
186 1 -2.698 10.125 -5.354 
187 1 -3.727 -9.158 9.037 
188 1 7.709 4.063 3.788 
189 1 9.075 5.864 6.491 
190 1 2.831 -8.449 3.574 
191 1 -1.208 9.848 2.990 
192 1 -3.025 0.776 -8.815 
193 1 -6.850 -9.153 -5.730 
194 1 2.948 7.957 -5.142 
195 1 10.134 1.680 8.197 
196 1 -4.995 8.995 9.545 
197 1 -3.704 1.749 9.579 
198 1 -0.281 1.715 -10.255 
199 1 5.951 -2.560 -1.484 
200 1 4.192 -9.596 -4.923 
ITEM: TIMESTEP
4000
ITEM: NUMBER OF ATOMS
200
ITEM: BOX BOUNDS pp pp pp
-10.725124871596057 10.725124871596057
-10.725124871596057 10.725124871596057
-10.725124871596057 10.725124871596057
ITEM: ATOMS id type x y z
1 1 5.162 5.076 1.661 
2 1 2.195 7.476 -0.643 
3 1 1.458 3.350 -6.820 
4 1 -2.366 6.772 8.119 
5 1 -8.423 -1.966 0.769 
6 1 3.342 10.330 9.224 
7 1 4.257 -3.350 2.805 
8 1 0.878 7.047 9.247 
9 1 3.946 9.223 2.161 
10 1 -6.798 5.609 -1.554 
11 1 0.609 -6.354 5.182 
12 1 9.495 -10.298 4.367 
13 1 -8.488 -4.683 -2.409 
14 1 -10.002 -7.048 5.220 
15 1 5.912 1.399 -9.659 
16 1 0.277 9.625 -7.558 
17 1 -3.817 -9.339 0.644 
18 1 0.166 -8.988 -3.481 
19 1 -5.287 1.348 3.326 
20 1 -1.648 0.473 -3.390 
21 1 1.138 -1.933 -10.113 
22 1 -0.158 -8.051 -6.598 
23 1 5.900 5.472 -5.366 
24 1 9.243 7.702 -5.583 
25 1 -8.588 8.690 8.540 
26 1 4.871 9.993 -8.112 
27 1 -9.743 2.979 5.019 
28 1 -8.502 8.998 -6.859 
29 1 -2.117 2.741 -6.475 
30 1 -7.169 -1.812 6.079 
31 1 -5.808 0.868 -0.027 
32 1 1.450 6.771 2.623 
33 1 0.058 0.372 -7.138 
34 1 -8.948 4.228 8.181 
35 1 0.004 -7.957 9.171 
36 1 -7.459 2.091 -9.933 
37 1 3.046 -3.874 8.469 
38 1 -1.126 -8.198 3.099 
39 1 -6.650 2.511 6.575 
40 1 0.514 5.317 -9.299 
41 1 -1.150 -7.289 -0.933 
42 1 9.651 -10.275 -6.549 
43 1 10.563 -2.406 -1.520 
44 1 3.480 0.372 -7.495 
45 1 3.282 10.575 -2.346 
46 1 -7.614 -10.036 6.957 
47 1 -6.744 -6.577 5.796 
48 1 4.067 -8.250 0.442 
49 1 4.420 -0.788 8.755 
50 1 3.222 7.506 -9.490 
51 1 -2.765 7.040 3.833 
52 1 3.549 4.886 8.944 
53 1 6.340 -7.864 -7.966 
54 1 7.024 8.053 0.678 
55 1 3.743 -3.905 -9.444 
56 1 -6.920 -0.518 9.238 
57 1 7.136 7.861 4.259 
58 1 9.475 -0.264 -5.335 
59 1 2.713 -8.560 -8.786 
60 1 -1.081 1.106 0.127 
61 1 9.812 6.810 3.047 
62 1 -10.009 -3.586 -6.793 
63 1 5.106 -9.566 5.676 
64 1 -6.607 -7.308 0.594 
65 1 -5.809 5.641 8.343 
66 1 -9.497 10.387 -2.884 
67 1 7.813 1.180 5.755 
68 1 8.584 2.676 -3.870 
69 1 0.387 -5.842 -10.034 
70 1 -5.683 8.396 5.612 
71 1 9.494 0.768 2.596 
72 1 7.090 -9.326 1.485 
73 1 -7.083 10.496 -0.272 
74 1 -7.766 -1.013 -7.368 
75 1 0.962 -6.074 2.002 
76 1 7.385 -10.220 -10.298 
77 1 -2.598 -4.760 1.337 
78 1 2.718 -6.216 -5.042 
79 1 4.977 -7.603 9.221 
80 1 -10.465 -2.488 4.658 
81 1 -1.274 -2.831 -7.815 
82 1 -5.541 8.436 2.163 
83 1 -3.964 -8.682 -2.728 
84 1 -3.265 -0.865 6.674 
85 1 10.566 8.398 -10.118 
86 1 -2.505 -5.286 -5.066 
87 1 -4.693 5.982 -7.205 
88 1 1.793 1.152 -3.944 
89 1 -2.968 -1.650 -5.626 
90 1 5.531 7.115 -2.056 
91 1 -9.763 -9.076 1.745 
92 1 0.554 -10.371 5.695 
93 1 -5.444 2.901 -7.306 
94 1 8.627 4.620 -7.591 
95 1 0.919 -9.133 0.610 
96 1 -8.869 3.079 -2.543 
97 1 -5.416 5.440 4.620 
98 1 -9.339 2.191 -6.416 
99 1 -5.556 9.518 -3.348 
100 1 4.473 -1.012 -4.107 
101 1 0.048 6.706 5.541 
102 1 -8.917 -5.574 2.140 
103 1 8.384 -4.931 -7.259 
104 1 -6.864 7.583 -9.909 
105 1 -6.837 -7.402 9.329 
106 1 5.758 -2.478 -6.747 
107 1 0.439 -2.336 2.012 
108 1 7.633 7.820 -8.890 
109 1 -4.782 4.962 1.152 
110 1 0.153 3.930 8.725 
111 1 -0.682 -4.327 7.719 
112 1 9.881 9.227 7.722 
113 1 9.021 2.217 -9.626 
114 1 5.975 2.047 8.142 
115 1 -8.164 -7.740 -8.479 
116 1 3.950 -5.149 -0.603 
117 1 7.564 -2.581 4.011 
118 1 -5.003 -1.799 -3.037 
119 1 10.048 -7.042 -9.008 
120 1 -2.131 -3.634 4.257 
121 1 5.350 4.844 -9.327 
122 1 -7.439 4.551 -5.262 
123 1 -3.921 7.566 -0.510 
124 1 4.978 1.660 3.861 
125 1 1.915 -2.373 -5.919 
126 1 -9.121 -4.810 7.719 
127 1 -2.589 3.311 6.162 
128 1 8.727 8.446 -2.170 
129 1 -3.066 8.445 -9.345 
130 1 6.713 -3.090 -10.156 
131 1 -0.822 -0.470 4.248 
132 1 -8.368 9.743 3.504 
133 1 6.448 1.804 -6.232 
134 1 -10.253 -9.415 10.302 
135 1 8.173 -5.256 1.949 
136 1 -0.749 0.464 8.325 
137 1 0.980 4.387 0.022 
138 1 -0.889 8.912 -1.629 
139 1 -3.997 -7.945 -7.087 
140 1 -0.518 10.066 8.612 
141 1 -5.310 1.544 -4.517 
142 1 -8.657 -0.028 3.804 
143 1 -4.264 -5.164 -2.574 
144 1 -3.120 10.441 5.667 
145 1 -9.060 6.357 5.130 
146 1 -6.386 -5.791 -6.098 
147 1 -8.873 -0.266 -3.677 
148 1 0.925 3.476 5.187 
149 1 -6.051 -3.155 -9.432 
150 1 -2.847 -6.627 5.872 
151 1 3.852 3.080 -1.178 
152 1 -8.419 3.099 1.419 
153 1 2.136 -1.513 5.440 
154 1 -1.048 -9.169 -9.632 
155 1 -3.803 5.335 -10.701 
156 1 1.931 5.455 -3.658 
157 1 7.799 4.760 9.844 
158 1 -3.817 -1.777 10.065 
159 1 -8.759 5.123 -8.119 
160 1 -4.728 -4.213 8.019 
161 1 -6.193 -10.379 -9.826 
162 1 4.163 -5.164 5.512 
163 1 1.058 -4.353 -2.989 
164 1 6.442 7.949 8.535 
165 1 -4.285 5.896 -3.649 
166 1 -4.406 -6.223 -10.210 
167 1 -1.991 3.395 2.608 
168 1 -1.279 6.463 0.738 
169 1 -3.139 -1.570 1.015 
170 1 -8.126 6.616 1.987 
171 1 1.562 -1.071 -1.131 
172 1 4.524 5.876 5.680 
173 1 -2.034 3.725 -2.470 
174 1 10.520 -3.350 9.946 
175 1 8.443 -2.666 7.553 
176 1 2.734 1.951 -10.455 
177 1 6.148 9.610 -4.936 
178 1 2.046 0.523 2.311 
179 1 -5.726 -9.549 3.566 
180 1 -1.993 -2.946 -2.058 
181 1 8.460 -8.828 7.585 
182 1 -5.724 -4.153 2.996 
183 1 6.147 1.359 0.305 
184 1 -1.493 6.294 -6.909 
185 1 10.689 0.817 -0.779 
186 1 -3.049 10.048 -5.764 
187 1 -3.471 -9.064 9.118 
188 1 7.579 4.560 4.032 
189 1 9.215 6.452 6.298 
190 1 2.854 -8.629 3.606 
191 1 -0.495 9.549 2.464 
192 1 -2.864 0.379 -8.895 
193 1 -6.684 -9.793 -5.534 
194 1 3.335 8.224 -5.241 
195 1 9.739 1.865 8.490 
196 1 -4.714 8.963 9.069 
197 1 -3.881 1.742 9.184 
198 1 -0.393 2.040 -10.236 
199 1 6.245 -2.268 -0.785 
200 1 3.762 -9.347 -5.276 
ITEM: TIMESTEP
5000
ITEM: NUMBER OF ATOMS
200
ITEM: BOX BOUNDS pp pp pp
-10.725124871596057 10.725124871596057
-10.725124871596057 10.725124871596057
-10.725124871596057 10.725124871596057
ITEM: ATOMS id type x y z
1 1 5.331 5.742 1.365 
2 1 2.942 6.872 -1.392 
3 1 1.748 3.531 -6.463 
4 1 -1.778 6.416 8.055 
5 1 -7.904 -2.242 0.621 
6 1 3.357 10.721 7.989 
7 1 4.343 -2.796 2.565 
8 1 1.994 7.167 8.534 
9 1 3.572 8.745 1.831 
10 1 -7.454 6.532 -1.258 
11 1 1.474 -6.758 6.134 
12 1 9.564 -10.166 5.074 
13 1 -8.368 -5.903 -3.035 
14 1 10.610 -6.587 4.811 
15 1 6.294 0.365 -9.899 
16 1 0.539 9.118 -8.172 
17 1 -3.356 -10.133 0.979 
18 1 0.626 -9.273 -3.671 
19 1 -4.751 1.774 3.349 
20 1 -1.429 0.251 -3.255 
21 1 0.918 -2.095 -9.990 
22 1 0.080 -7.257 -6.780 
23 1 5.595 5.680 -5.411 
24 1 9.851 8.331 -5.591 
25 1 -8.662 8.180 9.410 
26 1 4.768 10.459 -8.254 
27 1 -9.155 2.922 5.028 
28 1 -7.728 8.298 -5.884 
29 1 -1.596 2.452 -5.966 
30 1 -7.106 -0.611 5.222 
31 1 -5.989 0.950 -0.590 
32 1 0.970 6.418 2.647 
33 1 0.400 0.236 -7.249 
34 1 -8.781 3.877 9.441 
35 1 0.807 -8.176 9.443 
36 1 -7.964 1.841 -9.698 
37 1 2.978 -3.580 8.573 
38 1 -1.086 -7.641 3.131 
39 1 -6.448 2.414 7.026 
40 1 0.663 5.307 -9.403 
41 1 -0.936 -6.576 -1.757 
42 1 10.461 -9.630 -6.070 
43 1 10.229 -3.033 -1.325 
44 1 3.715 0.052 -7.419 
45 1 3.047 10.103 -2.485 
46 1 -7.988 -9.566 7.636 
47 1 -6.739 -6.708 6.197 
48 1 4.548 -8.479 0.678 
49 1 4.137 -0.698 8.642 
50 1 3.243 7.183 -9.365 
51 1 -2.673 7.254 4.373 
52 1 4.080 4.873 8.903 
53 1 5.502 -7.022 -7.737 
54 1 7.497 8.446 1.031 
55 1 3.607 -4.419 -9.438 
56 1 -6.643 -0.779 8.869 
57 1 6.131 7.991 4.346 
58 1 9.319 -0.199 -5.103 
59 1 2.245 -8.329 -8.820 
60 1 -0.671 1.533 -0.443 
61 1 9.691 7.437 3.598 
62 1 -9.804 -3.006 -7.137 
63 1 5.947 -10.083 5.076 
64 1 -6.952 -8.069 0.447 
65 1 -5.242 5.839 8.534 
66 1 -9.385 -10.592 -2.717 
67 1 8.143 1.099 5.684 
68 1 8.952 3.580 -3.890 
69 1 0.177 -5.348 -10.618 
70 1 -6.052 8.857 5.785 
71 1 9.101 0.905 2.390 
72 1 8.110 -8.859 1.770 
73 1 -7.265 9.896 -0.449 
74 1 -7.168 -0.375 -6.741 
75 1 1.566 -5.439 1.810 
76 1 7.186 -10.657 10.645 
77 1 -2.863 -4.556 1.531 
78 1 2.963 -6.081 -5.020 
79 1 5.476 -7.897 9.251 
80 1 -9.663 -2.932 4.243 
81 1 -1.158 -2.885 -7.622 
82 1 -5.240 8.317 2.351 
83 1 -4.174 -8.713 -2.463 
84 1 -3.565 -1.369 6.343 
85 1 10.513 8.126 -9.644 
86 1 -1.605 -4.355 -4.707 
87 1 -4.510 5.622 -7.466 
88 1 1.934 1.383 -3.820 
89 1 -3.187 -1.383 -5.779 
90 1 5.921 7.051 -1.722 
91 1 -9.871 -9.581 1.408 
92 1 1.685 10.686 5.342 
93 1 -4.996 2.513 -7.674 
94 1 9.075 4.931 -7.687 
95 1 0.942 -8.948 0.528 
96 1 -8.137 3.079 -1.912 
97 1 -6.143 5.406 4.434 
98 1 -9.534 2.325 -5.834 
99 1 -5.487 9.786 -3.427 
100 1 4.726 -1.346 -4.097 
101 1 0.215 7.372 5.645 
102 1 -9.083 -5.635 1.868 
103 1 8.775 -5.700 -5.987 
104 1 -6.212 7.691 -9.196 
105 1 -6.784 -7.377 9.731 
106 1 5.669 -2.655 -6.916 
107 1 0.120 -1.929 1.573 
108 1 7.210 7.628 -9.178 
109 1 -4.885 4.610 0.604 
110 1 0.537 3.862 7.931 
111 1 -0.505 -4.676 7.935 
112 1 9.515 8.991 8.504 
113 1 9.411 2.135 -9.299 
114 1 6.183 2.146 8.690 
115 1 -8.767 -7.498 -7.848 
116 1 3.911 -4.939 -0.304 
117 1 7.380 -2.129 3.791 
118 1 -5.911 -1.491 -2.737 
119 1 9.013 -7.200 -9.106 
120 1 -2.093 -3.865 4.854 
121 1 5.382 4.768 -8.952 
122 1 -7.366 5.080 -4.427 
123 1 -3.901 8.186 -0.875 
124 1 5.410 1.521 3.859 
125 1 2.064 -2.390 -6.176 
126 1 -8.942 -4.894 7.979 
127 1 -3.184 4.053 6.346 
128 1 9.221 8.921 -2.194 
129 1 -3.096 8.373 -9.741 
130 1 7.087 -3.824 -9.520 
131 1 -1.110 -0.351 4.638 
132 1 -8.782 9.229 4.168 
133 1 6.812 1.815 -5.934 
134 1 -9.751 -9.664 -10.541 
135 1 7.756 -5.306 2.773 
136 1 -0.728 0.242 7.908 
137 1 0.687 4.340 -0.442 
138 1 -0.105 8.530 -1.961 
139 1 -3.397 -7.719 -6.550 
140 1 -0.607 10.267 8.115 
141 1 -5.802 1.544 -4.220 
142 1 -8.716 0.734 2.778 
143 1 -4.984 -5.458 -3.163 
144 1 -2.446 10.648 5.306 
145 1 -9.199 6.212 6.856 
146 1 -6.252 -5.654 -6.277 
147 1 -9.016 -0.136 -2.923 
148 1 0.600 2.856 4.787 
149 1 -5.980 -2.765 -9.196 
150 1 -3.066 -7.043 6.526 
151 1 3.591 3.169 -1.380 
152 1 -9.455 3.450 1.169 
153 1 2.059 -2.789 5.100 
154 1 -1.153 -9.206 -9.050 
155 1 -3.569 4.944 -10.310 
156 1 0.554 5.194 -4.076 
157 1 7.574 4.855 9.688 
158 1 -3.220 -1.645 9.604 
159 1 -9.204 5.362 -8.403 
160 1 -5.407 -3.987 7.987 
161 1 -6.140 -10.425 -9.132 
162 1 5.091 -4.896 5.811 
163 1 1.259 -3.972 -2.513 
164 1 6.248 8.385 7.716 
165 1 -4.199 6.174 -3.828 
166 1 -3.896 -6.782 -9.721 
167 1 -1.978 3.399 2.126 
168 1 -1.424 6.431 0.321 
169 1 -2.962 -0.481 1.174 
170 1 -8.793 6.516 2.105 
171 1 2.004 -0.712 -1.003 
172 1 4.521 5.133 4.804 
173 1 -2.588 4.013 -2.185 
174 1 9.944 -3.323 10.206 
175 1 7.644 -1.372 8.316 
176 1 3.427 1.944 -10.660 
177 1 6.331 9.583 -5.025 
178 1 2.499 1.258 2.417 
179 1 -5.912 -9.443 3.434 
180 1 -2.099 -2.947 -1.854 
181 1 9.045 -8.699 7.837 
182 1 -5.078 -3.758 3.599 
183 1 5.969 1.253 0.155 
184 1 -1.445 6.539 -6.722 
185 1 10.102 1.164 -1.129 
186 1 -3.981 9.497 -6.644 
187 1 -3.766 -9.371 9.133 
188 1 7.839 4.523 3.668 
189 1 8.457 6.093 6.588 
190 1 3.236 -8.428 3.647 
191 1 -0.776 9.297 2.611 
192 1 -2.629 0.244 -9.370 
193 1 -7.001 -9.123 -5.031 
194 1 2.874 8.080 -6.063 
195 1 9.775 2.566 8.280 
196 1 -5.005 9.063 9.087 
197 1 -3.841 1.775 9.362 
198 1 0.099 2.061 -10.339 
199 1 5.122 -2.032 -1.014 
200 1 4.037 -9.452 -5.291 
ITEM: TIMESTEP
6000
ITEM: NUMBER OF ATOMS
200
ITEM: BOX BOUNDS pp pp pp
-10.725124871596057 10.725124871596057
-10.725124871596057 10.725124871596057
-10.725124871596057 10.725124871596057
ITEM: ATOMS id type x y z
1 1 5.307 5.530 1.115 
2 1 2.455 6.791 -1.398 
3 1 1.953 4.293 -6.830 
4 1 -0.777 6.042 8.454 
5 1 -7.902 -2.690 0.999 
6 1 3.641 -10.537 8.741 
7 1 4.929 -2.432 2.573 
8 1 2.510 7.808 7.976 
9 1 4.520 10.405 2.077 
10 1 -7.049 6.245 -1.231 
11 1 1.317 -6.139 6.256 
12 1 9.359 -10.315 5.201 
13 1 -8.469 -5.383 -2.346 
14 1 9.612 -6.363 4.541 
15 1 5.896 0.069 -10.104 
16 1 0.492 8.996 -7.992 
17 1 -2.756 -9.835 1.320 
18 1 0.419 -8.965 -4.483 
19 1 -5.287 2.095 3.138 
20 1 -1.713 0.366 -3.434 
21 1 0.824 -1.513 10.065 
22 1 0.578 -6.650 -6.963 
23 1 5.995 5.768 -5.361 
24 1 10.110 8.001 -5.943 
25 1 -8.717 8.580 9.182 
26 1 4.934 10.320 -8.248 
27 1 -9.347 3.218 4.856 
28 1 -8.073 8.474 -6.142 
29 1 -1.376 2.944 -6.298 
30 1 -7.293 -0.446 5.324 
31 1 -6.000 0.993 -0.440 
32 1 2.165 7.248 2.466 
33 1 0.761 0.696 -7.654 
34 1 -8.923 4.184 9.943 
35 1 1.161 -8.324 8.774 
36 1 -8.083 1.739 -9.667 
37 1 3.022 -3.634 8.811 
38 1 -0.982 -7.242 2.716 
39 1 -6.986 2.883 7.162 
40 1 0.400 5.336 -9.538 
41 1 -1.133 -6.547 -2.117 
42 1 9.900 -9.879 -5.639 
43 1 10.092 -2.931 -0.810 
44 1 4.136 1.022 -7.419 
45 1 3.950 9.941 -2.520 
46 1 -8.348 -10.139 7.761 
47 1 -6.403 -5.968 5.904 
48 1 5.116 -8.050 0.614 
49 1 3.833 -0.285 8.437 
50 1 3.412 7.564 -10.192 
51 1 -2.626 7.257 4.253 
52 1 4.660 5.171 8.562 
53 1 6.105 -6.716 -7.592 
54 1 7.477 9.096 0.761 
55 1 3.293 -4.420 -9.420 
56 1 -6.678 -1.118 8.627 
57 1 6.427 7.949 4.189 
58 1 9.441 -1.335 -4.953 
59 1 2.730 -8.291 -9.195 
60 1 -0.848 1.216 -0.212 
61 1 9.668 7.696 2.956 
62 1 -9.376 -2.946 -7.297 
63 1 5.889 -10.090 5.404 
64 1 -6.704 -7.419 -0.158 
65 1 -5.095 5.913 8.334 
66 1 -9.201 -10.018 -3.314 
67 1 9.555 0.451 5.995 
68 1 9.866 4.091 -3.726 
69 1 0.369 -5.386 -10.565 
70 1 -5.880 8.377 5.766 
71 1 9.503 0.510 2.444 
72 1 8.436 -8.299 0.947 
73 1 -7.107 9.497 -0.037 
74 1 -7.509 -0.008 -6.442 
75 1 1.921 -4.969 2.652 
76 1 7.831 -10.704 10.458 
77 1 -2.176 -4.622 1.095 
78 1 3.428 -5.196 -5.727 
79 1 5.945 -7.506 8.706 
80 1 -9.825 -3.078 3.680 
81 1 -0.464 -3.188 -7.820 
82 1 -5.221 8.987 2.580 
83 1 -3.219 -9.110 -2.194 
84 1 -3.771 -0.927 5.910 
85 1 10.297 8.314 -9.887 
86 1 -1.822 -4.846 -4.826 
87 1 -4.802 4.914 -7.262 
88 1 2.028 1.499 -3.383 
89 1 -3.324 -1.451 -6.591 
90 1 6.094 6.860 -1.906 
91 1 -9.450 -9.218 1.418 
92 1 2.070 -9.731 4.979 
93 1 -4.440 1.542 -8.021 
94 1 8.863 4.829 -7.025 
95 1 1.682 -9.178 1.412 
96 1 -8.557 3.267 -2.149 
97 1 -6.298 5.219 4.493 
98 1 -10.110 2.552 -6.045 
99 1 -5.735 9.651 -3.190 
100 1 5.936 -1.139 -4.081 
101 1 0.697 7.638 5.414 
102 1 -9.868 -5.779 0.811 
103 1 9.965 -6.080 -5.957 
104 1 -6.187 7.459 -9.340 
105 1 -6.719 -7.942 9.510 
106 1 5.888 -2.921 -7.530 
107 1 -0.234 -2.105 1.487 
108 1 7.320 7.563 -8.637 
109 1 -4.843 4.603 0.892 
110 1 1.638 3.368 8.302 
111 1 -1.145 -4.067 8.187 
112 1 9.237 9.025 8.123 
113 1 9.117 1.813 -8.879 
114 1 6.626 2.311 8.045 
115 1 -8.656 -7.873 -7.274 
116 1 3.805 -4.797 -0.090 
117 1 8.080 -2.330 4.567 
118 1 -5.636 -1.552 -3.216 
119 1 8.694 -7.124 -9.857 
120 1 -1.949 -3.594 4.289 
121 1 5.762 4.416 -8.799 
122 1 -7.728 4.947 -5.405 
123 1 -3.392 8.685 -0.695 
124 1 4.470 2.155 4.702 
125 1 2.269 -1.780 -5.209 
126 1 -9.148 -4.283 7.224 
127 1 -2.460 3.855 5.934 
128 1 9.941 8.234 -2.228 
129 1 -3.207 9.041 -10.598 
130 1 6.339 -4.122 10.237 
131 1 -1.037 -0.029 4.277 
132 1 -8.633 9.232 3.837 
133 1 7.057 1.880 -5.515 
134 1 -9.136 -10.169 -9.969 
135 1 7.289 -4.914 1.805 
136 1 -0.985 0.583 8.347 
137 1 0.889 4.069 -0.262 
138 1 -0.245 8.221 -2.394 
139 1 -3.827 -7.602 -6.128 
140 1 -0.739 10.155 8.090 
141 1 -5.753 1.278 -4.232 
142 1 -8.586 0.569 2.451 
143 1 -4.811 -5.856 -3.207 
144 1 -2.862 -10.010 4.866 
145 1 -9.007 6.628 6.571 
146 1 -6.505 -5.469 -5.951 
147 1 -8.913 0.013 -3.086 
148 1 0.743 2.886 4.986 
149 1 -6.174 -2.441 -9.345 
150 1 -2.414 -7.325 6.819 
151 1 3.760 2.826 -0.773 
152 1 -9.060 3.583 1.049 
153 1 1.825 -1.554 5.511 
154 1 -1.326 -8.862 -9.284 
155 1 -2.690 4.919 -10.092 
156 1 0.138 4.810 -3.981 
157 1 7.744 5.195 9.965 
158 1 -3.409 -2.358 9.649 
159 1 -9.144 5.880 -8.748 
160 1 -5.944 -4.794 8.843 
161 1 -6.280 -10.092 -7.953 
162 1 5.270 -4.827 6.500 
163 1 1.010 -4.099 -3.306 
164 1 5.476 8.583 7.575 
165 1 -3.695 6.390 -3.608 
166 1 -5.252 -6.205 -9.441 
167 1 -2.174 3.464 2.697 
168 1 -1.638 6.079 0.833 
169 1 -3.397 -0.221 1.071 
170 1 -9.010 6.662 1.463 
171 1 1.196 -1.808 -1.388 
172 1 4.370 5.938 5.086 
173 1 -2.471 3.908 -1.718 
174 1 10.010 -3.889 -10.707 
175 1 7.896 -1.387 8.386 
176 1 3.641 2.438 10.723 
177 1 7.016 9.786 -5.133 
178 1 2.175 1.809 2.259 
179 1 -6.828 -9.446 4.482 
180 1 -2.282 -2.638 -1.544 
181 1 9.337 -8.028 8.157 
182 1 -4.892 -3.427 3.589 
183 1 6.376 0.826 0.923 
184 1 -1.193 6.629 -6.481 
185 1 8.854 1.502 -0.979 
186 1 -3.710 9.698 -6.014 
187 1 -3.370 -9.209 9.216 
188 1 7.915 3.681 2.838 
189 1 8.530 5.839 6.556 
190 1 4.285 -7.393 4.353 
191 1 -0.566 9.379 2.455 
192 1 -1.922 -0.350 -9.595 
193 1 -6.599 -8.280 -4.309 
194 1 3.344 8.117 -6.360 
195 1 10.347 1.784 8.996 
196 1 -5.585 9.707 8.637 
197 1 -3.679 1.842 9.662 
198 1 0.352 2.431 -10.313 
199 1 5.158 -1.393 -0.874 
200 1 4.083 -9.119 -5.184 
ITEM: TIMESTEP
7000
ITEM: NUMBER OF ATOMS
200
ITEM: BOX BOUNDS pp pp pp
-10.725124871596057 10.725124871596057
-10.725124871596057 10.725124871596057
-10.725124871596057 10.725124871596057
ITEM: ATOMS id type x y z
1 1 5.779 5.380 1.437 
2 1 2.640 6.808 -1.520 
3 1 2.339 4.752 -7.114 
4 1 -0.549 6.243 7.763 
5 1 -7.538 -2.785 0.896 
6 1 3.519 -9.779 8.246 
7 1 4.700 -1.911 2.897 
8 1 2.264 7.755 8.379 
9 1 3.816 9.841 1.593 
10 1 -7.032 6.320 -1.587 
11 1 0.362 -5.846 5.062 
12 1 8.955 10.717 5.229 
13 1 -8.515 -5.544 -2.416 
14 1 9.975 -5.617 5.078 
15 1 5.960 0.079 -10.311 
16 1 0.423 9.240 -8.982 
17 1 -3.723 -9.064 1.327 
18 1 0.899 -9.759 -4.608 
19 1 -6.140 2.070 3.191 
20 1 -1.193 -0.140 -3.865 
21 1 1.337 -1.132 -10.278 
22 1 0.175 -6.767 -6.649 
23 1 5.611 6.001 -5.336 
24 1 9.574 8.051 -6.102 
25 1 -8.270 7.989 10.177 
26 1 4.755 10.211 -7.892 
27 1 -8.984 3.891 4.591 
28 1 -8.500 8.755 -6.404 
29 1 -2.216 2.826 -5.726 
30 1 -7.129 -0.807 5.663 
31 1 -6.266 1.518 -0.195 
32 1 2.228 6.478 1.917 
33 1 0.266 0.491 -7.225 
34 1 -9.365 4.387 8.941 
35 1 0.493 -7.868 8.855 
36 1 -8.959 1.548 -9.655 
37 1 2.929 -3.870 8.922 
38 1 -1.119 -7.197 2.504 
39 1 -6.593 3.010 7.233 
40 1 0.311 6.019 -10.171 
41 1 -1.162 -6.985 -2.481 
42 1 8.285 -9.778 -5.645 
43 1 10.189 -3.357 -0.923 
44 1 3.564 1.480 -7.410 
45 1 3.296 10.366 -3.124 
46 1 -8.338 -10.259 7.158 
47 1 -5.809 -5.849 5.411 
48 1 3.960 -7.800 -0.456 
49 1 3.174 -0.912 8.175 
50 1 3.436 7.625 -9.484 
51 1 -2.664 6.793 4.672 
52 1 4.426 4.558 8.057 
53 1 7.033 -6.314 -7.470 
54 1 7.276 9.291 0.399 
55 1 3.569 -3.608 -9.427 
56 1 -7.000 0.023 8.968 
57 1 6.323 8.275 3.941 
58 1 9.841 -1.500 -4.565 
59 1 2.596 -7.826 -9.603 
60 1 -1.000 1.021 0.103 
61 1 9.420 6.435 2.732 
62 1 -9.370 -3.199 -7.518 
63 1 5.879 -10.096 5.677 
64 1 -6.587 -7.396 -0.109 
65 1 -5.127 6.225 8.839 
66 1 -8.950 -9.213 -2.295 
67 1 8.796 0.558 5.112 
68 1 9.280 4.197 -3.863 
69 1 0.298 -5.210 -10.646 
70 1 -5.863 8.497 6.146 
71 1 9.640 0.964 2.114 
72 1 8.300 -8.367 -0.065 
73 1 -7.633 10.124 0.503 
74 1 -7.367 0.298 -6.327 
75 1 2.008 -5.007 2.152 
76 1 8.177 10.675 -10.143 
77 1 -3.833 -5.220 1.691 
78 1 3.337 -4.896 -5.805 
79 1 5.976 -7.602 9.768 
80 1 -9.404 -2.961 3.849 
81 1 -0.898 -3.103 -7.484 
82 1 -4.799 9.212 2.290 
83 1 -4.128 -8.834 -2.401 
84 1 -3.700 -0.926 6.295 
85 1 10.345 7.678 -9.158 
86 1 -1.843 -4.218 -4.569 
87 1 -4.404 4.795 -7.431 
88 1 3.045 2.265 -4.127 
89 1 -3.971 -1.178 -5.760 
90 1 6.875 6.658 -2.065 
91 1 -9.886 -9.846 1.841 
92 1 1.959 -10.328 4.601 
93 1 -4.830 1.498 -8.033 
94 1 8.995 4.813 -7.206 
95 1 1.345 -10.027 -0.771 
96 1 -8.592 3.281 -2.142 
97 1 -5.309 5.104 5.178 
98 1 -9.872 2.662 -5.667 
99 1 -6.149 9.903 -3.464 
100 1 5.918 -0.685 -4.713 
101 1 0.722 7.794 5.072 
102 1 -9.847 -6.628 0.513 
103 1 10.181 -5.499 -5.604 
104 1 -5.650 7.756 -8.811 
105 1 -7.829 -7.996 9.552 
106 1 5.482 -2.997 -6.958 
107 1 0.174 -2.184 1.490 
108 1 7.283 8.108 -8.167 
109 1 -5.031 4.817 0.976 
110 1 1.097 3.336 8.072 
111 1 -1.062 -3.979 7.738 
112 1 9.403 8.492 8.198 
113 1 9.212 1.131 -9.378 
114 1 6.094 1.455 7.680 
115 1 -8.198 -7.400 -7.446 
116 1 4.495 -4.218 -0.329 
117 1 7.910 -2.890 4.667 
118 1 -5.718 -1.986 -2.630 
119 1 9.727 -7.321 -9.518 
120 1 -2.023 -3.971 4.043 
121 1 5.658 4.904 -8.573 
122 1 -7.299 4.944 -5.110 
123 1 -3.717 9.264 -0.950 
124 1 4.591 2.280 4.824 
125 1 2.923 -1.316 -4.935 
126 1 -9.141 -3.999 7.180 
127 1 -2.138 3.184 6.394 
128 1 10.364 7.383 -2.751 
129 1 -2.758 8.892 10.367 
130 1 6.263 -4.350 10.537 
131 1 -1.321 -0.019 3.730 
132 1 -9.722 9.162 3.962 
133 1 6.487 2.458 -5.404 
134 1 -9.589 -10.024 -9.391 
135 1 7.607 -4.890 1.949 
136 1 -0.572 0.162 8.144 
137 1 1.651 3.779 -0.942 
138 1 -0.817 8.063 -2.745 
139 1 -3.882 -6.950 -6.284 
140 1 -1.018 10.317 7.862 
141 1 -4.538 1.617 -3.500 
142 1 -8.490 0.612 2.206 
143 1 -4.110 -5.083 -1.935 
144 1 -2.669 -9.732 4.556 
145 1 -9.449 6.932 6.691 
146 1 -6.521 -3.886 -6.046 
147 1 -8.516 0.153 -2.840 
148 1 1.021 3.076 4.634 
149 1 -6.061 -2.062 -9.168 
150 1 -2.698 -6.687 6.965 
151 1 4.600 2.560 -1.367 
152 1 -9.698 3.604 0.949 
153 1 1.061 -1.930 5.379 
154 1 -1.655 -9.407 -8.961 
155 1 -3.170 5.277 -10.200 
156 1 0.126 4.776 -4.218 
157 1 7.653 5.957 9.749 
158 1 -3.620 -2.461 9.249 
159 1 -8.927 5.079 -8.222 
160 1 -6.309 -4.589 9.233 
161 1 -6.086 10.594 -7.280 
162 1 6.339 -5.122 6.944 
163 1 1.283 -4.082 -3.004 
164 1 5.440 8.043 7.602 
165 1 -4.177 6.860 -3.283 
166 1 -5.152 -6.434 -9.381 
167 1 -2.045 3.443 2.898 
168 1 -1.515 6.335 0.167 
169 1 -3.954 -0.348 1.503 
170 1 -8.281 6.408 1.971 
171 1 1.438 -1.087 -1.971 
172 1 4.023 5.883 5.323 
173 1 -2.350 3.805 -2.007 
174 1 -10.508 -2.777 -10.570 
175 1 7.902 -2.052 8.507 
176 1 3.747 3.042 -10.330 
177 1 6.498 8.909 -4.569 
178 1 2.956 1.249 1.638 
179 1 -7.624 -9.021 4.381 
180 1 -2.232 -2.304 -1.118 
181 1 9.260 -7.649 8.444 
182 1 -5.509 -3.301 3.608 
183 1 6.258 0.757 1.698 
184 1 -1.092 6.495 -6.920 
185 1 8.277 2.788 -0.388 
186 1 -2.222 10.151 -5.858 
187 1 -3.630 -9.051 9.640 
188 1 7.802 3.412 3.793 
189 1 8.624 5.802 6.557 
190 1 4.155 -7.361 3.100 
191 1 -1.140 9.434 1.647 
192 1 -2.281 -0.777 -9.175 
193 1 -6.825 -8.016 -4.538 
194 1 2.272 7.879 -5.795 
195 1 10.415 1.768 8.897 
196 1 -5.772 10.005 9.293 
197 1 -4.253 2.033 10.112 
198 1 -0.349 2.357 -10.349 
199 1 5.864 -1.536 -0.945 
200 1 4.229 -8.184 -5.896 
ITEM: TIMESTEP
8000
ITEM: NUMBER OF ATOMS
200
ITEM: BOX BOUNDS pp pp pp
-10.725124871596057 10.725124871596057
-10.725124871596057 10.725124871596057
-10.725124871596057 10.725124871596057
ITEM: ATOMS id type x y z
1 1 5.922 6.031 1.607 
2 1 2.618 6.560 -2.222 
3 1 2.773 5.066 -7.259 
4 1 -0.808 5.907 6.974 
5 1 -7.912 -2.742 0.493 
6 1 3.230 -10.430 7.566 
7 1 4.124 -2.126 3.288 
8 1 2.671 7.724 8.554 
9 1 4.312 10.684 1.464 
10 1 -6.785 7.189 -1.499 
11 1 0.723 -5.867 5.575 
12 1 9.281 -10.025 5.097 
13 1 -8.444 -5.654 -2.910 
14 1 10.319 -5.501 4.838 
15 1 6.107 0.195 -10.287 
16 1 0.714 9.509 -8.321 
17 1 -3.427 -8.853 1.716 
18 1 1.072 -10.324 -5.070 
19 1 -5.980 1.659 3.336 
20 1 -1.498 -0.156 -3.339 
21 1 1.876 -0.268 -10.102 
22 1 0.337 -6.705 -6.777 
23 1 5.820 6.154 -5.328 
24 1 9.765 7.480 -6.027 
25 1 -8.483 9.099 -10.680 
26 1 5.008 10.724 -7.942 
27 1 -9.555 3.902 4.695 
28 1 -8.088 8.578 -6.435 
29 1 -2.184 2.453 -5.772 
30 1 -8.084 0.478 5.471 
31 1 -6.803 1.934 -0.386 
32 1 2.285 6.189 1.773 
33 1 0.113 0.606 -6.999 
34 1 -8.669 4.566 9.540 
35 1 0.838 -7.408 8.761 
36 1 -8.624 1.522 -9.920 
37 1 2.906 -4.261 8.167 
38 1 -0.700 -7.543 2.584 
39 1 -6.278 2.884 7.405 
40 1 0.708 5.680 -10.358 
41 1 -0.303 -6.856 -2.588 
42 1 8.847 -9.075 -4.214 
43 1 10.248 -3.392 -1.397 
44 1 4.043 1.923 -7.021 
45 1 3.930 10.676 -3.285 
46 1 -8.876 -10.587 7.360 
47 1 -6.229 -6.138 5.799 
48 1 4.328 -7.852 -0.339 
49 1 3.298 -0.278 7.838 
50 1 3.611 7.675 -9.626 
51 1 -2.436 7.377 3.691 
52 1 5.301 4.776 8.293 
53 1 6.888 -5.997 -7.341 
54 1 8.160 9.022 0.520 
55 1 3.608 -3.441 -9.557 
56 1 -7.200 -0.563 8.792 
57 1 5.968 8.269 4.301 
58 1 8.749 -1.906 -5.357 
59 1 2.136 -8.293 -9.575 
60 1 -1.052 1.114 0.482 
61 1 9.766 6.675 2.952 
62 1 -9.401 -2.823 -7.360 
63 1 6.220 -9.514 5.805 
64 1 -6.863 -7.943 0.745 
65 1 -5.396 6.539 9.100 
66 1 -9.367 -9.206 -2.116 
67 1 8.900 0.913 5.294 
68 1 9.165 4.064 -3.198 
69 1 -0.028 -4.678 -10.255 
70 1 -5.812 8.462 5.644 
71 1 9.707 0.520 1.931 
72 1 8.680 -8.928 -0.265 
73 1 -8.410 9.540 0.281 
74 1 -7.425 0.595 -6.168 
75 1 2.171 -5.777 1.938 
76 1 7.249 -10.022 10.641 
77 1 -3.181 -4.967 1.421 
78 1 3.117 -4.675 -5.715 
79 1 5.213 -7.524 10.124 
80 1 -8.664 -2.871 4.122 
81 1 0.766 -2.635 -7.251 
82 1 -4.480 9.598 2.872 
83 1 -2.713 -9.456 -1.764 
84 1 -3.401 -0.832 6.381 
85 1 10.088 7.871 -9.334 
86 1 -2.059 -4.188 -5.022 
87 1 -4.474 4.266 -6.667 
88 1 2.122 2.339 -3.737 
89 1 -3.613 -1.342 -5.795 
90 1 7.320 6.617 -1.933 
91 1 -10.097 -9.848 2.081 
92 1 2.194 -10.137 4.348 
93 1 -4.751 1.151 -8.356 
94 1 9.024 4.512 -7.418 
95 1 1.265 -9.560 -1.143 
96 1 -9.073 3.280 -2.400 
97 1 -5.497 4.758 4.484 
98 1 -9.986 2.484 -5.617 
99 1 -5.561 10.234 -3.944 
100 1 5.992 -0.623 -4.525 
101 1 0.721 8.024 5.146 
102 1 -10.380 -6.790 -0.039 
103 1 10.461 -5.550 -4.935 
104 1 -5.351 8.020 -8.394 
105 1 -8.038 -7.734 8.804 
106 1 6.110 -2.916 -7.034 
107 1 0.573 -2.718 0.769 
108 1 7.276 8.174 -7.922 
109 1 -5.173 4.630 0.775 
110 1 1.097 3.255 7.958 
111 1 -0.986 -3.858 7.872 
112 1 9.563 8.856 8.615 
113 1 9.317 0.959 -8.750 
114 1 6.403 1.341 7.996 
115 1 -8.109 -7.132 -7.246 
116 1 4.701 -4.463 -0.032 
117 1 7.816 -2.398 4.610 
118 1 -5.711 -2.386 -2.733 
119 1 9.761 -7.055 -9.351 
120 1 -2.266 -3.888 4.283 
121 1 5.962 4.866 -8.733 
122 1 -7.253 5.546 -4.943 
123 1 -4.315 9.817 -0.371 
124 1 4.031 1.830 5.196 
125 1 2.487 -1.501 -4.653 
126 1 -9.531 -3.916 7.853 
127 1 -3.095 3.089 6.193 
128 1 -10.315 6.972 -2.626 
129 1 -2.102 8.324 10.695 
130 1 6.203 -3.915 10.378 
131 1 -1.292 0.502 3.932 
132 1 -8.776 8.953 3.925 
133 1 5.994 2.710 -4.621 
134 1 -10.046 -10.378 -8.415 
135 1 7.435 -5.276 1.927 
136 1 -0.342 0.159 8.238 
137 1 0.494 3.974 0.137 
138 1 -0.716 8.783 -1.943 
139 1 -3.790 -7.714 -5.820 
140 1 -1.625 9.224 7.108 
141 1 -5.049 2.333 -3.902 
142 1 -8.715 0.251 1.960 
143 1 -3.936 -5.552 -2.182 
144 1 -3.378 -9.886 5.313 
145 1 -8.632 6.845 7.109 
146 1 -6.002 -4.016 -5.659 
147 1 -9.004 -0.176 -2.617 
148 1 0.642 3.371 4.402 
149 1 -5.841 -1.917 -8.361 
150 1 -2.865 -6.945 7.102 
151 1 4.678 2.213 -1.374 
152 1 -10.035 3.317 0.756 
153 1 0.652 -1.750 5.970 
154 1 -1.797 -8.564 -8.856 
155 1 -2.859 4.697 -10.424 
156 1 -0.426 4.951 -4.700 
157 1 7.989 6.175 10.043 
158 1 -3.774 -2.948 9.289 
159 1 -8.816 5.302 -8.437 
160 1 -7.070 -4.062 10.108 
161 1 -6.414 -10.207 -7.943 
162 1 6.232 -5.302 6.777 
163 1 1.209 -3.974 -2.874 
164 1 5.751 7.870 7.639 
165 1 -4.016 6.303 -3.624 
166 1 -5.039 -6.437 -8.895 
167 1 -2.313 3.590 2.586 
168 1 -1.479 6.355 0.828 
169 1 -3.890 -0.020 1.539 
170 1 -8.037 6.082 1.515 
171 1 1.482 -0.762 -1.740 
172 1 3.448 5.293 4.934 
173 1 -2.745 4.129 -1.687 
174 1 -10.630 -2.530 10.656 
175 1 8.677 -2.008 8.023 
176 1 3.301 3.038 10.665 
177 1 6.716 9.242 -4.808 
178 1 2.300 1.336 1.866 
179 1 -8.203 -9.252 4.642 
180 1 -2.603 -2.039 -0.819 
181 1 9.232 -8.116 8.281 
182 1 -5.266 -2.623 3.670 
183 1 5.788 0.968 1.936 
184 1 -1.442 6.871 -7.379 
185 1 8.251 2.952 -0.145 
186 1 -2.264 10.073 -6.187 
187 1 -2.675 -9.480 9.624 
188 1 7.384 3.531 3.882 
189 1 9.036 5.529 6.481 
190 1 4.970 -7.746 3.123 
191 1 -0.582 9.953 1.981 
192 1 -2.109 -1.095 -9.642 
193 1 -6.827 -8.091 -4.298 
194 1 2.453 7.894 -5.838 
195 1 10.615 0.945 8.801 
196 1 -5.900 10.351 8.929 
197 1 -4.287 1.258 9.671 
198 1 -1.018 1.846 -9.793 
199 1 6.260 -1.208 -0.571 
200 1 4.484 -7.719 -5.024 
ITEM: TIMESTEP
9000
ITEM: NUMBER OF ATOMS
200
ITEM: BOX BOUNDS pp pp pp
-10.725124871596057 10.725124871596057
-10.725124871596057 10.725124871596057
-10.725124871596057 10.725124871596057
ITEM: ATOMS id type x y z
1 1 6.156 6.612 1.676 
2 1 2.975 6.649 -2.700 
3 1 1.859 4.541 -7.099 
4 1 -1.144 5.997 7.513 
5 1 -7.384 -2.776 0.159 
6 1 3.376 -10.315 7.966 
7 1 4.340 -1.807 3.475 
8 1 1.934 8.172 9.091 
9 1 4.163 10.350 2.417 
10 1 -7.163 6.996 -1.418 
11 1 0.870 -5.891 5.712 
12 1 9.422 -9.041 5.069 
13 1 -7.687 -5.545 -3.012 
14 1 10.014 -5.681 4.673 
15 1 6.355 -0.319 -9.394 
16 1 1.070 10.318 -8.543 
17 1 -3.379 -8.909 1.758 
18 1 0.825 -10.377 -4.847 
19 1 -6.283 1.689 3.771 
20 1 -0.779 -0.086 -3.167 
21 1 1.317 0.068 -10.430 
22 1 0.387 -6.770 -6.950 
23 1 5.419 5.960 -5.795 
24 1 10.005 7.353 -6.148 
25 1 -8.146 8.942 -10.408 
26 1 4.840 -10.424 -8.083 
27 1 -9.648 3.458 3.821 
28 1 -8.156 8.891 -6.267 
29 1 -1.786 2.338 -5.258 
30 1 -9.078 -0.027 5.481 
31 1 -6.594 1.820 -0.890 
32 1 2.624 6.237 1.830 
33 1 0.838 1.344 -6.870 
34 1 -9.330 3.969 9.084 
35 1 0.941 -8.440 8.664 
36 1 -8.406 1.681 -10.176 
37 1 2.827 -3.921 8.637 
38 1 -0.793 -7.006 2.727 
39 1 -6.059 2.905 6.937 
40 1 0.660 5.636 -10.320 
41 1 -0.059 -6.953 -2.817 
42 1 9.618 -8.579 -4.590 
43 1 -10.245 -3.316 -1.933 
44 1 4.703 1.386 -6.647 
45 1 4.015 10.424 -3.451 
46 1 -9.115 10.193 7.323 
47 1 -5.934 -5.439 5.421 
48 1 4.544 -8.687 -0.263 
49 1 4.101 -0.830 6.996 
50 1 3.136 7.336 -8.878 
51 1 -2.207 7.286 4.532 
52 1 5.397 4.699 7.735 
53 1 7.295 -5.145 -6.755 
54 1 8.022 9.639 0.640 
55 1 3.914 -2.740 -9.537 
56 1 -7.226 -0.090 8.512 
57 1 7.091 8.920 4.025 
58 1 9.011 -2.315 -5.426 
59 1 1.950 -7.838 -9.960 
60 1 -1.238 0.798 -0.076 
61 1 9.336 6.697 2.622 
62 1 -8.571 -3.511 -7.311 
63 1 6.108 -10.094 6.066 
64 1 -5.849 -7.167 0.514 
65 1 -6.034 6.289 7.989 
66 1 -9.252 -8.708 -2.334 
67 1 8.842 1.416 6.194 
68 1 8.525 4.927 -2.415 
69 1 0.224 -4.125 -10.250 
70 1 -5.857 8.564 5.573 
71 1 10.086 0.407 1.098 
72 1 8.258 -8.346 0.254 
73 1 -8.570 9.925 -0.532 
74 1 -8.345 -0.307 -6.051 
75 1 2.189 -5.299 2.407 
76 1 7.305 -10.551 10.544 
77 1 -2.670 -5.241 1.063 
78 1 3.792 -4.626 -5.422 
79 1 4.785 -7.244 9.506 
80 1 -9.409 -2.871 3.692 
81 1 0.952 -2.367 -7.585 
82 1 -4.687 8.520 2.607 
83 1 -1.945 -9.602 -2.651 
84 1 -3.943 -1.197 6.761 
85 1 10.635 7.708 -9.600 
86 1 -1.714 -4.203 -4.377 
87 1 -3.662 4.685 -6.828 
88 1 1.377 2.359 -3.738 
89 1 -2.944 -1.171 -5.667 
90 1 6.087 7.512 -1.671 
91 1 -9.923 -10.061 2.137 
92 1 2.107 -9.241 5.214 
93 1 -4.774 1.399 -8.133 
94 1 9.168 4.829 -8.577 
95 1 1.158 -9.537 -0.381 
96 1 -9.398 3.716 -2.006 
97 1 -5.488 5.061 4.491 
98 1 -10.060 3.262 -5.596 
99 1 -5.913 9.499 -3.881 
100 1 5.978 0.043 -2.975 
101 1 1.349 8.410 4.361 
102 1 -9.028 -6.294 1.350 
103 1 10.601 -5.541 -4.689 
104 1 -4.139 8.161 -9.563 
105 1 -6.373 -7.594 9.729 
106 1 5.619 -2.246 -6.634 
107 1 0.303 -2.868 0.894 
108 1 7.220 8.297 -8.861 
109 1 -5.377 5.154 1.089 
110 1 1.458 3.418 8.370 
111 1 -1.317 -3.758 8.060 
112 1 9.117 8.806 8.260 
113 1 10.011 0.760 -8.355 
114 1 6.741 1.403 8.454 
115 1 -8.439 -6.832 -7.179 
116 1 3.809 -4.083 -0.164 
117 1 7.903 -2.287 4.486 
118 1 -5.444 -2.552 -2.933 
119 1 8.975 -8.169 -8.365 
120 1 -2.018 -4.213 4.182 
121 1 5.592 5.016 -8.748 
122 1 -6.564 5.190 -5.126 
123 1 -4.249 10.029 -0.230 
124 1 3.120 1.654 4.992 
125 1 2.670 -1.135 -5.039 
126 1 -8.930 -3.296 7.321 
127 1 -2.604 2.398 6.202 
128 1 -9.969 7.274 -2.997 
129 1 -1.324 9.392 -10.521 
130 1 6.791 -4.903 10.574 
131 1 -1.196 0.121 3.657 
132 1 -9.500 8.892 4.553 
133 1 6.206 3.224 -4.047 
134 1 -9.703 -9.675 -8.871 
135 1 7.189 -5.287 1.984 
136 1 -1.186 -0.618 8.727 
137 1 0.764 3.522 0.189 
138 1 0.022 8.735 -1.739 
139 1 -2.815 -7.702 -6.209 
140 1 -0.777 9.769 6.854 
141 1 -4.779 1.712 -4.260 
142 1 -8.361 0.066 1.977 
143 1 -4.247 -6.424 -2.807 
144 1 -2.976 -9.831 5.499 
145 1 -9.315 6.406 6.270 
146 1 -5.896 -4.283 -5.883 
147 1 -9.132 0.058 -2.634 
148 1 0.387 3.738 4.054 
149 1 -5.319 -2.120 -8.575 
150 1 -2.664 -6.379 6.751 
151 1 4.315 2.705 -1.105 
152 1 10.364 4.193 0.762 
153 1 1.198 -2.352 5.785 
154 1 -1.398 -8.918 -9.309 
155 1 -3.387 4.420 10.487 
156 1 0.050 5.227 -4.112 
157 1 7.822 6.198 10.105 
158 1 -4.549 -2.695 9.400 
159 1 -8.156 5.551 -8.670 
160 1 -7.388 -4.589 10.468 
161 1 -5.144 10.720 -7.634 
162 1 6.149 -5.592 6.924 
163 1 1.186 -3.684 -2.615 
164 1 5.927 8.482 8.260 
165 1 -3.167 7.323 -3.845 
166 1 -5.109 -5.775 -8.663 
167 1 -2.910 3.091 2.551 
168 1 -2.462 7.457 0.599 
169 1 -4.245 0.004 1.267 
170 1 -8.381 6.119 1.327 
171 1 2.535 -0.473 -1.791 
172 1 3.356 5.231 5.213 
173 1 -2.921 4.163 -2.254 
174 1 10.102 -2.975 -10.235 
175 1 8.138 -1.934 8.018 
176 1 3.701 2.804 10.692 
177 1 6.422 9.158 -5.410 
178 1 1.805 0.455 1.662 
179 1 -7.429 -9.370 4.879 
180 1 -2.336 -2.314 -0.838 
181 1 9.767 -8.901 8.681 
182 1 -5.629 -2.611 3.152 
183 1 6.330 0.855 2.365 
184 1 -1.285 6.689 -7.742 
185 1 7.681 2.367 -0.253 
186 1 -2.289 9.653 -6.046 
187 1 -2.524 -9.729 8.942 
188 1 7.228 3.897 3.812 
189 1 8.973 5.979 6.478 
190 1 5.059 -7.464 4.026 
191 1 -0.959 10.286 2.301 
192 1 -2.218 -1.298 -9.546 
193 1 -6.281 -8.685 -4.381 
194 1 1.709 7.502 -5.844 
195 1 -10.612 0.655 8.733 
196 1 -6.214 10.568 9.280 
197 1 -4.620 0.836 9.947 
198 1 -1.061 2.358 -9.744 
199 1 6.120 -1.619 -0.391 
200 1 4.472 -8.073 -5.239 
ITEM: TIMESTEP
10000
ITEM: NUMBER OF ATOMS
200
ITEM: BOX BOUNDS pp pp pp
-10.725124871596057 10.725124871596057
-10.725124871596057 10.725124871596057
-10.725124871596057 10.725124871596057
ITEM: ATOMS id type x y z
1 1 6.268 5.593 0.978 
2 1 2.738 6.451 -2.871 
3 1 1.711 4.429 -7.037 
4 1 -1.180 5.792 7.661 
5 1 -7.253 -3.457 -0.107 
6 1 3.747 -10.566 7.982 
7 1 4.877 -1.819 3.346 
8 1 1.987 8.094 8.895 
9 1 4.066 9.817 1.664 
10 1 -6.597 6.192 -2.072 
11 1 1.690 -6.367 5.413 
12 1 9.082 -9.907 5.113 
13 1 -8.051 -5.168 -3.316 
14 1 9.859 -6.000 5.382 
15 1 6.052 -0.596 -8.850 
16 1 0.288 10.554 -8.496 
17 1 -3.711 -9.329 2.106 
18 1 0.394 -10.650 -5.106 
19 1 -5.806 1.654 3.553 
20 1 -0.543 0.028 -3.369 
21 1 1.974 -0.348 -10.408 
22 1 0.980 -5.615 -6.640 
23 1 6.160 6.310 -5.972 
24 1 9.344 8.192 -5.379 
25 1 -8.032 8.121 -10.428 
26 1 5.039 -9.973 -8.562 
27 1 -10.649 2.744 3.547 
28 1 -8.736 8.284 -5.980 
29 1 -2.015 2.862 -5.334 
30 1 -9.769 -0.097 5.645 
31 1 -6.268 2.313 -1.196 
32 1 2.804 6.106 1.943 
33 1 0.554 1.638 -6.904 
34 1 -9.096 4.429 9.093 
35 1 0.511 -8.469 8.355 
36 1 -7.965 1.179 -9.472 
37 1 2.722 -4.294 8.331 
38 1 -0.483 -7.973 2.501 
39 1 -6.913 2.631 7.168 
40 1 0.626 5.492 -10.237 
41 1 0.561 -7.561 -3.042 
42 1 9.458 -8.601 -4.197 
43 1 10.653 -2.894 -0.917 
44 1 3.899 1.094 -6.467 
45 1 3.427 9.703 -2.844 
46 1 -9.183 -10.717 7.473 
47 1 -5.967 -6.228 5.771 
48 1 4.647 -9.126 -0.749 
49 1 3.779 -0.774 7.363 
50 1 2.973 7.344 -8.361 
51 1 -2.599 7.763 4.712 
52 1 5.274 4.622 8.744 
53 1 7.138 -6.154 -7.126 
54 1 8.545 9.873 0.460 
55 1 4.343 -2.892 -10.383 
56 1 -7.506 -0.186 9.243 
57 1 6.803 7.913 4.394 
58 1 9.530 -2.217 -5.475 
59 1 2.189 -8.016 -9.262 
60 1 -0.418 0.211 0.357 
61 1 9.661 6.993 2.836 
62 1 -8.599 -3.691 -7.398 
63 1 5.928 -9.704 5.694 
64 1 -5.633 -7.690 -0.160 
65 1 -5.818 6.173 8.223 
66 1 -8.473 -8.763 -1.889 
67 1 8.532 1.287 6.075 
68 1 8.536 5.144 -2.850 
69 1 0.391 -4.004 -10.459 
70 1 -6.376 8.619 5.885 
71 1 10.517 0.619 0.689 
72 1 9.278 -8.045 -0.275 
73 1 -8.704 9.566 -0.882 
74 1 -8.785 0.256 -6.262 
75 1 1.663 -5.843 1.692 
76 1 7.442 10.425 10.474 
77 1 -3.185 -5.372 0.388 
78 1 3.806 -4.779 -4.813 
79 1 4.744 -7.665 9.675 
80 1 -9.370 -2.538 3.364 
81 1 0.561 -2.258 -7.716 
82 1 -5.084 8.594 2.715 
83 1 -1.977 -9.849 -2.642 
84 1 -4.505 -0.773 6.364 
85 1 10.286 8.284 -10.550 
86 1 -1.953 -4.531 -4.840 
87 1 -4.468 4.703 -7.200 
88 1 1.845 2.342 -4.003 
89 1 -2.971 -1.355 -5.698 
90 1 6.231 7.965 -2.370 
91 1 -10.276 -9.766 2.182 
92 1 2.692 -9.699 4.617 
93 1 -4.225 1.496 -8.006 
94 1 9.780 4.982 -8.740 
95 1 1.088 -9.744 -0.297 
96 1 -9.120 4.082 -1.808 
97 1 -5.294 5.151 4.757 
98 1 -9.940 3.615 -6.168 
99 1 -5.620 9.193 -4.150 
100 1 6.184 -0.465 -3.483 
101 1 1.185 7.937 4.296 
102 1 -8.853 -5.944 0.998 
103 1 9.837 -5.500 -4.465 
104 1 -4.320 7.322 -9.656 
105 1 -6.110 -7.704 9.705 
106 1 5.737 -2.691 -6.279 
107 1 0.604 -2.812 1.223 
108 1 6.942 8.007 -8.592 
109 1 -5.532 5.566 1.453 
110 1 0.669 2.901 8.709 
111 1 -0.726 -4.158 7.573 
112 1 9.174 9.120 7.955 
113 1 9.426 1.360 -8.317 
114 1 6.916 1.672 9.326 
115 1 -8.375 -7.593 -6.364 
116 1 5.072 -4.190 0.561 
117 1 8.517 -2.012 3.022 
118 1 -5.452 -2.341 -3.107 
119 1 8.551 -9.433 -7.995 
120 1 -1.834 -4.069 3.971 
121 1 5.654 4.916 -9.370 
122 1 -7.355 5.150 -5.108 
123 1 -4.092 9.041 -0.789 
124 1 2.762 1.338 4.915 
125 1 2.857 -1.693 -5.047 
126 1 -9.957 -3.237 7.282 
127 1 -3.272 2.711 6.504 
128 1 -9.877 7.202 -2.777 
129 1 -1.564 8.407 10.673 
130 1 7.342 -5.178 10.385 
131 1 -0.868 -0.274 3.868 
132 1 -9.246 8.822 4.081 
133 1 5.903 2.841 -3.792 
134 1 -7.545 -9.387 -8.809 
135 1 7.764 -5.440 2.602 
136 1 -0.798 -0.515 9.361 
137 1 -0.089 3.899 -0.025 
138 1 0.121 8.496 -2.048 
139 1 -2.734 -7.429 -6.694 
140 1 -0.763 9.647 7.197 
141 1 -5.323 1.921 -4.462 
142 1 -7.759 -0.561 1.556 
143 1 -3.636 -6.749 -2.770 
144 1 -3.290 -10.020 5.563 
145 1 -9.280 6.284 6.216 
146 1 -5.424 -4.969 -5.625 
147 1 -9.199 0.345 -2.077 
148 1 0.442 4.554 3.890 
149 1 -5.811 -1.289 -8.038 
150 1 -2.629 -6.964 6.366 
151 1 3.954 2.646 -1.062 
152 1 10.008 4.203 0.679 
153 1 1.863 -2.836 4.769 
154 1 -2.375 -9.500 -9.408 
155 1 -3.570 4.714 10.210 
156 1 -0.056 5.235 -3.811 
157 1 8.064 6.432 10.070 
158 1 -4.148 -2.632 9.523 
159 1 -8.297 4.981 -8.821 
160 1 -7.475 -4.200 9.038 
161 1 -4.982 10.445 -7.292 
162 1 5.803 -5.910 6.940 
163 1 0.788 -4.082 -2.139 
164 1 5.271 8.107 9.121 
165 1 -3.016 7.193 -3.470 
166 1 -5.884 -5.473 -8.944 
167 1 -2.671 3.241 2.542 
168 1 -1.889 6.943 0.896 
169 1 -3.919 -0.557 1.284 
170 1 -9.024 6.383 1.281 
171 1 3.189 -1.287 -1.170 
172 1 3.097 5.249 5.578 
173 1 -3.027 3.856 -1.673 
174 1 9.378 -3.468 -8.373 
175 1 7.414 -1.945 8.328 
176 1 3.016 2.830 -10.227 
177 1 6.037 9.635 -5.892 
178 1 3.042 1.060 1.778 
179 1 -6.491 -9.563 4.524 
180 1 -2.342 -2.501 -1.118 
181 1 10.452 -8.616 9.758 
182 1 -5.526 -2.993 3.127 
183 1 7.114 1.483 1.975 
184 1 -1.686 6.559 -7.373 
185 1 7.450 1.982 -1.069 
186 1 -2.366 9.340 -6.265 
187 1 -2.628 -9.628 8.817 
188 1 6.214 3.933 4.485 
189 1 8.966 5.485 6.350 
190 1 4.934 -7.616 3.210 
191 1 -0.952 9.836 2.011 
192 1 -2.447 -1.851 -9.062 
193 1 -5.999 -8.972 -4.123 
194 1 1.602 7.843 -5.582 
195 1 10.239 1.590 9.044 
196 1 -5.341 10.228 10.172 
197 1 -4.379 0.883 9.786 
198 1 -1.528 2.018 -9.389 
199 1 6.877 -1.489 -0.178 
200 1 4.946 -7.853 -5.510 
ITEM: TIMESTEP
11000
ITEM: NUMBER OF ATOMS
200
ITEM: BOX BOUNDS pp pp pp
-10.725124871596057 10.725124871596057
-10.725124871596057 10.725124871596057
-10.725124871596057 10.725124871596057
ITEM: ATOMS id type x y z
1 1 6.396 5.089 -0.043 
2 1 3.110 6.618 -2.100 
3 1 2.430 5.021 -6.955 
4 1 -1.025 5.452 7.679 
5 1 -7.304 -3.676 0.113 
6 1 4.468 -10.213 8.263 
7 1 3.921 -2.045 3.119 
8 1 2.191 8.792 9.440 
9 1 4.409 10.325 1.134 
10 1 -6.514 6.589 -1.888 
11 1 1.292 -6.300 5.656 
12 1 9.179 -9.869 4.539 
13 1 -8.443 -5.536 -2.684 
14 1 9.961 -6.824 6.276 
15 1 6.618 -0.534 -8.827 
16 1 0.516 10.696 -8.827 
17 1 -3.877 -9.335 2.322 
18 1 1.424 -10.149 -5.367 
19 1 -6.107 1.575 3.411 
20 1 -0.919 1.029 -2.718 
21 1 2.053 -0.004 -10.345 
22 1 0.909 -5.625 -7.199 
23 1 5.927 6.618 -5.144 
24 1 9.015 7.866 -5.775 
25 1 -8.231 9.212 10.498 
26 1 4.867 -9.473 -8.220 
27 1 10.550 2.688 4.129 
28 1 -9.041 9.312 -6.106 
29 1 -2.065 2.645 -5.573 
30 1 -9.494 -0.110 5.117 
31 1 -5.437 1.599 -0.869 
32 1 3.680 6.653 1.157 
33 1 1.010 1.658 -7.082 
34 1 -8.799 4.696 8.959 
35 1 0.866 -8.473 8.391 
36 1 -8.475 1.296 -9.527 
37 1 2.860 -4.670 8.018 
38 1 -0.667 -8.706 3.169 
39 1 -6.892 2.268 6.836 
40 1 0.764 5.720 -10.006 
41 1 0.091 -7.508 -3.221 
42 1 8.444 -9.618 -3.365 
43 1 10.720 -2.379 -0.473 
44 1 4.081 0.614 -5.880 
45 1 4.245 10.269 -2.908 
46 1 -9.010 -10.380 6.578 
47 1 -5.432 -6.204 5.763 
48 1 4.373 -7.818 -2.053 
49 1 2.675 -1.101 7.424 
50 1 2.851 7.884 -8.493 
51 1 -2.579 7.474 5.079 
52 1 4.793 3.561 8.257 
53 1 6.424 -5.702 -7.719 
54 1 7.582 10.122 0.214 
55 1 3.897 -4.495 -9.861 
56 1 -7.764 -0.693 8.410 
57 1 5.709 8.340 4.891 
58 1 9.320 -1.875 -6.636 
59 1 1.930 -8.014 -9.722 
60 1 -0.418 0.694 1.045 
61 1 9.149 7.264 3.215 
62 1 -8.418 -4.307 -7.148 
63 1 5.813 -9.141 5.867 
64 1 -6.000 -7.826 -0.443 
65 1 -5.827 6.601 7.982 
66 1 -8.725 -9.858 -2.123 
67 1 8.386 1.853 6.462 
68 1 8.949 4.655 -3.111 
69 1 0.706 -4.565 10.627 
70 1 -6.703 8.820 5.665 
71 1 10.654 0.641 0.701 
72 1 8.599 -6.443 0.067 
73 1 -8.661 8.730 -0.130 
74 1 -9.318 0.085 -6.224 
75 1 1.627 -6.565 1.650 
76 1 7.074 10.039 -10.661 
77 1 -3.440 -5.568 1.409 
78 1 3.283 -4.624 -4.825 
79 1 4.776 -7.554 10.232 
80 1 -9.201 -2.958 3.531 
81 1 0.336 -2.217 -7.756 
82 1 -6.184 8.829 2.616 
83 1 -2.086 -10.020 -2.576 
84 1 -4.107 -1.132 6.324 
85 1 10.305 8.197 -9.564 
86 1 -1.709 -4.524 -5.048 
87 1 -5.105 4.797 -7.698 
88 1 2.010 2.407 -3.999 
89 1 -2.601 -1.239 -5.581 
90 1 6.602 7.839 -2.310 
91 1 -10.280 -9.590 1.358 
92 1 2.726 -9.542 4.179 
93 1 -4.090 1.277 -8.069 
94 1 10.190 4.639 -8.745 
95 1 1.329 -9.274 -0.624 
96 1 -9.499 3.323 -1.521 
97 1 -5.679 5.293 4.723 
98 1 -9.877 3.987 -5.749 
99 1 -6.427 9.165 -3.884 
100 1 6.929 -0.954 -3.152 
101 1 1.692 8.405 4.981 
102 1 -9.646 -5.742 1.739 
103 1 9.159 -6.183 -5.067 
104 1 -5.469 7.771 -9.131 
105 1 -5.604 -7.855 9.597 
106 1 5.586 -2.617 -5.998 
107 1 0.150 -2.566 1.534 
108 1 7.145 7.440 -8.598 
109 1 -4.863 5.179 1.017 
110 1 -0.060 2.378 8.436 
111 1 -0.692 -4.188 7.476 
112 1 9.392 8.480 7.299 
113 1 9.564 1.321 -9.127 
114 1 6.825 1.284 10.171 
115 1 -9.159 -8.230 -5.891 
116 1 4.393 -5.081 0.911 
117 1 8.677 -1.277 3.844 
118 1 -5.695 -2.294 -3.825 
119 1 8.678 -9.407 -8.025 
120 1 -1.785 -3.197 4.445 
121 1 6.340 3.928 -8.863 
122 1 -7.215 6.016 -5.641 
123 1 -4.057 9.114 -0.897 
124 1 2.515 1.440 5.099 
125 1 2.212 -1.721 -4.736 
126 1 10.653 -3.246 6.829 
127 1 -3.262 2.079 5.633 
128 1 -9.762 7.124 -3.039 
129 1 -1.690 8.772 -10.381 
130 1 7.501 -5.331 10.145 
131 1 -0.291 -0.081 4.371 
132 1 -9.330 9.493 3.572 
133 1 5.521 2.748 -3.504 
134 1 -7.124 -8.333 -8.620 
135 1 8.004 -5.108 2.838 
136 1 -0.817 -1.082 8.751 
137 1 -0.314 3.912 -0.643 
138 1 0.261 8.352 -1.339 
139 1 -2.668 -7.702 -6.431 
140 1 -0.709 9.394 7.388 
141 1 -5.656 2.660 -4.160 
142 1 -7.917 -0.407 1.428 
143 1 -3.359 -6.626 -2.693 
144 1 -3.242 -10.577 5.504 
145 1 -9.307 6.318 5.712 
146 1 -5.415 -5.338 -4.932 
147 1 -8.603 -0.490 -2.292 
148 1 0.167 4.643 3.213 
149 1 -6.043 -1.985 -7.278 
150 1 -2.046 -7.255 6.336 
151 1 3.075 3.415 -0.610 
152 1 9.588 5.413 0.445 
153 1 1.265 -3.055 5.228 
154 1 -3.437 -9.127 -9.452 
155 1 -3.894 4.310 10.190 
156 1 -0.120 4.839 -3.870 
157 1 8.069 6.461 9.994 
158 1 -4.261 -2.484 9.937 
159 1 -8.184 5.481 -8.824 
160 1 -7.177 -4.244 8.689 
161 1 -5.182 -10.698 -7.291 
162 1 6.203 -5.748 7.181 
163 1 0.427 -4.537 -1.581 
164 1 5.329 8.107 9.394 
165 1 -3.078 7.684 -3.898 
166 1 -4.525 -5.041 -9.120 
167 1 -2.778 3.240 2.729 
168 1 -1.626 6.671 0.590 
169 1 -3.707 -0.178 1.765 
170 1 -8.199 5.679 1.562 
171 1 3.550 -1.268 -1.707 
172 1 2.731 5.400 5.976 
173 1 -3.155 3.980 -2.301 
174 1 10.069 -5.119 -9.176 
175 1 7.238 -1.953 6.732 
176 1 3.260 2.823 -9.907 
177 1 5.909 10.231 -5.661 
178 1 3.036 1.328 1.805 
179 1 -6.476 -9.333 4.525 
180 1 -2.988 -2.390 -0.824 
181 1 -9.932 -8.044 9.595 
182 1 -5.175 -3.110 3.366 
183 1 6.998 1.920 2.226 
184 1 -2.176 6.023 -7.949 
185 1 7.993 1.812 -1.285 
186 1 -1.891 9.801 -5.847 
187 1 -2.449 -9.621 8.986 
188 1 6.263 4.288 4.892 
189 1 8.424 5.062 7.170 
190 1 4.853 -7.137 3.492 
191 1 -1.145 9.622 2.210 
192 1 -2.589 -1.871 -8.821 
193 1 -5.818 -8.512 -4.812 
194 1 1.919 8.040 -4.968 
195 1 -10.647 2.101 9.234 
196 1 -4.930 9.883 9.131 
197 1 -3.889 1.150 9.232 
198 1 -1.239 0.697 -9.947 
199 1 7.189 -1.810 -0.052 
200 1 5.053 -7.433 -5.459 
ITEM: TIMESTEP
12000
ITEM: NUMBER OF ATOMS
200
ITEM: BOX BOUNDS pp pp pp
-10.725124871596057 10.725124871596057
-10.725124871596057 10.725124871596057
-10.725124871596057 10.725124871596057
ITEM: ATOMS id type x y z
1 1 6.795 5.228 -0.101 
2 1 2.856 6.411 -2.221 
3 1 2.579 4.618 -7.216 
4 1 -0.532 5.966 7.170 
5 1 -7.047 -3.217 -0.089 
6 1 4.725 -10.504 8.342 
7 1 4.571 -1.951 3.689 
8 1 1.891 9.075 10.265 
9 1 4.087 9.461 0.832 
10 1 -6.607 6.891 -1.313 
11 1 1.343 -6.434 5.435 
12 1 8.978 -10.526 4.431 
13 1 -8.680 -6.054 -2.413 
14 1 9.639 -6.432 5.485 
15 1 6.838 -1.154 -9.407 
16 1 0.302 10.722 -8.227 
17 1 -4.187 -9.844 2.090 
18 1 1.316 -10.267 -5.112 
19 1 -6.024 2.146 3.557 
20 1 -1.555 0.939 -2.977 
21 1 3.267 -0.460 -10.322 
22 1 1.229 -7.159 -6.919 
23 1 5.783 5.776 -5.428 
24 1 9.135 7.236 -6.041 
25 1 -7.982 10.257 10.231 
26 1 4.792 -8.811 -8.568 
27 1 10.185 3.545 4.158 
28 1 -9.084 9.073 -6.381 
29 1 -2.002 3.384 -5.695 
30 1 -9.256 0.362 5.061 
31 1 -6.203 1.225 -0.537 
32 1 3.712 5.978 1.598 
33 1 1.316 1.694 -7.312 
34 1 -9.457 5.493 8.961 
35 1 1.263 -8.766 7.607 
36 1 -7.969 2.018 -8.938 
37 1 3.824 -4.786 7.958 
38 1 -0.515 -8.343 2.871 
39 1 -6.997 2.636 7.319 
40 1 -0.174 5.663 -10.140 
41 1 0.226 -7.473 -3.661 
42 1 8.529 -9.290 -3.749 
43 1 -10.217 -2.784 -1.010 
44 1 4.507 1.343 -6.451 
45 1 4.329 9.803 -2.918 
46 1 -9.671 10.684 6.751 
47 1 -5.465 -5.963 6.744 
48 1 4.476 -8.596 -1.968 
49 1 2.795 -1.526 7.936 
50 1 3.130 7.775 -8.184 
51 1 -1.514 7.642 4.142 
52 1 5.251 4.053 8.352 
53 1 7.024 -6.009 -7.360 
54 1 7.953 -10.379 -0.500 
55 1 3.796 -4.175 -9.016 
56 1 -7.574 -0.916 10.461 
57 1 5.622 8.285 3.691 
58 1 9.703 -2.312 -7.108 
59 1 1.550 -8.256 -10.496 
60 1 -0.170 0.999 0.684 
61 1 9.018 7.654 3.547 
62 1 -8.830 -4.293 -6.686 
63 1 5.757 -9.763 5.064 
64 1 -5.791 -7.654 -0.244 
65 1 -6.416 6.444 7.872 
66 1 -8.899 -9.447 -2.185 
67 1 8.199 1.450 6.706 
68 1 8.695 4.713 -3.452 
69 1 0.346 -4.348 -10.330 
70 1 -6.481 9.575 5.583 
71 1 -10.463 0.539 0.921 
72 1 8.055 -6.709 0.073 
73 1 -8.720 8.955 0.086 
74 1 -9.786 0.383 -6.339 
75 1 0.545 -6.087 0.988 
76 1 7.093 10.549 10.660 
77 1 -3.755 -6.039 2.453 
78 1 2.942 -4.545 -5.382 
79 1 4.393 -7.357 10.142 
80 1 -9.260 -3.177 3.701 
81 1 0.547 -2.046 -8.030 
82 1 -5.495 8.804 1.926 
83 1 -2.137 -9.976 -2.144 
84 1 -3.993 -1.206 6.244 
85 1 10.649 8.209 -9.161 
86 1 -1.924 -4.442 -5.935 
87 1 -5.180 4.621 -7.837 
88 1 1.731 2.449 -3.656 
89 1 -2.605 -1.287 -5.212 
90 1 7.193 8.221 -2.098 
91 1 -10.395 -8.980 1.171 
92 1 2.534 -9.376 3.090 
93 1 -4.507 1.179 -8.306 
94 1 9.936 4.705 -8.806 
95 1 1.319 -9.864 -0.621 
96 1 -10.043 2.921 -0.999 
97 1 -5.707 6.045 4.388 
98 1 -10.337 3.846 -5.913 
99 1 -6.395 9.321 -3.853 
100 1 7.120 -0.453 -3.314 
101 1 2.419 8.415 5.034 
102 1 -9.586 -5.464 1.263 
103 1 9.789 -6.033 -4.097 
104 1 -5.468 8.327 -9.471 
105 1 -5.522 -8.675 9.764 
106 1 5.836 -3.192 -6.278 
107 1 0.725 -2.886 1.892 
108 1 7.098 7.933 -8.584 
109 1 -5.059 4.816 1.350 
110 1 0.281 2.260 8.846 
111 1 -1.741 -4.265 7.621 
112 1 9.642 8.346 7.010 
113 1 9.634 1.566 -9.327 
114 1 6.502 1.585 10.207 
115 1 -8.741 -7.697 -5.567 
116 1 4.369 -4.526 1.226 
117 1 8.637 -2.155 3.762 
118 1 -5.645 -2.682 -3.533 
119 1 8.879 -9.285 -8.214 
120 1 -2.425 -3.509 4.153 
121 1 6.413 3.298 -8.665 
122 1 -7.270 6.111 -5.577 
123 1 -4.242 8.984 -1.358 
124 1 2.239 0.108 5.405 
125 1 2.192 -1.120 -4.796 
126 1 10.068 -2.688 7.149 
127 1 -3.543 2.099 6.289 
128 1 -9.503 7.076 -2.836 
129 1 -2.345 9.278 -9.930 
130 1 7.005 -5.246 10.462 
131 1 -0.174 0.244 3.746 
132 1 -9.356 9.625 3.172 
133 1 5.294 2.602 -3.397 
134 1 -7.187 -8.207 -8.277 
135 1 7.482 -5.202 3.227 
136 1 -0.624 -0.866 7.754 
137 1 -0.381 4.316 -0.318 
138 1 0.649 8.545 -1.371 
139 1 -2.657 -7.809 -6.353 
140 1 -0.867 8.980 8.199 
141 1 -6.166 1.937 -4.172 
142 1 -7.377 -0.765 2.001 
143 1 -3.566 -5.798 -2.715 
144 1 -3.329 -10.556 6.341 
145 1 -9.145 6.366 5.399 
146 1 -5.286 -5.082 -5.806 
147 1 -8.646 -0.112 -2.471 
148 1 0.763 4.947 2.926 
149 1 -6.147 -2.038 -6.886 
150 1 -1.576 -7.623 6.320 
151 1 3.207 3.475 -0.743 
152 1 10.167 6.236 0.677 
153 1 1.251 -3.023 4.995 
154 1 -3.383 -8.944 -9.212 
155 1 -3.093 4.455 9.972 
156 1 -0.046 5.073 -3.474 
157 1 8.093 5.703 10.056 
158 1 -4.372 -2.338 9.598 
159 1 -8.363 5.605 -9.427 
160 1 -7.462 -3.681 9.012 
161 1 -5.177 10.150 -7.060 
162 1 6.423 -7.062 7.342 
163 1 0.142 -3.451 -2.880 
164 1 4.488 7.317 9.810 
165 1 -3.337 6.675 -3.747 
166 1 -4.263 -5.132 -8.958 
167 1 -2.106 3.284 2.858 
168 1 -2.204 6.757 1.049 
169 1 -3.995 -0.911 2.534 
170 1 -8.555 5.475 1.999 
171 1 2.912 -1.129 -1.492 
172 1 2.615 5.501 6.093 
173 1 -3.466 3.710 -2.563 
174 1 10.401 -4.327 -9.665 
175 1 6.416 -1.899 6.775 
176 1 2.814 3.131 -10.430 
177 1 6.881 9.603 -5.401 
178 1 2.869 0.229 1.891 
179 1 -6.161 -8.524 4.448 
180 1 -3.170 -2.763 -0.972 
181 1 -9.157 -7.135 8.566 
182 1 -6.125 -3.620 3.323 
183 1 6.532 1.070 2.134 
184 1 -2.644 6.812 -7.532 
185 1 8.454 1.957 -1.035 
186 1 -2.076 10.072 -6.438 
187 1 -2.227 -9.371 9.288 
188 1 6.045 4.000 3.923 
189 1 9.351 4.645 7.035 
190 1 4.734 -6.433 4.261 
191 1 -1.100 10.063 1.877 
192 1 -3.226 -1.751 -8.300 
193 1 -4.818 -9.264 -3.831 
194 1 2.528 7.810 -4.877 
195 1 10.311 1.606 9.209 
196 1 -5.343 9.608 8.835 
197 1 -4.336 1.438 9.540 
198 1 -1.261 1.065 -9.172 
199 1 7.787 -1.585 0.140 
200 1 3.926 -8.454 -5.424 
ITEM: TIMESTEP
13000
ITEM: NUMBER OF ATOMS
200
ITEM: BOX BOUNDS pp pp pp
-10.725124871596057 10.725124871596057
-10.725124871596057 10.725124871596057
-10.725124871596057 10.725124871596057
ITEM: ATOMS id type x y z
1 1 5.989 5.199 -0.072 
2 1 2.918 5.642 -2.725 
3 1 2.650 4.199 -6.470 
4 1 -1.441 5.238 5.919 
5 1 -7.411 -3.899 -0.186 
6 1 4.503 -10.151 8.637 
7 1 5.205 -1.968 3.777 
8 1 1.899 9.545 10.346 
9 1 4.144 10.191 0.658 
10 1 -5.796 6.706 -1.701 
11 1 1.577 -6.507 5.302 
12 1 9.448 -10.013 4.676 
13 1 -8.837 -5.799 -2.345 
14 1 -10.610 -6.556 6.252 
15 1 6.640 -1.499 -9.499 
16 1 0.293 10.606 -8.505 
17 1 -4.067 -9.727 2.485 
18 1 1.097 10.695 -4.830 
19 1 -6.025 2.182 3.162 
20 1 -1.121 0.906 -2.565 
21 1 3.632 -0.755 -10.291 
22 1 0.343 -7.508 -7.247 
23 1 5.803 5.625 -5.546 
24 1 9.849 7.176 -6.172 
25 1 -8.208 10.179 10.331 
26 1 5.583 -9.438 -8.350 
27 1 9.971 3.238 3.772 
28 1 -8.628 8.603 -6.806 
29 1 -1.666 3.696 -6.633 
30 1 -9.267 0.399 5.857 
31 1 -6.065 1.185 -0.416 
32 1 3.208 5.114 1.252 
33 1 1.130 1.218 -7.194 
34 1 -10.236 5.975 9.228 
35 1 1.750 -9.316 7.408 
36 1 -8.217 2.277 -8.599 
37 1 3.738 -5.137 7.842 
38 1 -0.948 -8.174 3.136 
39 1 -7.161 2.298 6.985 
40 1 0.186 6.306 10.482 
41 1 1.143 -7.485 -3.896 
42 1 9.436 -9.920 -3.269 
43 1 10.424 -2.934 -0.893 
44 1 4.840 1.143 -6.131 
45 1 4.547 10.714 -3.498 
46 1 -9.239 -10.443 7.129 
47 1 -4.822 -5.281 5.989 
48 1 5.467 -8.412 -1.382 
49 1 2.779 -1.285 7.771 
50 1 2.772 6.761 -8.623 
51 1 -1.565 8.623 4.244 
52 1 4.970 3.837 8.506 
53 1 6.166 -5.239 -8.514 
54 1 8.292 -10.196 0.896 
55 1 2.887 -4.652 -9.669 
56 1 -7.593 0.219 10.052 
57 1 5.846 8.082 2.822 
58 1 9.201 -2.416 -7.734 
59 1 1.497 -7.500 10.652 
60 1 -0.470 -0.338 0.281 
61 1 8.840 7.836 3.802 
62 1 -9.401 -3.741 -6.033 
63 1 5.813 -10.204 4.521 
64 1 -5.775 -7.529 0.152 
65 1 -6.569 6.062 8.673 
66 1 -9.188 -9.641 -1.760 
67 1 8.207 1.189 6.048 
68 1 8.480 5.663 -3.452 
69 1 -0.942 -3.610 -10.585 
70 1 -6.589 9.523 5.426 
71 1 -10.292 0.023 0.629 
72 1 9.032 -6.004 -0.514 
73 1 -8.647 8.976 0.223 
74 1 -10.115 0.136 -5.847 
75 1 0.269 -6.115 0.584 
76 1 7.342 -10.497 10.087 
77 1 -3.720 -6.204 2.772 
78 1 3.650 -4.439 -4.852 
79 1 5.092 -7.274 10.281 
80 1 -9.578 -2.669 4.223 
81 1 0.525 -2.131 -8.112 
82 1 -5.804 9.055 2.179 
83 1 -1.448 -10.005 -2.270 
84 1 -5.419 -0.687 6.374 
85 1 -10.580 8.035 -9.642 
86 1 -1.951 -4.254 -6.096 
87 1 -4.855 4.512 -8.799 
88 1 1.522 2.419 -3.661 
89 1 -1.502 -0.912 -5.850 
90 1 6.406 8.272 -1.783 
91 1 10.466 -8.138 1.422 
92 1 2.683 -9.041 3.146 
93 1 -5.354 1.123 -7.987 
94 1 9.677 4.477 -9.247 
95 1 1.551 -9.588 -1.087 
96 1 -8.737 3.499 -1.881 
97 1 -5.457 6.028 4.785 
98 1 -10.458 4.109 -4.894 
99 1 -6.714 9.339 -3.680 
100 1 8.663 -0.543 -2.851 
101 1 1.904 8.795 4.703 
102 1 -9.114 -5.472 1.965 
103 1 9.271 -6.133 -4.180 
104 1 -5.174 7.749 -9.555 
105 1 -5.880 -8.570 9.573 
106 1 6.732 -2.927 -5.838 
107 1 1.675 -2.741 1.784 
108 1 6.340 8.158 -8.465 
109 1 -4.995 5.441 1.362 
110 1 0.573 1.686 8.313 
111 1 -0.833 -4.616 7.774 
112 1 9.436 8.932 7.126 
113 1 9.891 0.966 -8.710 
114 1 7.056 1.367 9.380 
115 1 -8.600 -8.014 -5.694 
116 1 4.155 -4.816 1.005 
117 1 8.964 -1.441 3.898 
118 1 -5.009 -3.438 -2.968 
119 1 8.965 -9.197 -8.692 
120 1 -2.093 -3.532 4.217 
121 1 6.681 3.191 -8.353 
122 1 -6.237 5.787 -5.535 
123 1 -3.918 9.515 -0.694 
124 1 3.010 0.570 5.137 
125 1 1.844 -1.042 -4.774 
126 1 9.618 -2.515 7.659 
127 1 -3.759 2.421 5.956 
128 1 -9.712 8.165 -3.003 
129 1 -2.450 9.093 -10.169 
130 1 7.980 -5.127 10.418 
131 1 -0.310 0.012 4.177 
132 1 -9.273 9.377 3.645 
133 1 5.492 2.979 -3.411 
134 1 -7.603 -8.249 -8.984 
135 1 7.431 -4.821 3.176 
136 1 -2.083 -0.497 7.098 
137 1 -0.112 3.791 -0.310 
138 1 0.483 8.171 -2.132 
139 1 -2.454 -8.433 -5.588 
140 1 -0.354 8.700 7.844 
141 1 -5.867 1.302 -4.143 
142 1 -7.345 -0.585 2.053 
143 1 -2.814 -6.428 -2.596 
144 1 -3.493 10.724 6.045 
145 1 -9.295 7.143 6.206 
146 1 -4.841 -5.618 -5.361 
147 1 -8.397 -0.407 -2.508 
148 1 0.318 5.230 2.997 
149 1 -6.652 -2.343 -7.190 
150 1 -1.267 -7.727 6.569 
151 1 3.422 2.791 -0.952 
152 1 9.930 7.079 0.268 
153 1 1.707 -3.121 5.039 
154 1 -3.583 -9.098 -8.797 
155 1 -3.172 5.121 9.065 
156 1 -0.119 5.699 -4.235 
157 1 7.747 5.986 10.277 
158 1 -3.705 -3.044 9.024 
159 1 -8.181 5.734 -8.913 
160 1 -8.133 -3.392 7.536 
161 1 -5.594 10.609 -6.894 
162 1 6.440 -7.765 7.070 
163 1 0.071 -3.932 -1.861 
164 1 4.364 6.933 9.586 
165 1 -3.036 7.064 -3.328 
166 1 -4.435 -5.120 -9.197 
167 1 -1.885 2.589 2.564 
168 1 -2.051 6.684 1.044 
169 1 -3.823 -0.364 2.220 
170 1 -8.639 5.937 2.734 
171 1 2.956 -0.952 -0.979 
172 1 2.797 5.047 5.659 
173 1 -3.099 3.495 -1.905 
174 1 -10.554 -4.335 -9.670 
175 1 5.909 -2.507 7.265 
176 1 3.283 2.388 -10.021 
177 1 7.135 9.190 -5.441 
178 1 2.842 0.992 1.840 
179 1 -5.922 -8.252 4.830 
180 1 -2.907 -2.816 -0.747 
181 1 -8.918 -6.785 9.298 
182 1 -6.358 -3.110 3.755 
183 1 6.638 1.150 2.628 
184 1 -1.815 6.748 -7.689 
185 1 7.840 2.423 -1.171 
186 1 -2.433 9.853 -5.589 
187 1 -2.009 -9.078 9.594 
188 1 6.650 4.381 4.002 
189 1 9.303 5.252 6.606 
190 1 4.822 -5.980 4.099 
191 1 -1.468 9.824 1.204 
192 1 -3.242 -2.245 -8.382 
193 1 -5.228 -8.599 -3.394 
194 1 2.194 7.278 -5.515 
195 1 10.699 1.223 9.077 
196 1 -4.813 9.708 8.656 
197 1 -4.009 1.911 9.287 
198 1 -1.238 0.684 -9.094 
199 1 7.331 -1.977 0.635 
200 1 4.242 -7.823 -5.596 
ITEM: TIMESTEP
14000
ITEM: NUMBER OF ATOMS
200
ITEM: BOX BOUNDS pp pp pp
-10.725124871596057 10.725124871596057
-10.725124871596057 10.725124871596057
-10.725124871596057 10.725124871596057
ITEM: ATOMS id type x y z
1 1 5.699 5.779 -0.506 
2 1 3.025 5.450 -2.570 
3 1 2.616 4.085 -6.864 
4 1 -1.656 5.458 6.789 
5 1 -6.996 -3.914 0.290 
6 1 4.270 10.673 8.810 
7 1 4.784 -1.682 3.674 
8 1 1.149 10.595 9.988 
9 1 4.367 9.915 0.594 
10 1 -6.272 6.690 -1.801 
11 1 1.521 -6.465 5.138 
12 1 9.838 -10.214 3.943 
13 1 -8.563 -5.536 -1.927 
14 1 10.292 -7.068 6.101 
15 1 5.358 -2.178 -8.571 
16 1 0.740 10.576 -8.194 
17 1 -3.947 -9.695 2.617 
18 1 0.671 10.559 -5.054 
19 1 -6.411 2.464 3.127 
20 1 -2.317 0.327 -2.065 
21 1 2.884 -0.519 -10.287 
22 1 0.601 -7.753 -7.306 
23 1 5.654 5.389 -5.523 
24 1 10.220 6.653 -6.149 
25 1 -8.728 -10.446 -9.706 
26 1 5.239 -10.305 -7.229 
27 1 9.832 2.846 3.295 
28 1 -8.640 8.778 -6.899 
29 1 -1.045 3.463 -7.000 
30 1 -9.176 0.301 5.424 
31 1 -5.542 2.072 -0.581 
32 1 3.529 4.374 1.681 
33 1 1.062 0.937 -6.819 
34 1 10.677 5.583 9.551 
35 1 2.021 -9.965 6.576 
36 1 -8.848 3.098 -8.500 
37 1 4.727 -5.278 8.161 
38 1 -0.830 -8.238 2.984 
39 1 -6.975 2.270 7.091 
40 1 0.911 6.087 9.559 
41 1 0.405 -7.050 -4.153 
42 1 9.223 -10.143 -3.649 
43 1 -10.527 -3.266 0.481 
44 1 4.729 0.835 -6.374 
45 1 4.153 10.404 -3.685 
46 1 -8.738 10.643 7.655 
47 1 -5.278 -5.305 6.413 
48 1 5.371 -7.834 -1.403 
49 1 2.214 -1.058 8.084 
50 1 3.301 6.445 -8.772 
51 1 -1.718 8.208 4.436 
52 1 5.047 3.249 8.753 
53 1 6.869 -5.539 -7.739 
54 1 8.090 10.680 1.234 
55 1 2.532 -4.777 -8.827 
56 1 -7.077 -0.480 10.572 
57 1 4.827 7.580 3.331 
58 1 9.605 -3.191 -7.485 
59 1 1.344 -7.400 10.050 
60 1 -0.750 -0.594 0.805 
61 1 8.543 8.137 3.463 
62 1 -9.509 -3.482 -4.317 
63 1 6.190 10.535 4.340 
64 1 -7.279 -8.102 0.242 
65 1 -7.445 5.335 9.268 
66 1 -9.077 -9.795 -1.895 
67 1 8.011 1.385 6.217 
68 1 8.376 5.474 -3.449 
69 1 -0.253 -4.378 -10.668 
70 1 -6.413 9.176 5.956 
71 1 -10.102 0.929 0.753 
72 1 8.228 -5.789 -1.029 
73 1 -8.453 9.245 0.083 
74 1 -9.585 -0.337 -6.355 
75 1 0.441 -6.979 -0.172 
76 1 7.442 -10.184 9.757 
77 1 -4.303 -6.297 1.789 
78 1 3.574 -3.884 -4.335 
79 1 5.225 -7.591 -10.711 
80 1 -9.180 -3.320 4.594 
81 1 0.779 -2.208 -8.064 
82 1 -5.718 8.470 1.671 
83 1 -1.923 -10.140 -3.017 
84 1 -6.493 -1.385 6.944 
85 1 9.938 8.373 -9.799 
86 1 -1.240 -4.832 -6.318 
87 1 -5.383 4.028 -8.492 
88 1 1.041 2.677 -4.129 
89 1 -1.282 -1.334 -5.588 
90 1 6.829 8.600 -1.750 
91 1 10.678 -7.887 1.041 
92 1 2.794 -9.216 2.577 
93 1 -5.386 0.402 -7.737 
94 1 9.649 4.700 -9.116 
95 1 0.855 -10.497 -0.767 
96 1 -8.318 3.536 -1.215 
97 1 -5.410 6.346 4.461 
98 1 -10.416 3.301 -5.100 
99 1 -7.112 9.468 -3.399 
100 1 8.519 -0.935 -3.055 
101 1 1.977 8.708 3.851 
102 1 -8.975 -5.637 2.354 
103 1 9.419 -6.939 -5.834 
104 1 -5.908 7.665 -10.005 
105 1 -5.507 -8.243 9.417 
106 1 6.160 -2.191 -4.930 
107 1 1.419 -2.999 2.139 
108 1 7.051 8.208 -8.403 
109 1 -5.092 5.199 1.133 
110 1 -0.048 2.270 7.512 
111 1 -0.616 -4.261 7.031 
112 1 8.400 9.356 7.205 
113 1 10.065 0.324 -9.127 
114 1 7.137 0.863 9.613 
115 1 -8.230 -8.038 -4.870 
116 1 4.292 -4.839 0.923 
117 1 8.652 -1.435 3.862 
118 1 -5.902 -2.639 -2.845 
119 1 8.126 -8.337 -9.165 
120 1 -2.712 -3.533 3.761 
121 1 6.334 3.669 -8.578 
122 1 -6.617 5.894 -5.613 
123 1 -3.857 9.548 -0.857 
124 1 2.268 1.604 4.871 
125 1 1.653 -1.328 -4.307 
126 1 9.977 -2.843 8.087 
127 1 -3.811 2.497 5.638 
128 1 -10.008 7.746 -3.478 
129 1 -2.309 9.611 -10.388 
130 1 7.232 -4.356 10.234 
131 1 -0.442 -0.464 4.284 
132 1 -8.860 9.578 3.609 
133 1 6.458 2.711 -4.043 
134 1 -6.864 -7.872 -8.558 
135 1 7.804 -4.551 3.715 
136 1 -2.208 -1.094 7.213 
137 1 0.249 3.002 -0.040 
138 1 1.113 7.432 -0.146 
139 1 -2.199 -8.447 -5.878 
140 1 -0.076 8.580 7.103 
141 1 -5.686 0.631 -4.551 
142 1 -7.327 -0.815 2.150 
143 1 -2.389 -6.257 -2.635 
144 1 -3.463 -10.201 6.163 
145 1 -9.480 7.216 5.654 
146 1 -5.335 -6.366 -5.099 
147 1 -8.591 0.555 -2.428 
148 1 0.245 5.446 3.231 
149 1 -6.201 -2.442 -6.083 
150 1 -1.253 -7.637 6.465 
151 1 3.421 2.644 -1.010 
152 1 9.626 7.299 -0.624 
153 1 2.253 -2.902 5.307 
154 1 -3.232 -9.132 -8.834 
155 1 -3.360 5.218 9.648 
156 1 -0.897 5.928 -4.263 
157 1 7.182 5.769 9.518 
158 1 -4.362 -2.752 9.391 
159 1 -8.602 6.219 -8.724 
160 1 -8.577 -3.799 8.009 
161 1 -6.197 -10.558 -6.645 
162 1 6.545 -8.282 5.995 
163 1 0.005 -3.804 -2.179 
164 1 3.898 7.317 9.683 
165 1 -4.023 7.445 -4.061 
166 1 -4.523 -5.110 -9.197 
167 1 -1.530 2.290 3.163 
168 1 -2.355 6.924 1.081 
169 1 -4.106 -0.316 1.680 
170 1 -8.950 6.089 2.100 
171 1 3.161 -2.132 -0.855 
172 1 3.080 4.896 6.018 
173 1 -3.233 4.004 -2.333 
174 1 -10.366 -5.071 -9.700 
175 1 5.304 -1.824 6.888 
176 1 2.915 3.280 -10.068 
177 1 6.762 8.415 -4.704 
178 1 2.936 0.275 1.895 
179 1 -6.837 -8.837 5.603 
180 1 -3.007 -2.875 -0.403 
181 1 -8.997 -6.883 9.196 
182 1 -6.162 -3.594 3.285 
183 1 6.210 1.703 2.652 
184 1 -1.957 6.928 -7.929 
185 1 8.313 2.449 0.033 
186 1 -2.484 9.609 -6.595 
187 1 -2.008 -8.463 9.425 
188 1 6.791 4.557 4.665 
189 1 9.512 5.591 6.362 
190 1 4.640 -5.607 4.336 
191 1 -0.622 10.038 1.705 
192 1 -2.991 -2.113 -9.159 
193 1 -4.988 -8.944 -2.737 
194 1 2.067 7.265 -5.386 
195 1 -10.319 1.899 8.959 
196 1 -5.438 9.707 8.891 
197 1 -4.499 1.769 9.298 
198 1 -1.483 0.534 -9.593 
199 1 7.853 -1.314 0.407 
200 1 4.418 -6.928 -5.556 
ITEM: TIMESTEP
15000
ITEM: NUMBER OF ATOMS
200
ITEM: BOX BOUNDS pp pp pp
-10.725124871596057 10.725124871596057
-10.725124871596057 10.725124871596057
-10.725124871596057 10.725124871596057
ITEM: ATOMS id type x y z
1 1 5.327 5.842 -0.012 
2 1 2.769 4.641 -2.721 
3 1 3.246 3.480 -6.253 
4 1 -1.948 5.207 6.719 
5 1 -7.151 -3.619 -0.194 
6 1 3.919 -10.692 9.036 
7 1 5.684 -2.348 3.276 
8 1 0.912 10.546 9.429 
9 1 4.215 9.495 -0.337 
10 1 -6.005 5.972 -2.048 
11 1 1.606 -6.569 5.617 
12 1 9.887 -10.285 4.352 
13 1 -8.531 -6.088 -2.251 
14 1 10.367 -7.185 5.971 
15 1 4.731 -2.178 -8.774 
16 1 0.115 10.437 -8.566 
17 1 -4.043 -9.404 1.708 
18 1 0.672 10.378 -4.517 
19 1 -5.895 2.578 3.836 
20 1 -2.716 0.668 -2.099 
21 1 2.425 -0.379 -10.072 
22 1 1.066 -7.969 -8.178 
23 1 5.357 5.708 -5.236 
24 1 10.184 6.677 -6.217 
25 1 -8.883 -9.513 -9.598 
26 1 4.963 -9.825 -7.434 
27 1 10.547 3.095 4.008 
28 1 -8.945 9.271 -6.814 
29 1 -0.440 3.643 -6.554 
30 1 -9.343 0.488 5.124 
31 1 -5.587 1.911 -0.951 
32 1 3.130 3.866 1.689 
33 1 1.239 0.955 -7.021 
34 1 -10.363 4.681 10.050 
35 1 1.982 -9.852 6.580 
36 1 -9.382 2.933 -8.556 
37 1 4.220 -5.483 7.512 
38 1 -1.280 -7.638 3.005 
39 1 -7.230 2.054 6.868 
40 1 1.021 5.884 9.341 
41 1 0.682 -7.348 -4.234 
42 1 9.445 -10.271 -4.259 
43 1 10.480 -3.028 0.393 
44 1 4.878 0.835 -5.496 
45 1 4.187 -10.290 -3.517 
46 1 -8.861 -10.346 8.047 
47 1 -4.459 -6.098 7.318 
48 1 6.083 -8.007 -1.829 
49 1 1.796 -1.065 8.241 
50 1 3.114 6.189 -8.392 
51 1 -2.355 7.837 4.269 
52 1 5.206 3.462 8.968 
53 1 6.686 -4.904 -7.954 
54 1 7.788 -10.722 1.020 
55 1 2.345 -5.052 -8.521 
56 1 -6.768 -1.835 10.678 
57 1 5.209 7.151 4.249 
58 1 9.664 -2.631 -7.779 
59 1 1.394 -7.137 9.872 
60 1 -0.213 -0.720 0.515 
61 1 8.230 7.614 2.654 
62 1 -9.554 -3.004 -4.337 
63 1 6.350 -10.451 4.041 
64 1 -7.651 -9.164 1.083 
65 1 -6.993 5.181 9.846 
66 1 -9.176 -9.449 -2.480 
67 1 8.881 2.531 6.945 
68 1 8.308 5.437 -3.617 
69 1 -0.398 -4.531 10.312 
70 1 -6.353 9.091 5.643 
71 1 10.542 0.664 0.752 
72 1 8.109 -5.938 -0.369 
73 1 -8.747 9.166 -0.160 
74 1 -9.394 0.395 -6.621 
75 1 1.382 -6.747 -0.786 
76 1 7.676 -10.392 9.721 
77 1 -4.682 -5.981 2.084 
78 1 3.530 -4.947 -3.325 
79 1 5.562 -7.480 -9.919 
80 1 -9.334 -3.192 4.302 
81 1 0.453 -2.285 -8.179 
82 1 -5.149 8.767 1.898 
83 1 -2.322 -10.017 -3.400 
84 1 -5.733 -1.100 6.278 
85 1 9.829 8.365 -10.622 
86 1 -1.024 -4.470 -6.061 
87 1 -4.002 3.327 -7.318 
88 1 0.542 2.136 -4.067 
89 1 -1.555 -1.488 -5.617 
90 1 7.106 9.168 -1.853 
91 1 10.134 -8.372 0.946 
92 1 2.673 -9.374 2.379 
93 1 -5.578 0.321 -8.139 
94 1 8.917 4.631 -8.797 
95 1 0.800 -10.544 -1.401 
96 1 -8.129 4.222 -0.104 
97 1 -5.192 6.017 4.566 
98 1 -10.154 3.731 -5.452 
99 1 -7.049 9.564 -3.163 
100 1 9.068 -0.423 -3.049 
101 1 1.758 8.256 3.638 
102 1 -8.437 -6.039 2.827 
103 1 9.997 -5.597 -5.754 
104 1 -5.687 8.203 -9.450 
105 1 -5.664 -8.639 9.384 
106 1 6.210 -2.378 -5.814 
107 1 0.997 -3.810 1.913 
108 1 6.869 8.064 -8.175 
109 1 -4.704 5.280 1.495 
110 1 0.347 2.489 7.691 
111 1 0.201 -4.075 7.219 
112 1 9.103 9.240 6.953 
113 1 9.597 0.689 -8.637 
114 1 7.242 0.320 9.765 
115 1 -8.419 -7.571 -5.822 
116 1 4.780 -4.458 -0.024 
117 1 8.832 -1.724 4.051 
118 1 -5.796 -2.637 -2.944 
119 1 8.407 -9.413 -8.659 
120 1 -2.352 -3.260 4.097 
121 1 6.245 2.841 -9.210 
122 1 -6.242 6.436 -5.537 
123 1 -3.488 8.990 -0.666 
124 1 1.960 1.378 4.719 
125 1 1.770 -0.839 -4.261 
126 1 9.723 -2.493 7.414 
127 1 -3.792 2.219 6.161 
128 1 -10.125 7.829 -3.024 
129 1 -2.365 9.177 10.622 
130 1 7.464 -4.015 10.463 
131 1 -0.550 -0.512 3.773 
132 1 -8.624 9.763 3.285 
133 1 7.297 2.806 -4.726 
134 1 -6.720 -7.048 -8.635 
135 1 8.010 -5.481 3.681 
136 1 -1.937 -0.552 7.245 
137 1 -0.374 2.575 -0.224 
138 1 1.579 6.710 0.308 
139 1 -1.848 -7.993 -6.679 
140 1 0.629 8.308 7.228 
141 1 -5.386 0.382 -4.233 
142 1 -7.511 -0.314 0.692 
143 1 -2.666 -6.624 -2.319 
144 1 -3.617 -10.514 4.983 
145 1 -9.502 7.078 6.867 
146 1 -5.037 -5.949 -5.069 
147 1 -9.071 1.590 -2.302 
148 1 0.009 5.266 3.910 
149 1 -5.638 -2.969 -6.492 
150 1 -1.097 -7.962 6.280 
151 1 4.031 1.761 -1.835 
152 1 9.956 6.743 -0.131 
153 1 2.758 -2.830 5.149 
154 1 -4.057 -9.370 -9.208 
155 1 -2.860 5.303 10.503 
156 1 -1.170 7.299 -3.352 
157 1 7.784 5.787 9.604 
158 1 -3.505 -2.953 9.272 
159 1 -8.500 6.546 -8.705 
160 1 -8.178 -3.593 7.706 
161 1 -6.270 -10.214 -6.927 
162 1 7.243 -8.312 7.416 
163 1 -0.062 -2.837 -2.212 
164 1 5.058 7.596 10.114 
165 1 -4.252 8.336 -3.934 
166 1 -3.474 -6.170 -9.222 
167 1 -2.486 2.888 2.907 
168 1 -1.924 6.741 1.051 
169 1 -4.282 -0.535 1.658 
170 1 -9.542 5.941 2.977 
171 1 3.454 -1.759 -1.609 
172 1 2.984 5.111 5.788 
173 1 -3.205 3.976 -2.943 
174 1 -10.121 -6.174 -9.160 
175 1 5.903 -2.417 7.297 
176 1 2.126 3.413 -10.017 
177 1 6.454 9.025 -4.951 
178 1 3.057 0.351 1.746 
179 1 -7.161 -8.298 5.858 
180 1 -2.993 -3.115 -0.571 
181 1 -8.311 -6.696 8.384 
182 1 -5.978 -3.107 3.472 
183 1 6.769 1.399 2.552 
184 1 -3.039 6.803 -8.065 
185 1 7.488 3.030 -0.621 
186 1 -2.668 9.605 -6.657 
187 1 -1.695 -8.602 9.597 
188 1 6.685 4.188 4.671 
189 1 8.940 6.118 6.157 
190 1 4.419 -6.418 2.892 
191 1 -0.645 10.576 2.360 
192 1 -2.951 -2.467 -9.094 
193 1 -5.426 -8.654 -2.808 
194 1 2.682 7.622 -5.214 
195 1 -9.861 1.095 8.945 
196 1 -4.895 9.438 8.500 
197 1 -4.856 0.967 9.266 
198 1 -1.576 1.376 -9.680 
199 1 7.584 -1.128 0.202 
200 1 4.903 -7.102 -5.069 
ITEM: TIMESTEP
16000
ITEM: NUMBER OF ATOMS
200
ITEM: BOX BOUNDS pp pp pp
-10.725124871596057 10.725124871596057
-10.725124871596057 10.725124871596057
-10.725124871596057 10.725124871596057
ITEM: ATOMS id type x y z
1 1 5.493 5.056 -0.461 
2 1 2.683 4.694 -3.018 
3 1 3.602 3.509 -6.471 
4 1 -2.156 5.507 6.802 
5 1 -6.667 -4.198 0.240 
6 1 4.466 -10.443 9.052 
7 1 5.878 -3.018 2.935 
8 1 1.039 -10.695 9.776 
9 1 3.231 9.967 0.083 
10 1 -6.185 6.106 -2.516 
11 1 1.732 -6.492 5.818 
12 1 8.882 -10.120 4.828 
13 1 -9.375 -5.830 -2.469 
14 1 10.204 -6.589 6.229 
15 1 4.891 -1.231 -7.825 
16 1 1.308 9.311 -8.220 
17 1 -4.314 -9.658 1.262 
18 1 0.632 10.019 -5.117 
19 1 -6.109 2.470 3.923 
20 1 -2.304 0.157 -2.427 
21 1 3.367 -0.728 10.573 
22 1 1.796 -8.626 -7.243 
23 1 6.038 5.606 -5.928 
24 1 9.761 7.196 -6.014 
25 1 -9.707 -10.101 -10.058 
26 1 5.323 -9.314 -8.138 
27 1 -10.125 2.817 3.549 
28 1 -9.235 9.340 -6.683 
29 1 -1.373 3.868 -6.575 
30 1 -9.467 0.439 5.920 
31 1 -5.186 1.873 -0.833 
32 1 3.220 4.256 2.744 
33 1 0.757 1.054 -6.919 
34 1 10.562 4.751 9.972 
35 1 1.966 -10.427 6.601 
36 1 -8.679 2.904 -8.501 
37 1 4.021 -5.638 8.021 
38 1 -1.340 -8.000 3.011 
39 1 -7.518 2.306 7.964 
40 1 1.259 6.837 9.567 
41 1 0.627 -7.259 -3.897 
42 1 9.216 -10.185 -4.002 
43 1 -10.535 -3.294 0.097 
44 1 5.030 0.732 -5.371 
45 1 3.384 -10.522 -3.202 
46 1 -8.676 -10.153 8.302 
47 1 -3.461 -5.599 7.286 
48 1 5.816 -7.668 -1.760 
49 1 1.929 -0.491 7.351 
50 1 2.857 6.477 -8.721 
51 1 -2.288 8.214 4.508 
52 1 5.349 3.108 8.834 
53 1 6.350 -5.745 -8.015 
54 1 8.202 -10.507 1.194 
55 1 2.386 -4.826 -9.030 
56 1 -6.965 -2.470 10.456 
57 1 5.077 7.669 5.297 
58 1 10.174 -1.762 -8.798 
59 1 1.831 -7.539 9.875 
60 1 -0.356 -0.935 0.382 
61 1 8.291 8.214 3.241 
62 1 -8.987 -2.459 -4.731 
63 1 5.582 -10.416 4.306 
64 1 -7.672 -9.567 0.915 
65 1 -6.742 4.456 10.114 
66 1 -10.124 -9.676 -1.518 
67 1 9.081 2.305 6.889 
68 1 7.987 5.538 -3.029 
69 1 -0.347 -4.637 10.184 
70 1 -6.608 9.663 5.798 
71 1 10.559 0.113 0.696 
72 1 8.584 -6.063 -0.375 
73 1 -9.146 8.600 0.195 
74 1 -10.191 0.213 -6.305 
75 1 0.222 -6.127 -0.443 
76 1 8.086 -10.198 9.401 
77 1 -4.521 -6.491 2.555 
78 1 2.737 -4.686 -2.947 
79 1 5.595 -7.592 10.697 
80 1 -10.008 -3.574 4.221 
81 1 0.486 -1.866 -8.763 
82 1 -5.994 8.321 2.352 
83 1 -2.254 -9.804 -2.926 
84 1 -6.471 -0.723 6.974 
85 1 9.874 8.349 10.501 
86 1 -0.782 -4.600 -5.834 
87 1 -4.929 3.270 -6.784 
88 1 0.663 2.018 -3.345 
89 1 -1.830 -1.231 -5.618 
90 1 6.554 9.955 -1.761 
91 1 10.664 -8.443 1.936 
92 1 2.251 -9.324 2.995 
93 1 -6.290 0.441 -8.147 
94 1 9.058 4.852 -8.325 
95 1 0.213 10.230 -1.358 
96 1 -8.834 4.453 -0.287 
97 1 -5.122 5.867 4.809 
98 1 -10.537 3.820 -4.850 
99 1 -7.237 10.214 -3.066 
100 1 9.452 -1.363 -2.573 
101 1 2.386 8.271 3.569 
102 1 -7.921 -6.016 3.143 
103 1 9.392 -5.476 -6.256 
104 1 -5.297 8.470 -9.531 
105 1 -5.773 -9.572 9.424 
106 1 7.963 -2.257 -6.183 
107 1 1.089 -4.138 2.170 
108 1 6.962 7.742 -8.400 
109 1 -4.991 4.704 0.968 
110 1 0.991 3.233 8.469 
111 1 -0.248 -3.495 7.058 
112 1 9.463 8.948 6.997 
113 1 9.199 1.423 -8.950 
114 1 7.063 0.218 9.304 
115 1 -8.501 -8.410 -4.935 
116 1 4.760 -4.427 0.354 
117 1 8.827 -1.393 3.306 
118 1 -5.554 -2.332 -2.409 
119 1 8.711 -9.382 -8.671 
120 1 -2.463 -3.384 3.588 
121 1 6.080 2.532 -9.079 
122 1 -6.198 6.507 -5.699 
123 1 -3.823 9.038 -0.673 
124 1 1.785 1.392 4.522 
125 1 2.214 -1.784 -4.828 
126 1 9.802 -1.383 7.982 
127 1 -4.163 2.316 6.668 
128 1 -9.543 7.658 -3.507 
129 1 -1.669 9.182 10.110 
130 1 6.920 -3.663 10.155 
131 1 -0.217 -1.015 3.585 
132 1 -9.772 9.907 2.883 
133 1 7.926 2.778 -6.102 
134 1 -6.452 -6.469 -8.701 
135 1 8.016 -5.394 3.744 
136 1 -2.492 -0.729 6.097 
137 1 -0.532 2.964 0.272 
138 1 1.835 6.588 0.094 
139 1 -2.474 -8.094 -6.207 
140 1 0.620 7.815 6.419 
141 1 -6.045 0.498 -4.891 
142 1 -7.062 0.028 1.225 
143 1 -2.603 -6.559 -2.346 
144 1 -3.311 -10.290 5.794 
145 1 -9.213 7.076 6.825 
146 1 -4.545 -5.239 -5.160 
147 1 -8.928 1.278 -2.293 
148 1 -0.010 5.172 4.168 
149 1 -6.234 -2.830 -7.036 
150 1 -1.097 -7.962 6.280 
151 1 3.943 1.741 -2.317 
152 1 9.195 5.571 0.629 
153 1 2.322 -3.029 5.245 
154 1 -4.332 -9.340 -9.178 
155 1 -3.434 5.453 10.054 
156 1 -0.844 7.193 -3.581 
157 1 7.307 5.247 10.098 
158 1 -4.152 -2.940 9.107 
159 1 -8.701 6.044 -8.282 
160 1 -8.588 -3.250 7.673 
161 1 -6.038 10.518 -6.744 
162 1 6.863 -7.529 7.388 
163 1 -0.229 -2.934 -2.508 
164 1 4.738 7.478 10.225 
165 1 -3.951 8.949 -3.740 
166 1 -3.497 -5.615 -10.038 
167 1 -2.820 2.476 3.189 
168 1 -2.048 6.751 1.370 
169 1 -3.419 -0.195 1.740 
170 1 -9.448 6.306 3.196 
171 1 4.475 -1.636 -2.031 
172 1 3.594 4.825 6.174 
173 1 -2.409 4.367 -2.737 
174 1 10.361 -6.204 -9.749 
175 1 6.385 -2.876 6.376 
176 1 2.238 2.967 -10.132 
177 1 6.387 9.239 -5.057 
178 1 3.108 0.145 1.622 
179 1 -7.095 -8.648 5.829 
180 1 -3.394 -3.254 -0.281 
181 1 -8.535 -6.519 8.935 
182 1 -5.887 -2.721 3.757 
183 1 6.973 1.496 2.144 
184 1 -2.431 6.664 -7.964 
185 1 7.128 1.948 -1.367 
186 1 -2.015 10.318 -7.312 
187 1 -1.550 -8.714 9.849 
188 1 7.125 4.160 4.217 
189 1 9.403 6.088 5.669 
190 1 4.102 -7.094 2.278 
191 1 -0.617 10.371 3.009 
192 1 -3.164 -2.503 -8.986 
193 1 -5.497 -8.250 -2.655 
194 1 2.640 7.523 -5.535 
195 1 -10.004 1.298 9.860 
196 1 -4.800 8.946 8.496 
197 1 -4.914 0.650 9.845 
198 1 -0.606 1.053 -10.578 
199 1 7.728 -1.415 0.047 
200 1 4.347 -7.115 -4.907 
ITEM: TIMESTEP
17000
ITEM: NUMBER OF ATOMS
200
ITEM: BOX BOUNDS pp pp pp
-10.725124871596057 10.725124871596057
-10.725124871596057 10.725124871596057
-10.725124871596057 10.725124871596057
ITEM: ATOMS id type x y z
1 1 6.484 4.349 0.375 
2 1 2.214 4.699 -2.774 
3 1 3.165 4.046 -6.513 
4 1 -1.936 5.318 6.970 
5 1 -6.892 -4.733 0.208 
6 1 3.938 -10.007 8.626 
7 1 5.708 -3.086 2.995 
8 1 0.982 10.403 9.189 
9 1 3.377 9.670 0.069 
10 1 -6.017 6.207 -1.891 
11 1 1.305 -7.039 5.284 
12 1 9.608 -9.250 4.430 
13 1 -9.052 -6.557 -1.800 
14 1 9.824 -6.950 7.246 
15 1 3.946 -1.435 -8.320 
16 1 0.751 9.125 -8.582 
17 1 -3.826 -9.398 2.016 
18 1 0.447 10.106 -4.740 
19 1 -7.087 3.492 4.088 
20 1 -2.078 -0.278 -2.893 
21 1 3.024 -0.542 9.813 
22 1 1.196 -8.064 -7.108 
23 1 6.513 5.532 -5.588 
24 1 9.934 7.290 -5.841 
25 1 -8.897 -10.347 -10.061 
26 1 5.269 -9.715 -7.052 
27 1 -10.451 3.428 3.557 
28 1 -8.782 9.677 -6.118 
29 1 -1.174 3.867 -6.504 
30 1 -9.308 0.645 5.864 
31 1 -4.629 1.940 -1.740 
32 1 3.503 5.293 1.633 
33 1 0.562 1.046 -6.889 
34 1 -10.487 5.515 9.203 
35 1 1.658 -10.252 5.748 
36 1 -8.064 3.087 -8.093 
37 1 3.787 -4.601 8.266 
38 1 -1.358 -7.066 2.740 
39 1 -7.920 3.107 7.431 
40 1 0.786 6.606 9.670 
41 1 0.104 -8.023 -3.739 
42 1 8.505 -9.991 -3.338 
43 1 10.349 -3.908 0.671 
44 1 4.722 0.472 -5.217 
45 1 3.458 -10.534 -3.330 
46 1 -9.306 -10.159 7.405 
47 1 -4.735 -5.159 7.192 
48 1 5.223 -8.104 -1.382 
49 1 0.387 -0.210 7.607 
50 1 2.973 6.614 -8.267 
51 1 -2.738 7.870 4.803 
52 1 4.497 2.828 8.735 
53 1 6.634 -4.577 -8.164 
54 1 6.995 -10.148 1.174 
55 1 2.403 -4.820 -9.139 
56 1 -7.485 -2.954 -10.419 
57 1 5.260 7.721 4.662 
58 1 10.130 -2.212 -9.915 
59 1 1.913 -7.629 9.857 
60 1 0.645 -0.445 -0.753 
61 1 9.189 8.276 3.488 
62 1 -9.156 -2.672 -4.652 
63 1 5.850 -9.427 4.939 
64 1 -7.002 -9.187 0.090 
65 1 -5.995 4.361 10.333 
66 1 -10.046 -9.753 -0.658 
67 1 8.724 1.824 7.193 
68 1 8.539 5.926 -3.078 
69 1 -0.689 -4.319 10.224 
70 1 -6.116 9.583 5.664 
71 1 10.660 0.006 0.192 
72 1 8.284 -5.318 -1.430 
73 1 -9.594 8.661 0.763 
74 1 -10.307 -0.114 -6.831 
75 1 -0.102 -5.443 -0.210 
76 1 7.298 -10.676 9.477 
77 1 -4.590 -5.814 2.276 
78 1 3.137 -4.388 -2.963 
79 1 6.098 -7.953 -10.090 
80 1 -10.118 -2.983 4.354 
81 1 0.513 -1.478 -8.897 
82 1 -6.437 8.304 2.660 
83 1 -2.652 -9.883 -2.934 
84 1 -6.151 -0.419 6.791 
85 1 10.227 8.616 10.671 
86 1 -1.117 -5.420 -5.960 
87 1 -4.614 2.685 -5.827 
88 1 0.937 1.710 -3.310 
89 1 -2.281 -0.674 -6.391 
90 1 6.603 8.594 -1.208 
91 1 -10.342 -7.413 1.412 
92 1 1.577 -9.032 2.481 
93 1 -6.439 0.370 -8.193 
94 1 9.249 5.299 -8.238 
95 1 0.020 9.735 -1.583 
96 1 -9.307 4.768 -0.422 
97 1 -5.499 6.314 5.435 
98 1 -9.821 3.755 -5.180 
99 1 -7.014 9.643 -2.636 
100 1 8.460 -1.326 -3.066 
101 1 2.237 8.392 3.127 
102 1 -8.020 -5.758 3.189 
103 1 9.724 -5.227 -6.237 
104 1 -5.848 8.145 -9.195 
105 1 -5.102 -8.751 8.184 
106 1 7.657 -1.389 -7.005 
107 1 1.943 -3.933 2.215 
108 1 7.267 7.982 -8.797 
109 1 -4.652 4.598 0.753 
110 1 0.682 3.132 8.672 
111 1 0.294 -3.732 6.545 
112 1 9.447 9.009 7.098 
113 1 8.982 1.574 -9.335 
114 1 6.664 0.040 9.125 
115 1 -8.156 -8.912 -4.472 
116 1 4.741 -4.482 0.238 
117 1 8.455 -0.928 3.649 
118 1 -5.265 -2.177 -2.201 
119 1 8.930 -8.902 -7.370 
120 1 -2.134 -4.231 4.140 
121 1 5.652 2.641 -8.887 
122 1 -5.613 6.699 -6.004 
123 1 -3.588 8.874 -0.310 
124 1 2.534 1.109 4.907 
125 1 2.169 -1.551 -4.821 
126 1 10.614 -1.693 7.774 
127 1 -3.326 2.383 7.390 
128 1 -9.574 7.397 -2.923 
129 1 -2.368 9.228 10.524 
130 1 7.579 -3.914 9.730 
131 1 -0.008 -1.308 3.342 
132 1 -8.970 9.881 3.769 
133 1 7.739 2.739 -6.091 
134 1 -7.181 -6.517 -8.665 
135 1 8.865 -5.755 3.884 
136 1 -3.206 -1.301 5.259 
137 1 -0.910 2.566 1.002 
138 1 0.810 6.701 0.061 
139 1 -3.098 -7.879 -6.039 
140 1 0.071 7.918 6.568 
141 1 -6.553 -0.021 -4.626 
142 1 -7.375 -0.430 0.743 
143 1 -2.778 -6.624 -1.856 
144 1 -3.324 -10.271 5.749 
145 1 -8.883 7.521 6.747 
146 1 -4.378 -4.793 -5.621 
147 1 -9.482 1.053 -3.225 
148 1 0.261 4.839 4.310 
149 1 -6.240 -2.678 -7.240 
150 1 -1.756 -6.766 6.980 
151 1 3.894 2.220 -1.233 
152 1 9.169 6.637 0.159 
153 1 2.960 -2.435 4.895 
154 1 -4.650 -8.839 -9.389 
155 1 -2.886 5.572 10.642 
156 1 -0.477 6.657 -4.192 
157 1 7.366 4.724 10.345 
158 1 -4.000 -2.424 8.595 
159 1 -8.456 6.618 -7.757 
160 1 -7.899 -3.521 7.634 
161 1 -5.919 -10.701 -6.933 
162 1 6.147 -7.272 7.414 
163 1 -0.223 -3.282 -2.994 
164 1 4.549 7.613 10.395 
165 1 -4.025 8.869 -4.542 
166 1 -3.320 -5.380 -9.386 
167 1 -3.446 3.169 4.005 
168 1 -1.874 6.701 1.991 
169 1 -3.535 -0.051 1.423 
170 1 -9.388 6.213 3.016 
171 1 4.722 -1.479 -1.671 
172 1 2.628 5.297 6.183 
173 1 -2.089 3.856 -2.844 
174 1 -10.168 -6.470 -10.023 
175 1 6.342 -4.046 6.426 
176 1 1.862 3.169 -9.267 
177 1 6.724 9.114 -4.825 
178 1 4.070 0.152 1.742 
179 1 -6.703 -8.972 4.792 
180 1 -2.317 -3.368 -0.310 
181 1 -7.907 -6.701 8.524 
182 1 -6.916 -2.536 3.829 
183 1 7.525 1.373 1.486 
184 1 -2.638 7.089 -7.947 
185 1 7.415 1.801 -1.910 
186 1 -1.726 10.705 -7.227 
187 1 -1.673 -8.900 10.176 
188 1 6.768 4.468 3.393 
189 1 9.702 5.722 6.003 
190 1 4.311 -6.920 2.451 
191 1 -0.609 10.130 3.265 
192 1 -3.578 -1.819 -9.560 
193 1 -5.787 -7.601 -2.959 
194 1 3.149 7.115 -5.146 
195 1 -9.482 1.045 9.888 
196 1 -4.980 8.368 8.885 
197 1 -4.549 0.930 10.272 
198 1 -1.061 0.854 10.593 
199 1 7.658 -1.849 0.302 
200 1 4.605 -6.909 -4.974 
ITEM: TIMESTEP
18000
ITEM: NUMBER OF ATOMS
200
ITEM: BOX BOUNDS pp pp pp
-10.725124871596057 10.725124871596057
-10.725124871596057 10.725124871596057
-10.725124871596057 10.725124871596057
ITEM: ATOMS id type x y z
1 1 6.694 4.583 0.082 
2 1 2.326 5.000 -2.519 
3 1 3.181 4.282 -6.593 
4 1 -1.965 5.208 6.195 
5 1 -6.381 -5.255 -0.106 
6 1 3.629 10.532 7.989 
7 1 6.154 -3.220 2.979 
8 1 0.716 -10.715 9.258 
9 1 3.636 9.097 -0.392 
10 1 -5.549 6.380 -2.138 
11 1 1.435 -7.078 4.869 
12 1 9.655 -9.051 4.960 
13 1 -8.993 -4.985 -2.406 
14 1 9.906 -6.469 7.017 
15 1 3.811 -0.968 -8.452 
16 1 0.702 8.613 -8.519 
17 1 -3.855 -10.330 2.226 
18 1 0.381 10.174 -4.736 
19 1 -6.946 1.826 4.391 
20 1 -2.224 0.397 -2.642 
21 1 3.387 -0.572 9.683 
22 1 1.936 -8.136 -7.364 
23 1 6.469 5.462 -5.695 
24 1 10.343 7.106 -5.696 
25 1 -8.396 -9.555 -9.370 
26 1 4.150 -10.705 -8.019 
27 1 -10.144 1.708 2.743 
28 1 -8.938 9.940 -6.137 
29 1 -0.505 4.433 -5.551 
30 1 -9.657 -0.139 6.427 
31 1 -5.324 1.823 -0.769 
32 1 3.456 5.689 2.041 
33 1 0.655 1.745 -7.628 
34 1 -10.565 5.343 9.538 
35 1 1.324 -10.718 5.211 
36 1 -8.088 3.381 -8.134 
37 1 3.646 -5.479 8.160 
38 1 -1.371 -7.263 3.004 
39 1 -8.168 3.496 7.378 
40 1 0.786 6.606 9.670 
41 1 0.107 -7.756 -2.905 
42 1 8.976 -10.536 -3.209 
43 1 -10.580 -3.812 0.475 
44 1 5.246 0.144 -4.841 
45 1 3.689 10.591 -3.699 
46 1 -9.156 -10.486 7.480 
47 1 -5.131 -4.821 6.038 
48 1 4.285 -7.468 -0.683 
49 1 0.479 0.382 6.955 
50 1 2.433 6.298 -8.906 
51 1 -2.372 8.055 4.525 
52 1 4.550 2.928 8.464 
53 1 7.546 -4.821 -8.843 
54 1 7.167 10.703 1.494 
55 1 3.065 -4.882 -10.071 
56 1 -7.857 -2.797 -10.570 
57 1 6.070 7.759 5.027 
58 1 10.285 -2.159 -10.040 
59 1 2.149 -7.776 9.498 
60 1 1.312 -0.558 -0.307 
61 1 9.425 8.830 3.243 
62 1 -8.966 -3.032 -4.996 
63 1 5.011 -10.024 5.067 
64 1 -6.648 -8.624 0.483 
65 1 -6.587 4.768 10.632 
66 1 -9.306 -10.272 -1.089 
67 1 8.829 2.062 7.566 
68 1 8.527 5.285 -3.007 
69 1 -0.202 -4.020 10.158 
70 1 -5.305 9.409 5.631 
71 1 10.486 0.067 -0.156 
72 1 9.039 -5.907 -1.627 
73 1 -8.477 8.773 0.611 
74 1 -10.167 -0.678 -6.725 
75 1 -0.142 -5.912 0.247 
76 1 6.738 10.520 8.831 
77 1 -4.826 -6.335 2.352 
78 1 2.565 -4.755 -3.641 
79 1 5.648 -7.297 -9.868 
80 1 -10.290 -3.067 4.575 
81 1 0.230 -1.305 -9.137 
82 1 -5.681 8.216 2.356 
83 1 -2.758 -10.008 -3.089 
84 1 -6.026 -0.282 6.540 
85 1 10.312 8.656 10.264 
86 1 -0.513 -5.080 -5.567 
87 1 -4.333 2.504 -5.987 
88 1 1.086 1.621 -3.574 
89 1 -1.627 -0.239 -6.003 
90 1 6.281 8.359 -1.985 
91 1 -10.393 -7.644 0.945 
92 1 1.957 -8.495 1.482 
93 1 -6.727 0.595 -8.782 
94 1 8.739 5.648 -8.090 
95 1 0.560 10.268 -1.437 
96 1 -9.746 4.095 -1.041 
97 1 -5.036 5.878 5.180 
98 1 -9.571 3.987 -4.977 
99 1 -7.154 9.814 -3.001 
100 1 7.972 -1.877 -3.970 
101 1 3.072 9.056 3.184 
102 1 -8.228 -5.236 3.429 
103 1 10.069 -5.262 -5.266 
104 1 -5.857 8.010 -8.908 
105 1 -5.297 -8.726 8.200 
106 1 8.208 -1.414 -7.382 
107 1 2.493 -3.337 2.905 
108 1 6.927 8.719 -9.550 
109 1 -5.407 4.535 1.529 
110 1 0.891 3.641 8.649 
111 1 0.117 -3.296 6.358 
112 1 9.517 8.658 7.085 
113 1 9.489 1.684 -9.073 
114 1 6.568 0.317 9.580 
115 1 -9.026 -8.241 -4.241 
116 1 3.955 -4.214 -0.142 
117 1 8.650 -0.128 4.443 
118 1 -5.075 -2.484 -2.307 
119 1 9.435 -8.969 -6.464 
120 1 -2.472 -4.064 3.444 
121 1 5.249 2.930 -8.719 
122 1 -5.721 5.477 -5.484 
123 1 -3.745 8.818 -0.174 
124 1 2.504 2.051 4.470 
125 1 1.790 -1.378 -5.598 
126 1 8.960 -2.372 7.187 
127 1 -3.133 1.531 7.014 
128 1 -9.140 6.877 -2.779 
129 1 -2.126 9.847 10.178 
130 1 7.475 -4.998 9.200 
131 1 0.577 -0.527 2.960 
132 1 -9.092 10.448 4.125 
133 1 7.838 2.249 -6.217 
134 1 -6.682 -6.239 -8.552 
135 1 8.861 -5.404 3.519 
136 1 -3.116 -0.759 4.767 
137 1 -0.380 2.157 1.278 
138 1 0.808 6.323 0.058 
139 1 -3.761 -7.851 -6.749 
140 1 0.046 8.305 7.094 
141 1 -6.269 0.159 -4.679 
142 1 -7.395 -1.244 0.581 
143 1 -3.322 -6.469 -2.010 
144 1 -2.817 -9.435 5.635 
145 1 -8.505 7.203 6.784 
146 1 -4.092 -4.631 -5.459 
147 1 -9.887 1.131 -3.153 
148 1 0.618 4.773 3.854 
149 1 -6.208 -2.707 -7.184 
150 1 -1.904 -6.775 7.399 
151 1 4.311 2.326 -1.502 
152 1 8.592 7.135 0.453 
153 1 3.152 -1.578 5.702 
154 1 -4.823 -8.702 -10.141 
155 1 -2.304 4.854 10.001 
156 1 -1.221 7.178 -2.706 
157 1 7.562 4.606 9.914 
158 1 -2.664 -1.951 8.254 
159 1 -8.390 6.694 -7.450 
160 1 -8.482 -3.317 7.358 
161 1 -5.530 10.357 -6.196 
162 1 6.249 -7.868 7.747 
163 1 -0.242 -3.072 -2.466 
164 1 4.743 6.862 9.453 
165 1 -3.948 8.132 -4.230 
166 1 -3.805 -5.615 -10.389 
167 1 -3.033 3.502 3.616 
168 1 -2.378 6.190 1.399 
169 1 -3.881 -0.026 1.408 
170 1 -8.560 5.527 3.505 
171 1 5.004 -1.281 -1.922 
172 1 3.092 5.793 6.559 
173 1 -2.608 3.857 -2.911 
174 1 10.491 -6.392 10.703 
175 1 6.437 -4.392 5.963 
176 1 2.369 3.255 -9.755 
177 1 6.841 8.946 -5.970 
178 1 3.978 -0.156 1.813 
179 1 -6.999 -8.252 4.502 
180 1 -2.780 -2.965 0.050 
181 1 -8.103 -6.921 8.566 
182 1 -6.316 -2.408 3.581 
183 1 7.182 1.508 1.597 
184 1 -2.936 6.907 -7.304 
185 1 8.273 1.688 -2.148 
186 1 -2.320 10.391 -7.139 
187 1 -1.723 -8.075 10.602 
188 1 6.671 4.555 3.380 
189 1 10.209 5.252 5.866 
190 1 4.896 -6.784 3.321 
191 1 -0.346 10.095 2.731 
192 1 -3.470 -2.371 -9.450 
193 1 -5.491 -8.104 -3.821 
194 1 3.512 7.526 -5.201 
195 1 -9.730 0.814 9.567 
196 1 -6.477 8.182 9.383 
197 1 -4.553 0.185 10.022 
198 1 -1.147 1.360 9.650 
199 1 7.864 -2.128 0.330 
200 1 4.542 -7.053 -5.129 
ITEM: TIMESTEP
19000
ITEM: NUMBER OF ATOMS
200
ITEM: BOX BOUNDS pp pp pp
-10.725124871596057 10.725124871596057
-10.725124871596057 10.725124871596057
-10.725124871596057 10.725124871596057
ITEM: ATOMS id type x y z
1 1 6.295 5.139 -0.004 
2 1 2.634 4.989 -2.943 
3 1 2.918 4.403 -6.297 
4 1 -2.347 5.646 6.813 
5 1 -6.362 -5.732 -0.222 
6 1 3.675 10.354 8.349 
7 1 5.515 -2.128 3.116 
8 1 0.385 10.383 10.065 
9 1 3.180 8.973 -0.576 
10 1 -5.336 6.323 -1.769 
11 1 1.581 -6.076 5.419 
12 1 9.645 -9.992 4.353 
13 1 -8.898 -5.471 -2.123 
14 1 9.418 -7.656 8.095 
15 1 3.599 -1.404 -8.559 
16 1 1.455 9.459 -7.894 
17 1 -3.978 -10.597 2.879 
18 1 0.634 10.385 -4.638 
19 1 -6.837 1.526 3.800 
20 1 -2.722 -0.008 -2.812 
21 1 3.724 -0.757 9.081 
22 1 1.054 -8.473 -6.949 
23 1 6.811 5.179 -5.654 
24 1 10.071 7.827 -6.020 
25 1 -8.896 -9.657 -9.706 
26 1 4.387 -9.708 -8.060 
27 1 10.499 2.549 3.298 
28 1 -9.424 10.440 -6.360 
29 1 -0.221 4.666 -4.863 
30 1 -9.472 -0.219 5.950 
31 1 -6.075 1.231 -1.505 
32 1 3.461 5.654 2.003 
33 1 0.662 1.651 -6.859 
34 1 -10.096 5.455 9.152 
35 1 1.125 -9.577 4.993 
36 1 -8.311 3.139 -7.896 
37 1 3.698 -5.872 8.011 
38 1 -1.105 -7.926 2.903 
39 1 -7.919 3.402 7.051 
40 1 1.105 6.355 9.518 
41 1 -0.013 -7.792 -2.989 
42 1 8.948 10.441 -3.487 
43 1 -9.745 -3.011 0.963 
44 1 5.022 0.149 -5.081 
45 1 4.156 -9.740 -4.628 
46 1 -9.166 -9.526 8.350 
47 1 -4.990 -4.938 6.250 
48 1 4.067 -7.133 -1.145 
49 1 0.622 0.315 6.742 
50 1 2.595 6.484 -8.826 
51 1 -2.634 8.036 4.444 
52 1 4.762 2.625 8.598 
53 1 7.948 -5.096 -7.909 
54 1 7.049 -9.901 1.377 
55 1 3.672 -4.429 -9.534 
56 1 -7.241 -3.112 10.520 
57 1 5.635 8.255 4.770 
58 1 10.610 -2.672 -9.840 
59 1 2.028 -7.297 10.548 
60 1 1.091 -1.008 -0.871 
61 1 9.395 8.316 3.399 
62 1 -8.748 -2.029 -3.839 
63 1 6.136 -9.970 4.806 
64 1 -7.370 -9.148 0.395 
65 1 -6.542 4.919 10.287 
66 1 -9.492 10.632 -1.806 
67 1 9.333 3.064 6.921 
68 1 8.643 4.854 -2.547 
69 1 -0.430 -4.169 10.491 
70 1 -5.321 9.685 6.118 
71 1 -10.657 0.500 0.137 
72 1 9.317 -5.369 -2.215 
73 1 -8.381 8.480 0.327 
74 1 10.581 -0.471 -6.406 
75 1 0.705 -6.251 0.044 
76 1 7.093 10.470 9.450 
77 1 -4.901 -6.763 3.080 
78 1 2.654 -4.627 -3.438 
79 1 5.381 -7.230 -10.002 
80 1 10.700 -3.380 4.987 
81 1 0.082 -0.725 -9.594 
82 1 -5.395 7.994 2.196 
83 1 -2.672 -9.503 -3.335 
84 1 -6.420 0.143 6.812 
85 1 10.271 9.483 10.696 
86 1 -0.351 -5.498 -6.310 
87 1 -4.637 2.398 -6.262 
88 1 0.643 1.477 -3.600 
89 1 -2.200 -1.078 -6.327 
90 1 6.045 7.732 -2.769 
91 1 -10.297 -7.548 0.953 
92 1 2.386 -8.720 1.310 
93 1 -6.876 0.280 -8.271 
94 1 9.225 6.081 -8.951 
95 1 0.084 10.719 -1.336 
96 1 -10.425 4.175 -0.271 
97 1 -5.815 5.608 4.548 
98 1 -9.674 3.937 -4.795 
99 1 -6.231 9.495 -2.872 
100 1 8.275 -2.288 -4.661 
101 1 2.468 8.880 3.026 
102 1 -8.171 -5.628 3.171 
103 1 -10.492 -4.426 -5.187 
104 1 -5.310 8.295 -8.280 
105 1 -5.791 -9.472 8.479 
106 1 7.486 -0.998 -7.560 
107 1 2.187 -3.657 2.496 
108 1 6.051 8.354 -9.487 
109 1 -5.913 4.377 0.995 
110 1 0.522 3.674 7.986 
111 1 -0.305 -3.509 5.518 
112 1 9.693 8.197 6.834 
113 1 9.186 1.909 -9.320 
114 1 7.276 -0.385 10.397 
115 1 -9.397 -8.100 -3.927 
116 1 4.628 -3.907 -0.198 
117 1 8.646 -0.863 3.763 
118 1 -5.267 -2.451 -1.914 
119 1 9.338 -9.160 -7.546 
120 1 -2.562 -4.105 2.928 
121 1 5.589 2.660 -8.362 
122 1 -5.472 5.377 -5.713 
123 1 -3.390 9.488 -0.220 
124 1 2.629 1.719 4.308 
125 1 2.519 -1.528 -5.586 
126 1 9.908 -2.197 8.345 
127 1 -3.455 2.097 6.976 
128 1 -9.682 6.683 -2.870 
129 1 -3.129 9.538 10.707 
130 1 7.018 -4.641 9.717 
131 1 0.231 -1.040 3.176 
132 1 -8.782 9.897 3.898 
133 1 8.449 2.235 -5.726 
134 1 -7.335 -6.061 -8.484 
135 1 8.642 -6.156 4.500 
136 1 -3.227 -0.889 4.680 
137 1 -0.725 2.273 1.060 
138 1 0.750 6.647 -0.038 
139 1 -3.166 -7.751 -6.395 
140 1 0.579 8.310 6.600 
141 1 -6.042 -0.036 -4.430 
142 1 -6.819 -1.177 0.631 
143 1 -2.616 -6.023 -1.955 
144 1 -2.481 -9.802 6.452 
145 1 -8.111 7.673 6.188 
146 1 -5.113 -4.663 -4.791 
147 1 -10.046 0.683 -3.304 
148 1 0.132 5.405 3.118 
149 1 -6.294 -2.559 -7.222 
150 1 -1.654 -6.427 7.151 
151 1 4.528 2.165 -0.901 
152 1 9.236 7.955 -0.865 
153 1 3.103 -1.863 5.375 
154 1 -5.055 -9.325 -9.350 
155 1 -3.095 5.943 10.174 
156 1 -0.957 7.165 -2.526 
157 1 8.052 4.984 9.763 
158 1 -2.796 -1.481 8.080 
159 1 -8.488 6.365 -7.336 
160 1 -7.932 -3.475 6.709 
161 1 -5.160 -10.663 -6.447 
162 1 6.261 -8.115 7.737 
163 1 -0.450 -2.957 -3.543 
164 1 4.584 7.114 8.697 
165 1 -3.964 8.175 -4.576 
166 1 -3.865 -6.014 -10.312 
167 1 -3.102 3.093 3.639 
168 1 -2.344 5.901 1.213 
169 1 -4.060 0.203 1.609 
170 1 -8.717 5.225 3.385 
171 1 4.992 -0.993 -1.605 
172 1 2.921 4.808 5.933 
173 1 -2.893 3.971 -2.538 
174 1 10.612 -5.491 10.470 
175 1 6.026 -4.801 5.747 
176 1 2.616 3.158 -10.136 
177 1 7.136 9.611 -6.747 
178 1 3.666 -0.049 1.842 
179 1 -6.843 -8.650 5.417 
180 1 -1.715 -2.957 -0.282 
181 1 -7.927 -6.516 8.146 
182 1 -6.506 -2.144 3.646 
183 1 6.861 1.666 1.776 
184 1 -1.941 5.822 -7.927 
185 1 8.209 0.644 -2.126 
186 1 -1.962 10.356 -6.691 
187 1 -1.327 -8.122 10.277 
188 1 6.367 4.858 3.529 
189 1 10.171 5.635 5.093 
190 1 4.651 -6.401 3.261 
191 1 -0.806 9.997 2.384 
192 1 -3.702 -1.663 -9.525 
193 1 -5.816 -8.625 -3.229 
194 1 2.861 7.961 -4.788 
195 1 -9.851 1.324 9.351 
196 1 -6.605 8.548 9.182 
197 1 -4.985 0.937 10.447 
198 1 -1.280 1.555 9.926 
199 1 8.113 -3.211 0.696 
200 1 4.776 -6.597 -5.466 
ITEM: TIMESTEP
20000
ITEM: NUMBER OF ATOMS
200
ITEM: BOX BOUNDS pp pp pp
-10.725124871596057 10.725124871596057
-10.725124871596057 10.725124871596057
-10.725124871596057 10.725124871596057
ITEM: ATOMS id type x y z
1 1 6.442 5.452 0.711 
2 1 2.738 4.862 -2.387 
3 1 3.455 3.566 -5.602 
4 1 -2.366 5.445 6.705 
5 1 -5.904 -5.196 0.013 
6 1 3.101 -9.937 7.683 
7 1 5.193 -2.274 3.390 
8 1 0.344 9.155 9.908 
9 1 2.885 8.696 -0.901 
10 1 -5.223 6.080 -1.993 
11 1 1.829 -7.085 5.333 
12 1 10.176 -9.713 5.252 
13 1 -7.978 -4.868 -2.898 
14 1 8.992 -7.925 8.643 
15 1 4.092 -1.322 -8.430 
16 1 1.313 9.806 -7.148 
17 1 -4.150 -10.452 3.735 
18 1 0.274 10.595 -4.197 
19 1 -7.114 0.996 3.444 
20 1 -2.279 0.384 -2.065 
21 1 3.211 -0.145 9.846 
22 1 1.542 -8.197 -6.075 
23 1 7.270 5.480 -5.018 
24 1 10.412 7.447 -5.007 
25 1 -8.154 10.606 -9.880 
26 1 4.224 -9.477 -8.189 
27 1 10.356 3.136 3.768 
28 1 -9.772 10.128 -6.520 
29 1 0.190 4.995 -4.477 
30 1 -9.968 -0.026 6.305 
31 1 -5.736 1.825 -1.660 
32 1 3.558 5.943 1.747 
33 1 0.379 1.545 -7.228 
34 1 -10.216 5.213 10.658 
35 1 0.905 -10.274 5.373 
36 1 -8.204 3.197 -7.636 
37 1 3.383 -5.486 8.088 
38 1 -1.598 -7.759 1.974 
39 1 -7.661 3.719 6.593 
40 1 2.068 5.291 9.758 
41 1 0.684 -8.093 -2.306 
42 1 8.683 10.322 -2.931 
43 1 -9.880 -2.784 0.453 
44 1 5.127 0.202 -4.491 
45 1 4.899 -10.173 -4.206 
46 1 -9.061 -9.333 8.423 
47 1 -5.023 -4.948 6.142 
48 1 4.149 -7.496 -1.839 
49 1 0.377 -0.267 6.735 
50 1 2.061 7.683 -9.325 
51 1 -2.964 7.759 3.655 
52 1 4.159 2.624 8.162 
53 1 7.415 -5.367 -7.234 
54 1 6.341 -9.099 1.189 
55 1 3.642 -4.551 -9.482 
56 1 -7.065 -2.810 -10.508 
57 1 6.249 7.853 4.119 
58 1 10.546 -2.793 -9.764 
59 1 2.229 -7.670 -10.295 
60 1 1.386 -1.265 -1.066 
61 1 9.543 8.811 3.448 
62 1 -8.602 -2.073 -4.411 
63 1 6.490 -10.431 4.893 
64 1 -7.250 -9.020 0.966 
65 1 -6.125 4.622 10.384 
66 1 -9.122 -10.352 -2.051 
67 1 9.144 3.208 7.701 
68 1 9.144 4.997 -2.641 
69 1 -0.848 -4.170 9.758 
70 1 -4.885 8.796 6.322 
71 1 -10.715 0.511 1.033 
72 1 9.094 -5.649 -2.304 
73 1 -8.503 8.504 0.049 
74 1 -10.416 -0.179 -6.809 
75 1 0.944 -6.019 0.161 
76 1 6.849 -10.501 10.045 
77 1 -4.690 -7.200 3.899 
78 1 3.732 -4.177 -3.576 
79 1 5.492 -7.469 -10.403 
80 1 -10.465 -3.798 3.864 
81 1 0.568 -1.048 -9.492 
82 1 -5.850 8.082 2.298 
83 1 -2.557 -9.057 -3.616 
84 1 -6.463 0.122 7.128 
85 1 10.674 8.908 9.950 
86 1 -0.418 -5.425 -6.576 
87 1 -4.339 2.716 -7.376 
88 1 0.927 1.513 -4.106 
89 1 -2.114 -1.635 -6.197 
90 1 5.643 6.867 -2.483 
91 1 -9.900 -6.909 0.158 
92 1 2.674 -8.518 1.311 
93 1 -7.000 0.430 -8.150 
94 1 9.568 7.455 -8.564 
95 1 0.109 10.420 -0.884 
96 1 -9.885 3.684 -0.626 
97 1 -5.264 5.002 4.826 
98 1 -9.811 3.869 -4.717 
99 1 -6.213 9.266 -2.545 
100 1 7.578 -2.393 -3.969 
101 1 2.508 9.126 2.583 
102 1 -7.866 -5.466 2.976 
103 1 10.697 -4.846 -5.167 
104 1 -5.759 8.468 -8.093 
105 1 -5.419 -9.485 8.296 
106 1 7.521 -0.979 -8.010 
107 1 2.293 -3.733 2.642 
108 1 5.447 7.982 -9.450 
109 1 -5.700 4.422 0.618 
110 1 -0.069 3.701 7.757 
111 1 -0.691 -3.561 6.160 
112 1 8.038 9.056 7.007 
113 1 8.924 1.784 -9.582 
114 1 7.316 -0.423 9.658 
115 1 -10.648 -8.249 -4.550 
116 1 4.658 -4.127 -0.517 
117 1 8.468 -0.485 3.987 
118 1 -4.918 -2.554 -1.441 
119 1 9.097 -8.719 -7.259 
120 1 -2.076 -4.177 3.106 
121 1 5.456 2.058 -9.691 
122 1 -5.484 5.465 -6.407 
123 1 -4.341 -10.514 0.284 
124 1 1.836 2.040 4.247 
125 1 2.336 -1.415 -5.247 
126 1 10.258 -2.954 8.334 
127 1 -3.141 2.534 7.381 
128 1 -8.901 6.718 -2.566 
129 1 -2.739 9.016 -10.111 
130 1 6.173 -4.481 9.764 
131 1 0.231 -0.824 3.012 
132 1 -8.983 10.085 2.800 
133 1 8.519 1.404 -4.987 
134 1 -7.326 -6.490 -8.877 
135 1 8.153 -6.991 4.419 
136 1 -3.635 -1.318 4.667 
137 1 -0.975 2.394 0.462 
138 1 0.654 6.337 0.009 
139 1 -3.541 -7.405 -6.793 
140 1 -0.231 8.405 6.841 
141 1 -5.387 -0.486 -4.649 
142 1 -7.611 -0.721 0.272 
143 1 -2.877 -5.790 -1.990 
144 1 -2.168 -10.497 7.420 
145 1 -8.487 7.875 6.938 
146 1 -4.936 -4.810 -4.489 
147 1 -8.971 0.743 -2.295 
148 1 0.978 6.138 3.591 
149 1 -6.920 -3.569 -7.239 
150 1 -2.330 -7.220 6.759 
151 1 3.781 2.475 -0.329 
152 1 9.656 7.971 0.187 
153 1 2.869 -2.732 6.224 
154 1 -4.867 -9.093 -9.284 
155 1 -3.052 5.497 10.294 
156 1 -1.234 7.623 -2.821 
157 1 7.278 4.610 10.053 
158 1 -1.995 -0.658 8.873 
159 1 -8.465 6.620 -7.915 
160 1 -7.716 -3.202 6.597 
161 1 -5.198 -10.417 -5.668 
162 1 5.570 -7.747 7.202 
163 1 0.030 -3.731 -3.605 
164 1 4.324 8.352 8.880 
165 1 -3.979 8.052 -4.648 
166 1 -4.206 -5.886 -10.200 
167 1 -3.135 2.840 3.771 
168 1 -2.818 6.018 0.907 
169 1 -3.867 0.901 1.032 
170 1 -8.609 5.794 2.414 
171 1 4.992 -0.993 -1.605 
172 1 2.515 5.184 6.021 
173 1 -2.731 3.928 -2.562 
174 1 -10.684 -5.977 -10.385 
175 1 6.166 -4.120 5.745 
176 1 2.282 3.220 -9.300 
177 1 7.153 10.040 -7.126 
178 1 3.262 -0.126 1.975 
179 1 -7.390 -9.120 4.917 
180 1 -1.273 -3.227 -0.197 
181 1 -8.279 -6.131 8.502 
182 1 -6.447 -2.678 3.157 
183 1 6.558 1.860 1.595 
184 1 -2.403 6.213 -7.251 
185 1 8.360 0.816 -1.424 
186 1 -2.209 9.634 -6.784 
187 1 -1.545 -8.450 9.750 
188 1 6.808 3.981 4.654 
189 1 9.768 5.854 5.632 
190 1 4.968 -6.308 3.691 
191 1 -0.784 9.668 2.117 
192 1 -3.163 -1.072 -9.282 
193 1 -6.574 -8.085 -2.927 
194 1 2.611 7.668 -4.682 
195 1 -9.180 1.250 9.917 
196 1 -6.391 8.245 9.933 
197 1 -4.866 0.773 10.258 
198 1 -1.036 2.165 10.571 
199 1 7.910 -3.530 1.426 
200 1 4.266 -6.807 -6.063 
