ITEM: TIMESTEP
0
ITEM: NUMBER OF ATOMS
200
ITEM: BOX BOUNDS pp pp pp
-10.725124871596057 10.725124871596057
-10.725124871596057 10.725124871596057
-10.725124871596057 10.725124871596057
ITEM: ATOMS id type x y z
1 1 2.985 2.820 2.205 
2 1 3.233 8.840 0.996 
3 1 2.344 1.267 -8.124 
4 1 -1.589 5.130 5.835 
5 1 -7.438 -2.440 2.779 
6 1 2.632 9.552 6.697 
7 1 3.306 -2.374 3.924 
8 1 1.394 8.148 8.550 
9 1 3.361 9.288 2.900 
10 1 -5.366 5.411 -1.297 
11 1 -0.792 -8.296 3.516 
12 1 8.186 9.329 5.584 
13 1 -5.835 -4.783 -1.500 
14 1 -10.504 -6.387 4.792 
15 1 5.170 1.218 8.531 
16 1 -0.157 10.210 -6.997 
17 1 -2.337 -7.559 0.865 
18 1 -0.060 -8.028 -3.512 
19 1 -4.987 1.456 4.171 
20 1 -0.932 0.792 -3.297 
21 1 0.587 -3.120 -9.748 
22 1 -1.448 -5.877 -6.668 
23 1 6.744 6.718 -7.239 
24 1 9.357 7.257 -5.492 
25 1 -7.207 7.888 7.746 
26 1 4.418 -8.664 -9.645 
27 1 -10.519 1.150 2.913 
28 1 -9.019 8.109 -5.371 
29 1 -0.381 3.841 -4.130 
30 1 -7.087 -2.825 5.065 
31 1 -5.685 1.510 3.046 
32 1 0.332 8.347 4.464 
33 1 0.390 -0.656 -6.981 
34 1 -9.332 5.407 8.556 
35 1 -2.712 -8.328 5.556 
36 1 -8.330 1.606 8.820 
37 1 2.975 -6.036 10.077 
38 1 -2.220 -7.775 2.600 
39 1 -5.879 3.392 5.245 
40 1 0.063 3.140 -9.232 
41 1 -0.807 -5.716 -2.889 
42 1 10.589 -10.517 -7.429 
43 1 -10.585 -2.213 1.684 
44 1 1.807 -1.416 -7.210 
45 1 3.887 -10.059 -2.981 
46 1 -4.673 10.310 5.728 
47 1 -7.219 -6.182 5.815 
48 1 1.969 -10.178 2.126 
49 1 4.036 0.928 7.616 
50 1 3.613 6.839 -7.782 
51 1 -4.518 7.689 3.980 
52 1 1.698 4.814 7.134 
53 1 4.561 -8.306 -6.895 
54 1 8.095 9.122 0.907 
55 1 2.814 -3.401 -8.428 
56 1 -7.281 0.714 9.641 
57 1 4.293 6.837 4.711 
58 1 10.170 -1.744 -6.233 
59 1 3.883 -7.860 -8.075 
60 1 -0.087 1.774 -0.602 
61 1 9.320 8.195 2.793 
62 1 -8.186 -4.288 -7.958 
63 1 4.345 10.134 6.416 
64 1 -6.173 -7.367 2.104 
65 1 -5.420 4.522 6.686 
66 1 -6.722 9.202 -2.762 
67 1 8.258 1.965 4.047 
68 1 8.952 3.243 -4.747 
69 1 1.390 -5.346 -10.633 
70 1 -4.958 7.439 5.120 
71 1 10.554 0.889 2.888 
72 1 6.825 -9.516 1.584 
73 1 -6.270 -10.281 1.079 
74 1 -7.150 0.724 -9.225 
75 1 0.457 -7.666 0.554 
76 1 7.071 9.957 9.553 
77 1 -2.677 -5.831 1.035 
78 1 2.028 -6.955 -7.601 
79 1 4.001 -7.592 -10.491 
80 1 -10.366 -1.800 3.344 
81 1 -1.292 -3.600 -6.837 
82 1 -4.951 9.437 4.648 
83 1 -3.488 -8.594 -2.516 
84 1 -4.195 1.006 6.366 
85 1 -10.069 7.404 -9.138 
86 1 -2.328 -6.934 -4.981 
87 1 -3.716 7.192 -6.176 
88 1 -0.276 2.547 -3.453 
89 1 -2.100 -1.867 -4.309 
90 1 3.060 2.703 -1.449 
91 1 9.520 -7.812 1.909 
92 1 0.052 9.486 4.349 
93 1 -5.882 3.045 -5.874 
94 1 8.832 4.156 -5.365 
95 1 0.705 10.069 3.414 
96 1 -6.800 4.131 -3.068 
97 1 -3.130 3.772 5.455 
98 1 -9.077 1.997 -5.920 
99 1 -4.167 7.437 -1.905 
100 1 2.486 -1.506 -3.821 
101 1 -0.475 8.644 4.550 
102 1 -7.567 -6.079 2.350 
103 1 10.664 -3.141 -6.295 
104 1 -6.722 7.569 -8.830 
105 1 -4.171 -8.684 6.929 
106 1 5.304 -4.385 -8.100 
107 1 -0.480 -1.597 0.903 
108 1 6.049 8.126 -9.094 
109 1 -5.517 6.131 3.428 
110 1 -1.075 3.604 7.343 
111 1 1.016 -3.153 7.582 
112 1 6.690 10.025 6.943 
113 1 -9.324 3.072 -8.313 
114 1 6.188 3.898 6.532 
115 1 -6.449 -6.747 -8.857 
116 1 0.550 -2.152 -0.734 
117 1 6.956 -3.040 3.330 
118 1 -5.605 -2.924 -2.170 
119 1 7.666 -7.919 -7.875 
120 1 -2.823 -1.599 6.233 
121 1 3.653 2.267 -10.308 
122 1 -5.493 6.812 -4.109 
123 1 -4.070 7.870 2.255 
124 1 2.868 2.192 4.443 
125 1 0.564 -2.154 -6.924 
126 1 -7.308 -5.647 6.049 
127 1 -3.356 1.787 6.012 
128 1 9.941 8.931 -3.049 
129 1 0.491 8.258 10.094 
130 1 7.502 -2.771 -7.859 
131 1 -3.452 0.112 3.144 
132 1 -7.766 8.157 4.958 
133 1 5.734 -1.350 -7.572 
134 1 9.343 -10.451 9.040 
135 1 8.891 -3.754 3.361 
136 1 -2.076 -1.387 7.803 
137 1 0.904 4.247 1.019 
138 1 -0.906 9.717 -2.213 
139 1 -3.871 -8.257 -8.379 
140 1 -1.667 10.427 7.157 
141 1 -4.272 0.166 -3.739 
142 1 -7.442 0.976 4.813 
143 1 -4.171 -4.911 -2.071 
144 1 -2.109 10.376 6.557 
145 1 -5.532 6.247 4.530 
146 1 -4.877 -3.144 -5.958 
147 1 -9.346 -3.519 -4.671 
148 1 0.116 5.721 5.018 
149 1 -4.687 -2.535 -8.746 
150 1 -3.033 -8.064 4.524 
151 1 4.118 1.396 -0.301 
152 1 -5.842 2.446 4.050 
153 1 2.061 -1.916 6.064 
154 1 -2.712 -8.787 -10.580 
155 1 -3.657 5.985 10.083 
156 1 -0.723 5.309 -0.955 
157 1 8.788 6.703 -10.165 
158 1 -2.406 -1.985 9.025 
159 1 -9.414 5.656 -8.186 
160 1 -5.805 -2.833 8.225 
161 1 -4.431 -9.070 -10.617 
162 1 3.555 -7.069 4.158 
163 1 -0.470 -4.479 -4.812 
164 1 3.926 9.041 6.640 
165 1 -3.957 7.564 -4.765 
166 1 -3.917 -3.415 -8.392 
167 1 -2.575 2.685 3.035 
168 1 -0.566 5.124 0.131 
169 1 -3.613 -0.216 2.854 
170 1 -5.343 6.960 3.950 
171 1 2.835 1.078 -1.068 
172 1 2.645 7.829 4.673 
173 1 -2.283 5.704 -0.757 
174 1 -10.524 -3.185 -9.399 
175 1 7.642 -2.828 8.697 
176 1 3.317 1.607 9.451 
177 1 8.219 9.758 -7.194 
178 1 2.467 2.063 3.542 
179 1 -4.538 -9.739 5.467 
180 1 -2.870 -4.286 -2.150 
181 1 8.052 -8.348 6.696 
182 1 -5.258 -3.736 2.825 
183 1 3.857 2.108 2.572 
184 1 -1.987 6.740 -6.356 
185 1 9.176 0.175 -0.324 
186 1 -1.111 9.787 -6.000 
187 1 -2.902 -9.578 9.067 
188 1 5.602 4.658 4.784 
189 1 8.648 6.750 6.973 
190 1 3.113 -8.300 4.055 
191 1 -2.225 -10.169 3.242 
192 1 -4.050 -3.220 -7.833 
193 1 -5.746 -8.113 -7.831 
194 1 3.581 8.089 -3.319 
195 1 -9.138 1.381 6.434 
196 1 -3.866 6.523 9.199 
197 1 -3.648 1.435 8.020 
198 1 -1.087 0.666 10.028 
199 1 7.000 0.253 0.328 
200 1 4.611 -8.905 -5.534 
ITEM: TIMESTEP
10
ITEM: NUMBER OF ATOMS
200
ITEM: BOX BOUNDS pp pp pp
-10.725124871596057 10.725124871596057
-10.725124871596057 10.725124871596057
-10.725124871596057 10.725124871596057
ITEM: ATOMS id type x y z
1 1 2.820 3.032 2.054 
2 1 3.233 8.839 0.991 
3 1 2.344 1.267 -8.123 
4 1 -1.592 5.131 5.836 
5 1 -7.439 -2.440 2.778 
6 1 2.483 9.623 6.701 
7 1 3.306 -2.374 3.924 
8 1 1.402 8.146 8.535 
9 1 3.362 9.289 2.905 
10 1 -5.366 5.411 -1.297 
11 1 -0.776 -8.302 3.526 
12 1 8.187 9.328 5.583 
13 1 -5.861 -4.785 -1.489 
14 1 -10.504 -6.387 4.792 
15 1 5.264 1.241 8.604 
16 1 -0.061 10.253 -7.097 
17 1 -2.335 -7.576 0.840 
18 1 -0.060 -8.029 -3.512 
19 1 -4.794 1.321 4.323 
20 1 -0.937 0.781 -3.296 
21 1 0.587 -3.120 -9.748 
22 1 -1.447 -5.877 -6.669 
23 1 6.744 6.718 -7.239 
24 1 9.357 7.257 -5.492 
25 1 -7.207 7.888 7.746 
26 1 4.468 -8.786 -9.565 
27 1 -9.997 1.510 2.948 
28 1 -9.019 8.109 -5.371 
29 1 -0.390 3.960 -4.192 
30 1 -7.087 -2.825 5.065 
31 1 -5.752 1.424 2.813 
32 1 0.709 8.110 4.429 
33 1 0.343 -0.543 -6.979 
34 1 -9.332 5.407 8.556 
35 1 -2.618 -8.400 5.839 
36 1 -8.371 1.641 8.788 
37 1 2.981 -6.037 10.072 
38 1 -2.232 -7.771 2.608 
39 1 -5.879 3.495 5.388 
40 1 0.063 3.140 -9.232 
41 1 -0.807 -5.716 -2.888 
42 1 10.589 -10.517 -7.429 
43 1 -10.589 -2.220 1.658 
44 1 1.941 -1.377 -7.238 
45 1 3.887 -10.059 -2.981 
46 1 -4.653 10.247 5.909 
47 1 -7.134 -6.697 5.590 
48 1 1.972 -10.175 2.123 
49 1 3.945 0.904 7.540 
50 1 3.613 6.839 -7.782 
51 1 -4.085 7.949 3.928 
52 1 1.698 4.814 7.134 
53 1 4.646 -8.297 -6.893 
54 1 8.095 9.122 0.906 
55 1 2.815 -3.401 -8.428 
56 1 -7.241 0.679 9.673 
57 1 4.298 6.834 4.711 
58 1 10.129 -1.628 -6.228 
59 1 3.792 -7.798 -8.214 
60 1 -0.087 1.773 -0.602 
61 1 9.320 8.195 2.794 
62 1 -8.186 -4.288 -7.958 
63 1 4.436 10.380 6.365 
64 1 -6.167 -7.372 2.103 
65 1 -5.418 4.528 6.695 
66 1 -6.722 9.202 -2.762 
67 1 8.258 1.965 4.047 
68 1 8.986 2.988 -4.575 
69 1 1.382 -5.342 -10.629 
70 1 -4.944 7.481 5.370 
71 1 10.033 0.529 2.854 
72 1 6.825 -9.516 1.584 
73 1 -6.270 -10.281 1.079 
74 1 -7.150 0.724 -9.225 
75 1 0.457 -7.666 0.554 
76 1 7.070 9.957 9.553 
77 1 -2.681 -5.811 1.036 
78 1 2.026 -6.954 -7.601 
79 1 3.957 -7.479 -10.581 
80 1 -10.363 -1.794 3.370 
81 1 -1.292 -3.599 -6.837 
82 1 -4.994 9.342 4.508 
83 1 -3.488 -8.594 -2.516 
84 1 -4.385 0.829 6.432 
85 1 -10.070 7.406 -9.139 
86 1 -2.329 -6.935 -4.980 
87 1 -3.713 7.164 -6.295 
88 1 -0.262 2.439 -3.392 
89 1 -2.100 -1.867 -4.309 
90 1 3.064 2.738 -1.458 
91 1 9.520 -7.812 1.909 
92 1 0.070 9.774 4.560 
93 1 -5.882 3.045 -5.874 
94 1 8.799 4.411 -5.538 
95 1 0.875 10.194 3.141 
96 1 -6.800 4.131 -3.068 
97 1 -3.132 3.776 5.453 
98 1 -9.077 1.997 -5.920 
99 1 -4.167 7.437 -1.905 
100 1 2.486 -1.506 -3.821 
101 1 -1.045 8.466 4.648 
102 1 -7.572 -6.074 2.351 
103 1 10.703 -3.256 -6.301 
104 1 -6.722 7.569 -8.830 
105 1 -4.172 -8.677 6.944 
106 1 5.304 -4.385 -8.100 
107 1 -0.482 -1.596 0.906 
108 1 6.049 8.126 -9.094 
109 1 -5.536 5.697 3.063 
110 1 -1.075 3.603 7.343 
111 1 1.016 -3.154 7.583 
112 1 6.689 10.025 6.945 
113 1 -9.324 3.072 -8.313 
114 1 6.189 3.896 6.536 
115 1 -6.454 -6.739 -8.863 
116 1 0.552 -2.154 -0.737 
117 1 6.954 -3.039 3.330 
118 1 -5.604 -2.919 -2.171 
119 1 7.666 -7.919 -7.875 
120 1 -2.836 -1.603 6.207 
121 1 3.655 2.271 -10.297 
122 1 -5.505 6.806 -4.105 
123 1 -4.067 7.869 2.217 
124 1 3.021 2.242 4.782 
125 1 0.477 -2.306 -6.898 
126 1 -7.393 -5.131 6.275 
127 1 -3.171 1.954 5.935 
128 1 9.941 8.931 -3.049 
129 1 0.482 8.259 10.109 
130 1 7.503 -2.771 -7.859 
131 1 -3.231 0.553 3.534 
132 1 -7.766 8.157 4.958 
133 1 5.734 -1.349 -7.572 
134 1 9.343 -10.451 9.040 
135 1 8.894 -3.755 3.362 
136 1 -2.022 -1.309 7.680 
137 1 0.916 4.239 1.025 
138 1 -0.906 9.717 -2.213 
139 1 -3.865 -8.258 -8.380 
140 1 -1.377 10.461 7.551 
141 1 -4.272 0.166 -3.739 
142 1 -7.442 0.976 4.813 
143 1 -4.278 -4.978 -2.072 
144 1 -2.399 10.343 6.163 
145 1 -5.600 5.911 4.897 
146 1 -4.905 -3.146 -5.904 
147 1 -9.345 -3.519 -4.670 
148 1 0.120 5.722 5.016 
149 1 -4.829 -2.373 -8.808 
150 1 -3.125 -7.991 4.243 
151 1 4.200 1.415 -0.251 
152 1 -5.974 2.560 3.979 
153 1 2.061 -1.915 6.064 
154 1 -2.688 -8.781 -10.575 
155 1 -3.591 5.813 10.365 
156 1 -0.715 5.348 -1.269 
157 1 8.788 6.703 -10.165 
158 1 -2.446 -2.058 9.175 
159 1 -9.413 5.654 -8.185 
160 1 -5.805 -2.833 8.225 
161 1 -4.455 -9.074 -10.617 
162 1 3.626 -6.872 4.175 
163 1 -0.469 -4.479 -4.812 
164 1 3.983 8.724 6.685 
165 1 -3.965 7.602 -4.649 
166 1 -3.682 -3.724 -8.876 
167 1 -2.575 2.686 3.035 
168 1 -0.535 5.080 0.427 
169 1 -3.832 -0.660 2.462 
170 1 -5.699 7.414 3.783 
171 1 2.750 1.025 -1.109 
172 1 2.642 7.832 4.673 
173 1 -2.335 5.717 -0.745 
174 1 -10.524 -3.185 -9.399 
175 1 7.642 -2.828 8.697 
176 1 3.312 1.604 9.443 
177 1 8.219 9.758 -7.194 
178 1 2.266 1.961 3.280 
179 1 -4.526 -9.574 5.418 
180 1 -2.738 -4.222 -2.158 
181 1 8.052 -8.348 6.696 
182 1 -5.258 -3.737 2.825 
183 1 4.071 1.948 2.646 
184 1 -1.970 6.736 -6.358 
185 1 9.177 0.175 -0.324 
186 1 -1.207 9.745 -5.899 
187 1 -2.902 -9.580 9.063 
188 1 5.601 4.660 4.780 
189 1 8.648 6.750 6.973 
190 1 3.042 -8.497 4.038 
191 1 -2.225 -10.170 3.242 
192 1 -4.116 -3.070 -7.340 
193 1 -5.747 -8.121 -7.823 
194 1 3.581 8.089 -3.319 
195 1 -9.138 1.381 6.434 
196 1 -3.932 6.695 8.918 
197 1 -3.643 1.438 8.034 
198 1 -1.087 0.666 10.028 
199 1 6.999 0.253 0.328 
200 1 4.614 -8.971 -5.385 
ITEM: TIMESTEP
20
ITEM: NUMBER OF ATOMS
200
ITEM: BOX BOUNDS pp pp pp
-10.725124871596057 10.725124871596057
-10.725124871596057 10.725124871596057
-10.725124871596057 10.725124871596057
ITEM: ATOMS id type x y z
1 1 3.426 3.493 1.829 
2 1 3.198 8.714 0.519 
3 1 2.291 1.333 -8.078 
4 1 -1.733 5.648 6.136 
5 1 -7.557 -2.349 2.539 
6 1 2.079 10.012 6.709 
7 1 3.395 -2.415 3.765 
8 1 1.599 7.929 8.240 
9 1 3.612 9.606 3.083 
10 1 -5.464 5.300 -1.184 
11 1 -0.112 -8.460 3.912 
12 1 8.457 9.223 5.329 
13 1 -6.664 -4.960 -1.051 
14 1 -10.503 -6.388 4.794 
15 1 5.813 1.309 8.857 
16 1 0.310 10.417 -7.486 
17 1 -2.308 -8.003 -0.272 
18 1 0.016 -8.207 -3.556 
19 1 -4.927 1.477 4.257 
20 1 -1.217 0.206 -3.247 
21 1 0.447 -2.850 -9.725 
22 1 -1.351 -6.411 -7.004 
23 1 6.782 6.624 -7.118 
24 1 9.382 7.348 -5.487 
25 1 -7.231 7.887 7.809 
26 1 4.966 -9.830 -9.471 
27 1 -9.548 1.837 2.966 
28 1 -9.011 8.110 -5.372 
29 1 -0.496 4.614 -4.628 
30 1 -7.017 -2.663 5.172 
31 1 -5.948 0.816 1.828 
32 1 0.627 7.804 3.862 
33 1 -0.035 0.064 -6.943 
34 1 -9.333 5.406 8.557 
35 1 -1.885 -8.443 6.277 
36 1 -8.693 2.050 8.781 
37 1 3.049 -5.458 9.309 
38 1 -1.999 -7.455 2.312 
39 1 -6.130 3.054 6.259 
40 1 0.057 3.147 -9.234 
41 1 -0.763 -5.858 -2.616 
42 1 10.658 -10.483 -7.436 
43 1 -10.649 -2.348 1.136 
44 1 2.767 -1.090 -7.305 
45 1 3.747 -10.229 -2.592 
46 1 -4.951 10.086 7.011 
47 1 -7.055 -7.213 5.359 
48 1 2.394 -9.685 1.585 
49 1 3.742 0.551 6.933 
50 1 3.597 6.835 -7.778 
51 1 -3.665 7.543 3.932 
52 1 1.740 4.799 7.189 
53 1 5.361 -8.201 -6.987 
54 1 8.013 9.179 0.773 
55 1 2.859 -3.553 -8.498 
56 1 -6.824 0.310 9.773 
57 1 4.909 6.731 4.642 
58 1 9.948 -1.073 -6.187 
59 1 3.470 -7.360 -8.560 
60 1 -0.136 1.752 -0.494 
61 1 9.413 8.121 2.904 
62 1 -8.170 -4.279 -7.945 
63 1 4.434 -10.467 6.146 
64 1 -5.828 -7.657 2.049 
65 1 -5.100 4.996 7.641 
66 1 -6.733 9.220 -2.757 
67 1 8.177 2.055 4.115 
68 1 9.048 2.518 -4.255 
69 1 0.891 -5.427 -10.393 
70 1 -4.933 7.635 6.208 
71 1 9.596 0.195 2.730 
72 1 6.815 -9.512 1.586 
73 1 -6.274 -10.308 1.066 
74 1 -7.161 0.744 -9.022 
75 1 0.492 -7.654 0.548 
76 1 6.998 9.903 9.746 
77 1 -2.797 -5.271 1.044 
78 1 1.337 -6.675 -7.211 
79 1 4.320 -7.585 10.345 
80 1 -10.240 -1.725 3.923 
81 1 -1.384 -3.688 -7.092 
82 1 -5.299 9.709 3.698 
83 1 -3.527 -8.628 -2.558 
84 1 -5.004 0.099 6.762 
85 1 -10.164 7.750 -9.309 
86 1 -2.517 -7.103 -4.727 
87 1 -4.230 7.113 -6.899 
88 1 0.200 2.479 -3.074 
89 1 -2.151 -1.979 -4.388 
90 1 3.084 3.260 -1.620 
91 1 9.525 -7.809 1.909 
92 1 0.017 10.476 5.299 
93 1 -5.877 3.043 -5.882 
94 1 8.720 4.768 -5.865 
95 1 0.698 9.994 2.591 
96 1 -6.874 4.049 -3.122 
97 1 -3.703 4.052 5.093 
98 1 -9.071 1.961 -5.837 
99 1 -4.200 7.702 -1.846 
100 1 2.487 -1.507 -3.824 
101 1 -1.543 8.203 5.002 
102 1 -7.913 -5.763 2.407 
103 1 10.630 -3.810 -6.613 
104 1 -6.721 7.571 -8.832 
105 1 -4.579 -8.294 7.608 
106 1 5.351 -4.453 -8.092 
107 1 -0.693 -1.481 1.245 
108 1 6.002 8.228 -9.227 
109 1 -5.300 5.200 2.310 
110 1 -0.973 3.370 7.583 
111 1 0.865 -3.337 7.802 
112 1 6.689 10.085 7.141 
113 1 -9.335 2.910 -8.417 
114 1 6.322 3.732 6.946 
115 1 -6.605 -6.371 -9.175 
116 1 0.763 -2.273 -1.075 
117 1 6.586 -2.902 3.323 
118 1 -5.529 -2.587 -2.287 
119 1 7.770 -7.905 -7.915 
120 1 -3.180 -1.808 5.652 
121 1 3.877 2.561 -9.805 
122 1 -5.968 6.563 -4.055 
123 1 -4.126 7.887 1.372 
124 1 3.265 2.498 5.211 
125 1 0.825 -2.616 -6.683 
126 1 -7.526 -4.808 6.631 
127 1 -2.535 1.671 5.979 
128 1 9.944 8.941 -3.034 
129 1 0.208 8.296 10.578 
130 1 7.736 -2.901 -7.889 
131 1 -2.458 0.340 3.688 
132 1 -8.039 8.252 5.118 
133 1 5.556 -1.185 -7.541 
134 1 9.443 -10.407 9.019 
135 1 9.242 -3.911 3.371 
136 1 -1.438 -0.841 7.661 
137 1 0.996 4.107 0.846 
138 1 -0.906 9.717 -2.211 
139 1 -3.501 -8.186 -8.254 
140 1 -0.858 10.382 8.011 
141 1 -4.290 0.177 -3.738 
142 1 -7.443 0.809 4.714 
143 1 -4.243 -5.549 -2.379 
144 1 -2.602 10.437 5.750 
145 1 -5.914 5.548 5.045 
146 1 -5.503 -3.265 -5.014 
147 1 -9.101 -3.520 -4.365 
148 1 0.653 5.443 4.783 
149 1 -5.351 -1.910 -9.370 
150 1 -3.680 -7.201 4.300 
151 1 4.588 1.491 -0.008 
152 1 -6.727 3.141 3.032 
153 1 2.114 -1.699 6.000 
154 1 -2.001 -8.564 -10.387 
155 1 -3.479 5.522 -10.609 
156 1 -0.285 5.330 -1.921 
157 1 8.758 6.689 -10.179 
158 1 -2.663 -2.381 9.712 
159 1 -9.291 5.521 -7.979 
160 1 -5.799 -2.827 8.234 
161 1 -4.991 -9.170 -10.664 
162 1 3.820 -6.332 4.218 
163 1 -0.272 -4.385 -4.716 
164 1 4.407 8.102 7.045 
165 1 -3.496 8.036 -4.337 
166 1 -3.370 -4.267 -9.523 
167 1 -2.482 3.063 2.851 
168 1 -1.168 5.487 1.040 
169 1 -3.771 -1.410 2.096 
170 1 -6.400 7.345 3.198 
171 1 2.288 0.457 -1.274 
172 1 2.766 8.044 5.027 
173 1 -2.903 5.775 -0.748 
174 1 -10.537 -3.173 -9.433 
175 1 7.642 -2.828 8.697 
176 1 2.853 1.552 9.334 
177 1 8.151 9.733 -7.189 
178 1 1.567 1.469 3.174 
179 1 -5.138 -9.348 5.222 
180 1 -2.183 -3.660 -2.078 
181 1 8.052 -8.344 6.694 
182 1 -5.168 -3.811 2.829 
183 1 4.757 1.438 2.873 
184 1 -1.453 6.624 -6.342 
185 1 9.435 0.168 -0.411 
186 1 -1.558 9.609 -5.522 
187 1 -2.945 -9.788 8.906 
188 1 5.721 4.315 4.339 
189 1 8.650 6.733 6.984 
190 1 2.891 -8.964 4.137 
191 1 -2.286 -10.290 3.144 
192 1 -4.205 -2.554 -7.112 
193 1 -6.057 -8.507 -7.353 
194 1 3.580 8.085 -3.320 
195 1 -9.418 1.369 6.317 
196 1 -3.924 7.108 8.605 
197 1 -3.472 1.633 8.608 
198 1 -1.069 0.679 10.060 
199 1 6.843 0.205 0.425 
200 1 4.600 -9.234 -4.815 
ITEM: TIMESTEP
30
ITEM: NUMBER OF ATOMS
200
ITEM: BOX BOUNDS pp pp pp
-10.725124871596057 10.725124871596057
-10.725124871596057 10.725124871596057
-10.725124871596057 10.725124871596057
ITEM: ATOMS id type x y z
1 1 3.773 3.984 1.944 
2 1 3.103 8.442 0.190 
3 1 2.117 2.131 -7.880 
4 1 -1.770 5.608 6.896 
5 1 -7.612 -2.192 2.024 
6 1 2.439 10.584 7.546 
7 1 3.325 -2.510 3.295 
8 1 1.509 7.534 8.428 
9 1 4.094 9.673 3.076 
10 1 -6.157 5.356 -0.958 
11 1 0.229 -7.694 4.119 
12 1 8.950 9.401 4.977 
13 1 -7.077 -5.068 -0.785 
14 1 -10.566 -6.488 4.934 
15 1 6.145 1.197 9.219 
16 1 0.704 10.580 -7.898 
17 1 -2.429 -8.426 -0.495 
18 1 0.270 -8.663 -3.734 
19 1 -4.661 1.269 3.941 
20 1 -1.284 0.062 -2.942 
21 1 0.136 -2.351 -9.948 
22 1 -1.258 -6.650 -7.564 
23 1 6.577 6.476 -6.819 
24 1 9.454 7.519 -5.538 
25 1 -7.458 7.831 8.400 
26 1 4.850 -10.122 -9.314 
27 1 -9.920 2.030 2.756 
28 1 -8.823 8.214 -5.408 
29 1 -0.636 4.571 -5.008 
30 1 -6.802 -2.591 5.284 
31 1 -6.184 0.686 1.124 
32 1 0.793 7.517 2.850 
33 1 -0.504 0.240 -6.856 
34 1 -9.512 5.423 8.547 
35 1 -1.625 -7.975 6.724 
36 1 -8.874 2.363 9.191 
37 1 3.239 -5.109 9.018 
38 1 -2.222 -7.255 2.320 
39 1 -6.687 2.675 6.551 
40 1 -0.336 3.537 -9.420 
41 1 -0.714 -6.034 -1.781 
42 1 -10.486 -10.350 -7.444 
43 1 -10.635 -2.551 0.802 
44 1 3.246 -0.647 -7.269 
45 1 3.438 -10.455 -1.898 
46 1 -5.810 10.478 7.757 
47 1 -7.513 -7.148 5.119 
48 1 3.152 -9.425 0.951 
49 1 4.201 0.217 6.806 
50 1 3.254 6.712 -7.663 
51 1 -3.350 6.916 3.825 
52 1 2.187 4.618 7.609 
53 1 5.649 -7.894 -6.994 
54 1 7.861 9.168 0.424 
55 1 2.860 -3.768 -8.863 
56 1 -6.699 0.156 9.574 
57 1 5.521 7.129 4.444 
58 1 9.938 -0.820 -6.133 
59 1 3.240 -7.234 -9.082 
60 1 -0.668 1.489 -0.125 
61 1 9.882 7.592 2.584 
62 1 -7.937 -4.052 -7.783 
63 1 4.991 -9.954 5.962 
64 1 -5.579 -7.575 1.954 
65 1 -5.059 4.942 8.184 
66 1 -7.154 9.583 -2.816 
67 1 8.362 2.125 4.510 
68 1 9.102 2.080 -3.888 
69 1 0.577 -5.736 -10.349 
70 1 -4.908 7.769 6.277 
71 1 9.322 -0.191 2.564 
72 1 6.619 -9.404 1.657 
73 1 -6.424 -10.534 0.718 
74 1 -7.037 0.736 -8.597 
75 1 0.697 -7.392 0.611 
76 1 7.223 10.043 10.386 
77 1 -2.949 -4.749 0.763 
78 1 1.670 -6.505 -6.424 
79 1 4.832 -7.894 9.619 
80 1 -10.069 -1.812 4.439 
81 1 -1.714 -3.563 -7.528 
82 1 -5.347 9.579 3.611 
83 1 -4.217 -9.353 -2.934 
84 1 -5.114 -0.130 6.842 
85 1 -10.135 8.244 -9.486 
86 1 -2.684 -7.090 -4.739 
87 1 -4.444 6.875 -7.287 
88 1 0.720 2.434 -3.210 
89 1 -2.342 -2.217 -4.755 
90 1 3.243 3.863 -1.893 
91 1 9.622 -7.758 1.896 
92 1 0.359 -10.618 5.076 
93 1 -5.721 3.019 -6.119 
94 1 8.895 4.356 -6.165 
95 1 0.467 10.451 1.803 
96 1 -7.366 3.501 -3.244 
97 1 -3.892 4.145 5.044 
98 1 -9.088 1.841 -5.565 
99 1 -4.479 8.237 -1.723 
100 1 2.633 -1.578 -3.937 
101 1 -1.126 8.017 5.443 
102 1 -8.275 -5.567 2.352 
103 1 10.527 -4.353 -6.368 
104 1 -6.899 7.697 -9.108 
105 1 -4.936 -7.551 7.850 
106 1 5.554 -4.911 -7.953 
107 1 -0.546 -1.651 1.261 
108 1 5.588 8.099 -9.338 
109 1 -4.738 4.916 1.796 
110 1 -0.537 3.067 8.348 
111 1 0.494 -3.663 8.109 
112 1 7.149 10.019 7.350 
113 1 -9.683 2.667 -8.856 
114 1 6.398 3.867 7.238 
115 1 -6.514 -6.377 -9.494 
116 1 0.932 -2.704 -1.313 
117 1 6.519 -2.743 3.300 
118 1 -5.517 -2.253 -1.870 
119 1 8.582 -7.819 -8.255 
120 1 -3.226 -2.315 5.392 
121 1 4.525 3.034 -9.873 
122 1 -6.215 6.464 -4.267 
123 1 -3.938 8.314 1.023 
124 1 3.196 2.831 5.224 
125 1 0.828 -2.869 -6.371 
126 1 -7.959 -4.880 7.252 
127 1 -2.307 1.672 6.140 
128 1 10.002 9.126 -2.722 
129 1 -0.054 8.317 -10.332 
130 1 8.318 -3.374 -8.301 
131 1 -1.692 0.040 3.567 
132 1 -8.481 8.523 5.214 
133 1 6.216 -0.342 -7.521 
134 1 9.886 -10.264 8.961 
135 1 9.347 -4.192 3.331 
136 1 -1.007 -0.844 7.483 
137 1 0.978 4.066 0.728 
138 1 -0.893 9.702 -2.098 
139 1 -3.710 -8.504 -8.024 
140 1 -0.563 9.943 8.250 
141 1 -4.520 0.351 -3.805 
142 1 -7.632 0.345 4.451 
143 1 -4.322 -5.689 -2.386 
144 1 -2.958 10.567 5.981 
145 1 -6.831 5.560 5.108 
146 1 -5.818 -3.726 -4.872 
147 1 -8.903 -3.405 -3.931 
148 1 0.621 4.728 4.537 
149 1 -5.638 -2.047 -9.898 
150 1 -3.881 -6.401 4.844 
151 1 4.715 1.683 -0.088 
152 1 -7.099 3.278 2.931 
153 1 1.697 -1.573 5.892 
154 1 -1.326 -8.326 -10.369 
155 1 -3.411 5.208 -10.245 
156 1 0.193 5.682 -1.959 
157 1 8.570 6.520 -10.285 
158 1 -2.717 -2.349 9.743 
159 1 -9.185 5.621 -7.577 
160 1 -5.672 -2.942 8.436 
161 1 -5.555 -9.269 -10.574 
162 1 3.993 -5.864 4.235 
163 1 -0.280 -4.731 -4.564 
164 1 4.788 7.854 7.736 
165 1 -3.251 7.904 -4.595 
166 1 -3.658 -4.812 -9.770 
167 1 -2.216 2.962 2.402 
168 1 -1.446 5.907 1.532 
169 1 -3.885 -1.566 1.670 
170 1 -7.146 7.286 2.319 
171 1 2.202 0.280 -1.334 
172 1 2.498 7.912 5.400 
173 1 -2.928 5.342 -1.170 
174 1 -10.396 -3.015 -9.883 
175 1 7.637 -2.823 8.703 
176 1 2.393 1.544 9.374 
177 1 7.823 9.857 -7.245 
178 1 1.340 1.280 2.983 
179 1 -5.341 -9.230 5.016 
180 1 -2.263 -3.097 -1.769 
181 1 8.065 -8.208 6.634 
182 1 -5.199 -4.210 3.014 
183 1 4.996 0.867 3.179 
184 1 -1.173 6.996 -6.950 
185 1 9.892 0.319 -0.836 
186 1 -1.363 10.200 -5.465 
187 1 -3.082 -10.018 9.100 
188 1 6.011 4.076 4.032 
189 1 8.652 6.600 7.092 
190 1 2.913 -8.883 3.983 
191 1 -2.529 -10.431 2.735 
192 1 -4.411 -1.865 -7.081 
193 1 -6.696 -8.776 -6.939 
194 1 3.573 7.954 -3.389 
195 1 -10.104 1.395 6.277 
196 1 -3.411 7.784 9.096 
197 1 -3.726 1.878 9.125 
198 1 -0.870 0.638 10.452 
199 1 6.934 -0.374 0.576 
200 1 4.491 -9.453 -4.605 
ITEM: TIMESTEP
40
ITEM: NUMBER OF ATOMS
200
ITEM: BOX BOUNDS pp pp pp
-10.725124871596057 10.725124871596057
-10.725124871596057 10.725124871596057
-10.725124871596057 10.725124871596057
ITEM: ATOMS id type x y z
1 1 3.847 4.484 1.916 
2 1 3.191 8.022 -0.016 
3 1 2.122 2.535 -7.563 
4 1 -2.031 5.585 7.236 
5 1 -7.641 -2.069 1.794 
6 1 2.768 -10.649 7.923 
7 1 3.044 -2.487 2.714 
8 1 1.536 7.441 8.721 
9 1 4.182 9.686 2.934 
10 1 -6.634 5.628 -0.982 
11 1 0.359 -6.737 4.517 
12 1 9.213 9.692 4.636 
13 1 -7.357 -5.077 -0.792 
14 1 10.668 -6.617 5.240 
15 1 6.449 0.988 9.499 
16 1 1.052 -10.623 -8.020 
17 1 -2.454 -8.913 -0.529 
18 1 0.464 -8.619 -3.622 
19 1 -4.603 1.007 3.609 
20 1 -1.216 0.151 -3.103 
21 1 0.304 -2.199 -10.083 
22 1 -0.907 -6.720 -7.556 
23 1 6.312 6.373 -6.605 
24 1 9.454 7.497 -5.554 
25 1 -7.619 7.857 8.811 
26 1 4.508 -10.362 -9.207 
27 1 -10.324 2.256 2.491 
28 1 -8.695 8.517 -5.671 
29 1 -1.004 4.492 -5.201 
30 1 -6.892 -2.762 5.370 
31 1 -6.346 0.927 0.504 
32 1 1.194 7.450 2.609 
33 1 -0.724 0.357 -6.861 
34 1 -9.932 5.496 8.422 
35 1 -1.484 -7.935 7.205 
36 1 -9.139 2.413 9.433 
37 1 3.502 -4.984 8.960 
38 1 -2.320 -7.327 2.507 
39 1 -6.975 2.556 6.743 
40 1 -0.375 3.916 -9.355 
41 1 -0.871 -6.067 -1.484 
42 1 -10.326 -10.282 -7.353 
43 1 -10.670 -2.814 0.360 
44 1 3.429 -0.592 -7.478 
45 1 2.873 10.717 -2.053 
46 1 -6.389 -10.583 7.670 
47 1 -7.638 -6.797 5.137 
48 1 3.636 -9.106 0.687 
49 1 4.560 -0.032 6.756 
50 1 2.796 6.554 -7.485 
51 1 -3.180 7.047 4.011 
52 1 2.689 4.514 7.837 
53 1 5.937 -8.014 -7.073 
54 1 7.753 9.083 0.320 
55 1 3.062 -3.700 -9.203 
56 1 -6.799 0.045 9.547 
57 1 6.039 7.411 4.648 
58 1 9.967 -0.878 -6.131 
59 1 3.151 -7.234 -9.334 
60 1 -1.047 1.242 0.008 
61 1 10.148 7.184 2.371 
62 1 -7.916 -3.787 -7.498 
63 1 5.378 -9.803 5.919 
64 1 -5.703 -7.545 1.714 
65 1 -5.322 5.005 8.462 
66 1 -7.748 10.068 -2.747 
67 1 8.431 1.878 4.910 
68 1 9.021 1.939 -3.772 
69 1 0.384 -5.580 -10.532 
70 1 -4.958 7.807 6.527 
71 1 9.183 -0.544 2.620 
72 1 6.753 -9.336 1.910 
73 1 -6.496 -10.682 0.481 
74 1 -7.045 0.751 -8.464 
75 1 0.824 -7.289 1.002 
76 1 7.633 10.285 -10.607 
77 1 -2.982 -4.656 0.778 
78 1 2.249 -6.558 -6.077 
79 1 5.153 -8.161 9.310 
80 1 -10.187 -2.116 4.848 
81 1 -2.034 -3.463 -7.913 
82 1 -5.663 9.430 3.659 
83 1 -4.609 -9.702 -3.155 
84 1 -4.854 -0.209 6.802 
85 1 -10.322 8.436 -9.613 
86 1 -2.835 -7.323 -4.841 
87 1 -4.455 6.615 -7.358 
88 1 1.057 2.510 -3.379 
89 1 -2.480 -2.325 -4.909 
90 1 3.536 4.401 -2.003 
91 1 9.804 -7.722 1.833 
92 1 0.423 -10.265 5.016 
93 1 -5.572 3.146 -6.256 
94 1 9.097 4.101 -6.497 
95 1 0.542 10.626 1.376 
96 1 -7.477 3.129 -3.103 
97 1 -4.420 4.168 5.088 
98 1 -9.176 1.709 -5.654 
99 1 -4.812 8.418 -2.026 
100 1 3.035 -1.474 -3.991 
101 1 -0.693 7.800 5.587 
102 1 -8.794 -5.480 2.308 
103 1 10.407 -4.687 -6.234 
104 1 -6.895 7.901 -9.356 
105 1 -5.177 -7.211 8.199 
106 1 5.705 -4.788 -7.668 
107 1 -0.283 -2.030 1.205 
108 1 5.300 7.770 -9.693 
109 1 -4.641 4.904 1.555 
110 1 -0.279 3.073 8.690 
111 1 0.227 -3.942 7.968 
112 1 7.448 9.764 7.525 
113 1 -10.101 2.554 -8.852 
114 1 6.276 3.951 7.472 
115 1 -6.875 -6.350 -9.615 
116 1 1.286 -3.246 -1.557 
117 1 6.429 -2.610 3.487 
118 1 -5.708 -2.099 -1.683 
119 1 8.969 -7.707 -8.539 
120 1 -3.125 -2.751 5.346 
121 1 4.729 3.333 -9.851 
122 1 -6.301 6.246 -4.468 
123 1 -3.711 8.574 0.875 
124 1 3.307 2.783 5.110 
125 1 0.979 -2.761 -6.508 
126 1 -8.550 -4.940 7.730 
127 1 -2.115 1.969 6.154 
128 1 10.097 9.254 -2.544 
129 1 -0.292 8.400 -10.220 
130 1 8.366 -3.016 -8.591 
131 1 -1.388 -0.288 3.828 
132 1 -8.799 8.844 5.297 
133 1 6.758 -0.095 -7.559 
134 1 10.386 -10.131 8.894 
135 1 9.291 -4.370 3.076 
136 1 -0.972 -0.710 7.588 
137 1 0.895 3.937 0.516 
138 1 -0.889 9.618 -1.955 
139 1 -3.712 -8.770 -7.967 
140 1 -0.449 10.131 8.422 
141 1 -4.697 0.535 -3.868 
142 1 -7.810 0.320 4.238 
143 1 -4.330 -5.794 -2.217 
144 1 -2.966 10.364 6.065 
145 1 -7.372 5.751 5.318 
146 1 -5.645 -3.963 -4.887 
147 1 -8.971 -3.231 -3.652 
148 1 0.378 4.630 4.557 
149 1 -5.864 -2.498 -9.875 
150 1 -3.675 -5.955 5.348 
151 1 5.031 1.903 -0.153 
152 1 -7.189 3.410 2.872 
153 1 1.670 -1.595 5.697 
154 1 -0.966 -8.656 -10.392 
155 1 -3.434 5.016 -10.178 
156 1 0.338 6.125 -2.142 
157 1 8.465 6.309 -10.373 
158 1 -2.774 -2.302 9.924 
159 1 -9.113 5.574 -7.456 
160 1 -5.522 -3.380 8.336 
161 1 -6.198 -9.650 -10.342 
162 1 4.184 -5.522 4.345 
163 1 -0.348 -4.880 -4.598 
164 1 4.961 7.517 8.162 
165 1 -2.765 7.538 -4.555 
166 1 -3.610 -5.427 -10.174 
167 1 -1.957 3.018 2.701 
168 1 -1.362 6.091 1.126 
169 1 -3.877 -1.452 1.461 
170 1 -7.552 7.088 1.938 
171 1 2.155 0.163 -0.983 
172 1 2.854 7.899 5.560 
173 1 -3.084 5.059 -1.713 
174 1 -10.081 -2.920 -10.220 
175 1 7.622 -2.804 8.728 
176 1 2.521 1.270 9.508 
177 1 7.608 10.011 -7.213 
178 1 1.496 1.165 2.706 
179 1 -4.948 -9.226 4.848 
180 1 -2.225 -2.697 -1.707 
181 1 8.058 -8.120 6.783 
182 1 -5.416 -4.374 2.898 
183 1 5.165 0.646 3.174 
184 1 -0.839 7.097 -7.189 
185 1 10.090 0.434 -0.825 
186 1 -1.477 10.606 -5.552 
187 1 -3.413 -10.025 9.302 
188 1 6.362 4.172 3.935 
189 1 8.639 6.580 7.020 
190 1 2.914 -8.646 3.898 
191 1 -2.563 -10.471 2.852 
192 1 -4.700 -1.184 -7.017 
193 1 -7.027 -8.844 -6.731 
194 1 3.582 7.667 -3.623 
195 1 -10.180 1.293 6.438 
196 1 -3.257 8.000 9.527 
197 1 -3.815 1.979 9.371 
198 1 -1.058 0.714 -10.524 
199 1 6.816 -0.999 0.190 
200 1 4.381 -9.705 -4.776 
ITEM: TIMESTEP
50
ITEM: NUMBER OF ATOMS
200
ITEM: BOX BOUNDS pp pp pp
-10.725124871596057 10.725124871596057
-10.725124871596057 10.725124871596057
-10.725124871596057 10.725124871596057
ITEM: ATOMS id type x y z
1 1 3.740 4.799 1.943 
2 1 3.431 7.723 -0.214 
3 1 2.256 2.746 -7.106 
4 1 -2.314 5.560 7.492 
5 1 -7.655 -2.047 1.480 
6 1 3.104 10.713 8.119 
7 1 3.175 -2.455 2.247 
8 1 1.562 7.344 8.869 
9 1 4.113 9.742 2.620 
10 1 -6.969 5.725 -1.028 
11 1 0.438 -6.140 4.783 
12 1 9.151 10.066 4.350 
13 1 -7.637 -5.106 -0.885 
14 1 10.622 -6.562 5.293 
15 1 6.637 0.843 9.775 
16 1 1.232 -10.445 -7.680 
17 1 -2.646 -9.112 -0.365 
18 1 0.438 -8.562 -3.772 
19 1 -4.654 1.167 3.552 
20 1 -1.087 0.395 -3.317 
21 1 0.596 -1.935 -10.359 
22 1 -0.613 -6.826 -7.520 
23 1 6.166 6.353 -6.443 
24 1 9.619 7.468 -5.612 
25 1 -7.846 8.163 8.923 
26 1 4.411 -10.560 -9.300 
27 1 -10.719 2.490 2.451 
28 1 -8.428 8.692 -5.926 
29 1 -1.353 4.017 -5.255 
30 1 -7.040 -2.698 5.485 
31 1 -6.335 1.159 0.202 
32 1 1.306 7.445 2.679 
33 1 -0.790 0.469 -6.795 
34 1 -9.982 5.472 8.484 
35 1 -1.332 -7.841 7.544 
36 1 -8.968 2.429 9.667 
37 1 3.544 -4.992 8.681 
38 1 -2.227 -7.457 2.833 
39 1 -7.001 2.387 6.697 
40 1 -0.079 4.319 -9.219 
41 1 -0.901 -6.210 -1.475 
42 1 -10.446 -10.172 -7.337 
43 1 10.697 -3.040 -0.073 
44 1 3.524 -0.487 -7.815 
45 1 2.388 10.484 -2.067 
46 1 -6.628 -10.393 7.406 
47 1 -7.375 -6.414 5.375 
48 1 3.985 -8.847 0.249 
49 1 4.881 -0.176 6.712 
50 1 2.704 6.422 -7.485 
51 1 -2.938 7.097 3.817 
52 1 3.015 4.377 8.156 
53 1 6.072 -8.098 -7.239 
54 1 7.557 8.982 0.424 
55 1 3.378 -3.754 -9.360 
56 1 -6.959 -0.385 9.400 
57 1 6.399 7.787 4.486 
58 1 10.079 -1.113 -6.081 
59 1 3.048 -7.309 -9.443 
60 1 -1.478 0.919 0.082 
61 1 10.050 6.959 2.467 
62 1 -8.206 -3.593 -7.234 
63 1 5.468 -9.986 5.581 
64 1 -5.705 -7.486 1.257 
65 1 -5.876 5.029 8.760 
66 1 -8.126 10.419 -2.824 
67 1 8.056 1.436 5.216 
68 1 8.885 1.833 -3.805 
69 1 0.244 -5.459 -10.665 
70 1 -5.209 7.641 6.616 
71 1 9.195 -0.728 2.534 
72 1 6.865 -9.346 2.332 
73 1 -6.630 10.658 0.405 
74 1 -7.312 0.893 -8.696 
75 1 0.974 -7.053 1.267 
76 1 7.847 10.444 -10.393 
77 1 -2.821 -4.708 0.958 
78 1 2.710 -6.547 -5.951 
79 1 5.367 -8.250 9.380 
80 1 -10.506 -2.387 5.174 
81 1 -2.151 -3.508 -8.224 
82 1 -5.779 9.399 3.661 
83 1 -4.803 -9.631 -3.236 
84 1 -4.675 -0.292 6.779 
85 1 -10.404 8.487 -9.712 
86 1 -2.944 -7.260 -4.954 
87 1 -4.248 6.665 -7.252 
88 1 1.535 2.627 -3.525 
89 1 -2.464 -2.363 -4.999 
90 1 3.882 4.718 -1.986 
91 1 10.056 -7.887 1.716 
92 1 0.378 -10.156 5.075 
93 1 -5.453 3.126 -6.395 
94 1 8.911 4.098 -6.571 
95 1 0.773 10.694 1.185 
96 1 -7.368 2.808 -2.873 
97 1 -4.670 4.382 5.045 
98 1 -9.166 1.705 -5.627 
99 1 -5.215 8.479 -2.367 
100 1 3.206 -1.263 -4.100 
101 1 -0.335 7.949 5.858 
102 1 -8.926 -5.342 2.396 
103 1 10.091 -4.919 -6.155 
104 1 -6.807 8.054 -9.173 
105 1 -5.587 -7.214 8.430 
106 1 5.873 -4.586 -7.041 
107 1 -0.183 -2.312 1.286 
108 1 5.260 7.534 -9.702 
109 1 -4.556 4.933 1.395 
110 1 -0.149 3.148 8.822 
111 1 -0.060 -4.040 7.611 
112 1 7.671 9.766 7.641 
113 1 -10.663 2.280 -8.811 
114 1 6.414 3.756 7.535 
115 1 -7.103 -6.285 -9.702 
116 1 1.531 -3.479 -1.672 
117 1 6.361 -2.556 3.924 
118 1 -5.802 -2.106 -1.706 
119 1 9.184 -7.470 -8.920 
120 1 -2.900 -2.772 5.261 
121 1 4.777 3.605 -9.873 
122 1 -6.467 6.025 -4.554 
123 1 -3.851 8.448 0.695 
124 1 3.510 2.792 5.096 
125 1 1.031 -2.698 -6.730 
126 1 -8.888 -4.827 8.113 
127 1 -2.151 2.251 6.118 
128 1 9.968 9.273 -2.455 
129 1 -0.427 8.639 -9.925 
130 1 8.432 -2.915 -8.933 
131 1 -1.251 -0.179 3.821 
132 1 -9.007 9.123 5.437 
133 1 7.022 0.316 -7.614 
134 1 -10.648 -10.145 8.878 
135 1 9.056 -4.487 2.819 
136 1 -0.781 -0.497 7.764 
137 1 0.983 3.578 0.085 
138 1 -1.055 9.555 -1.894 
139 1 -3.716 -8.903 -8.184 
140 1 -0.347 10.361 8.450 
141 1 -4.662 0.627 -3.755 
142 1 -8.094 0.299 4.014 
143 1 -4.402 -5.933 -2.017 
144 1 -3.020 10.333 6.274 
145 1 -7.979 5.723 5.510 
146 1 -5.575 -4.096 -4.889 
147 1 -9.028 -3.032 -3.610 
148 1 0.502 4.638 4.886 
149 1 -5.888 -2.858 -9.766 
150 1 -3.610 -5.898 5.755 
151 1 5.212 2.000 -0.214 
152 1 -7.381 3.515 2.795 
153 1 1.763 -1.620 5.493 
154 1 -0.659 -8.876 -10.334 
155 1 -3.439 4.814 -10.103 
156 1 0.446 6.220 -2.438 
157 1 8.444 6.039 -10.507 
158 1 -2.815 -2.184 10.022 
159 1 -8.990 5.417 -7.474 
160 1 -5.344 -3.738 8.269 
161 1 -6.788 -9.902 -10.207 
162 1 4.200 -5.294 4.617 
163 1 -0.222 -4.995 -4.511 
164 1 5.258 7.252 8.281 
165 1 -2.605 7.400 -4.194 
166 1 -3.450 -5.910 -10.468 
167 1 -1.803 3.206 2.690 
168 1 -1.264 6.203 0.750 
169 1 -3.912 -1.419 1.378 
170 1 -7.844 7.023 2.019 
171 1 2.088 0.071 -0.854 
172 1 3.081 7.956 5.637 
173 1 -3.236 4.747 -1.967 
174 1 -9.724 -2.793 -10.465 
175 1 7.593 -2.768 8.730 
176 1 2.640 0.941 9.680 
177 1 7.392 9.980 -6.901 
178 1 1.716 1.092 2.550 
179 1 -5.029 -9.020 4.520 
180 1 -2.151 -2.550 -1.637 
181 1 8.080 -8.074 7.131 
182 1 -5.478 -4.436 2.993 
183 1 5.323 0.648 3.012 
184 1 -0.625 7.131 -7.010 
185 1 10.280 0.529 -0.738 
186 1 -1.725 10.651 -5.619 
187 1 -3.637 -9.893 9.580 
188 1 6.688 4.323 3.799 
189 1 8.647 6.461 6.794 
190 1 3.034 -8.463 3.678 
191 1 -2.341 10.586 2.914 
192 1 -4.713 -0.841 -7.100 
193 1 -7.026 -8.830 -6.526 
194 1 3.605 7.693 -4.041 
195 1 -10.288 1.010 6.689 
196 1 -3.518 8.049 9.735 
197 1 -3.983 1.994 9.299 
198 1 -1.310 0.953 -10.174 
199 1 6.696 -1.351 0.002 
200 1 4.195 -9.996 -4.933 
ITEM: TIMESTEP
60
ITEM: NUMBER OF ATOMS
200
ITEM: BOX BOUNDS pp pp pp
-10.725124871596057 10.725124871596057
-10.725124871596057 10.725124871596057
-10.725124871596057 10.725124871596057
ITEM: ATOMS id type x y z
1 1 3.707 4.747 2.020 
2 1 3.384 7.681 -0.242 
3 1 2.347 2.755 -7.072 
4 1 -2.440 5.625 7.653 
5 1 -7.673 -2.046 1.330 
6 1 3.228 10.591 8.341 
7 1 3.473 -2.440 2.030 
8 1 1.571 7.303 9.091 
9 1 4.077 9.804 2.518 
10 1 -7.139 5.726 -1.032 
11 1 0.549 -5.999 4.835 
12 1 9.178 10.342 4.283 
13 1 -7.821 -5.171 -0.978 
14 1 10.599 -6.496 5.270 
15 1 6.675 0.765 9.988 
16 1 1.249 -10.369 -7.370 
17 1 -2.816 -9.166 -0.207 
18 1 0.414 -8.592 -4.064 
19 1 -4.730 1.268 3.534 
20 1 -0.943 0.421 -3.232 
21 1 0.699 -1.819 -10.441 
22 1 -0.418 -6.869 -7.474 
23 1 6.194 6.377 -6.289 
24 1 9.792 7.510 -5.755 
25 1 -8.000 8.334 8.955 
26 1 4.334 -10.662 -9.330 
27 1 10.368 2.719 2.588 
28 1 -8.227 8.788 -6.009 
29 1 -1.490 3.845 -5.312 
30 1 -7.223 -2.581 5.553 
31 1 -6.177 1.183 0.176 
32 1 1.172 7.478 2.698 
33 1 -0.679 0.486 -6.757 
34 1 -10.065 5.500 8.752 
35 1 -1.073 -7.677 7.787 
36 1 -8.693 2.483 9.810 
37 1 3.410 -5.024 8.523 
38 1 -2.054 -7.584 3.043 
39 1 -6.978 2.243 6.632 
40 1 0.095 4.487 -9.257 
41 1 -0.917 -6.412 -1.605 
42 1 -10.578 -10.135 -7.348 
43 1 10.596 -3.107 -0.227 
44 1 3.643 -0.416 -8.120 
45 1 2.305 10.485 -2.138 
46 1 -6.607 -10.369 7.244 
47 1 -7.355 -6.359 5.489 
48 1 4.037 -8.713 0.051 
49 1 4.924 -0.243 6.814 
50 1 2.780 6.358 -7.589 
51 1 -2.771 6.971 3.706 
52 1 3.176 4.292 8.349 
53 1 6.091 -8.013 -7.438 
54 1 7.348 8.943 0.623 
55 1 3.576 -3.842 -9.437 
56 1 -7.091 -0.676 9.189 
57 1 6.482 7.875 4.294 
58 1 10.135 -1.198 -6.153 
59 1 2.869 -7.415 -9.431 
60 1 -1.615 0.902 0.191 
61 1 9.797 6.821 2.747 
62 1 -8.363 -3.445 -7.173 
63 1 5.508 -10.165 5.631 
64 1 -5.714 -7.373 1.104 
65 1 -6.167 5.063 8.957 
66 1 -8.394 -10.626 -2.964 
67 1 8.025 1.177 5.325 
68 1 8.810 1.655 -3.851 
69 1 0.222 -5.372 -10.680 
70 1 -5.279 7.642 6.686 
71 1 9.300 -0.801 2.492 
72 1 6.814 -9.144 2.359 
73 1 -6.796 10.670 0.393 
74 1 -7.409 0.800 -8.792 
75 1 1.077 -6.753 1.301 
76 1 7.963 10.607 -10.268 
77 1 -2.716 -4.841 1.112 
78 1 2.922 -6.491 -5.900 
79 1 5.455 -8.205 9.546 
80 1 10.663 -2.601 5.341 
81 1 -2.152 -3.585 -8.295 
82 1 -5.718 9.232 3.621 
83 1 -4.850 -9.480 -3.234 
84 1 -4.512 -0.436 6.743 
85 1 -10.427 8.418 -9.665 
86 1 -3.030 -7.056 -5.075 
87 1 -4.114 6.695 -7.209 
88 1 1.713 2.654 -3.585 
89 1 -2.443 -2.304 -5.008 
90 1 4.135 4.805 -2.145 
91 1 10.248 -8.045 1.704 
92 1 0.403 -9.996 5.086 
93 1 -5.308 3.025 -6.545 
94 1 8.896 4.056 -6.611 
95 1 0.836 -10.551 1.188 
96 1 -7.383 2.682 -2.859 
97 1 -4.841 4.517 5.021 
98 1 -9.227 1.805 -5.748 
99 1 -5.592 8.571 -2.581 
100 1 3.158 -1.125 -4.236 
101 1 -0.357 8.012 5.961 
102 1 -8.956 -5.232 2.459 
103 1 9.886 -5.005 -6.154 
104 1 -6.734 7.937 -9.208 
105 1 -5.955 -7.253 8.658 
106 1 5.954 -4.392 -6.717 
107 1 -0.066 -2.386 1.439 
108 1 5.425 7.478 -9.714 
109 1 -4.614 4.911 1.344 
110 1 -0.115 3.191 8.820 
111 1 -0.293 -3.906 7.601 
112 1 7.916 9.679 7.712 
113 1 10.445 1.899 -8.973 
114 1 6.611 3.639 7.613 
115 1 -7.253 -6.303 -9.550 
116 1 1.641 -3.588 -1.610 
117 1 6.527 -2.468 4.346 
118 1 -5.760 -2.180 -1.783 
119 1 9.242 -7.319 -9.200 
120 1 -2.686 -3.016 5.002 
121 1 4.812 3.687 -9.824 
122 1 -6.565 5.823 -4.648 
123 1 -3.985 8.425 0.507 
124 1 3.744 2.827 5.182 
125 1 1.138 -2.682 -6.935 
126 1 -8.962 -4.787 8.221 
127 1 -2.286 2.372 6.134 
128 1 9.789 9.220 -2.391 
129 1 -0.554 8.780 -9.751 
130 1 8.380 -2.880 -9.052 
131 1 -1.173 0.097 3.755 
132 1 -9.082 9.137 5.435 
133 1 7.178 0.560 -7.649 
134 1 -10.381 -10.178 8.902 
135 1 8.861 -4.611 2.636 
136 1 -0.574 -0.312 7.739 
137 1 1.015 3.523 -0.110 
138 1 -1.137 9.517 -1.757 
139 1 -3.734 -8.919 -8.233 
140 1 -0.340 10.342 8.460 
141 1 -4.504 0.670 -3.701 
142 1 -8.435 0.303 3.875 
143 1 -4.449 -5.894 -1.970 
144 1 -3.099 10.449 6.312 
145 1 -8.249 5.649 5.603 
146 1 -5.565 -4.170 -4.985 
147 1 -9.060 -2.864 -3.593 
148 1 0.617 4.636 5.184 
149 1 -5.791 -2.979 -9.681 
150 1 -3.643 -6.072 6.000 
151 1 5.219 1.950 -0.349 
152 1 -7.556 3.545 2.708 
153 1 1.825 -1.711 5.297 
154 1 -0.481 -8.909 -10.236 
155 1 -3.380 4.724 -10.071 
156 1 0.594 6.195 -2.714 
157 1 8.451 5.813 -10.587 
158 1 -2.795 -2.043 9.946 
159 1 -8.992 5.268 -7.564 
160 1 -5.298 -3.812 8.231 
161 1 -7.059 -9.968 -10.266 
162 1 4.120 -5.109 4.824 
163 1 -0.111 -4.925 -4.473 
164 1 5.446 7.136 8.212 
165 1 -2.737 7.230 -3.901 
166 1 -3.380 -6.040 -10.617 
167 1 -1.665 3.433 2.704 
168 1 -1.227 6.268 0.403 
169 1 -3.955 -1.527 1.474 
170 1 -8.093 7.071 2.080 
171 1 2.024 -0.004 -0.880 
172 1 3.154 7.994 5.651 
173 1 -3.367 4.292 -2.019 
174 1 -9.664 -2.547 -10.433 
175 1 7.568 -2.726 8.603 
176 1 2.741 0.904 9.735 
177 1 7.216 9.933 -6.782 
178 1 1.858 1.172 2.538 
179 1 -5.161 -8.961 4.258 
180 1 -2.076 -2.582 -1.600 
181 1 8.156 -8.142 7.211 
182 1 -5.424 -4.423 3.102 
183 1 5.448 0.628 2.924 
184 1 -0.433 7.162 -6.744 
185 1 10.501 0.583 -0.712 
186 1 -1.983 10.556 -5.596 
187 1 -3.651 -9.781 9.671 
188 1 6.940 4.287 3.743 
189 1 8.811 6.363 6.502 
190 1 3.195 -8.357 3.619 
191 1 -2.270 10.362 2.876 
192 1 -4.585 -0.635 -7.213 
193 1 -7.018 -8.870 -6.440 
194 1 3.538 7.788 -4.213 
195 1 -10.300 0.826 6.971 
196 1 -3.752 8.098 9.946 
197 1 -4.243 1.954 9.269 
198 1 -1.455 1.071 -10.113 
199 1 6.652 -1.506 0.019 
200 1 4.131 -10.063 -5.132 
ITEM: TIMESTEP
70
ITEM: NUMBER OF ATOMS
200
ITEM: BOX BOUNDS pp pp pp
-10.725124871596057 10.725124871596057
-10.725124871596057 10.725124871596057
-10.725124871596057 10.725124871596057
ITEM: ATOMS id type x y z
1 1 3.699 4.756 2.069 
2 1 3.212 7.633 -0.285 
3 1 2.385 2.743 -7.175 
4 1 -2.518 5.697 7.763 
5 1 -7.678 -1.980 1.233 
6 1 3.321 10.496 8.530 
7 1 3.624 -2.460 1.940 
8 1 1.513 7.246 9.232 
9 1 4.024 9.840 2.489 
10 1 -7.194 5.715 -1.044 
11 1 0.605 -5.825 4.910 
12 1 9.148 10.462 4.264 
13 1 -7.940 -5.170 -1.078 
14 1 10.506 -6.466 5.268 
15 1 6.713 0.689 10.132 
16 1 1.157 -10.468 -7.279 
17 1 -2.956 -9.213 -0.076 
18 1 0.373 -8.611 -4.233 
19 1 -4.790 1.301 3.538 
20 1 -0.844 0.411 -3.184 
21 1 0.722 -1.749 -10.491 
22 1 -0.326 -6.774 -7.400 
23 1 6.250 6.298 -6.238 
24 1 9.899 7.551 -5.927 
25 1 -8.069 8.426 8.954 
26 1 4.260 -10.721 -9.242 
27 1 10.185 2.825 2.666 
28 1 -8.079 8.867 -6.003 
29 1 -1.536 3.788 -5.353 
30 1 -7.364 -2.497 5.587 
31 1 -5.965 1.217 0.101 
32 1 1.022 7.506 2.673 
33 1 -0.542 0.418 -6.755 
34 1 -10.078 5.510 8.951 
35 1 -0.887 -7.586 7.888 
36 1 -8.517 2.471 9.885 
37 1 3.216 -5.088 8.456 
38 1 -1.871 -7.746 3.198 
39 1 -6.955 2.088 6.561 
40 1 0.100 4.672 -9.263 
41 1 -0.938 -6.617 -1.552 
42 1 -10.645 -10.135 -7.375 
43 1 10.511 -3.098 -0.290 
44 1 3.730 -0.432 -8.311 
45 1 2.276 10.536 -2.195 
46 1 -6.634 -10.300 7.135 
47 1 -7.363 -6.377 5.541 
48 1 4.009 -8.592 -0.016 
49 1 4.865 -0.282 6.924 
50 1 2.868 6.407 -7.702 
51 1 -2.695 6.834 3.616 
52 1 3.311 4.306 8.428 
53 1 6.141 -7.923 -7.636 
54 1 7.270 8.965 0.749 
55 1 3.729 -3.917 -9.514 
56 1 -7.104 -0.783 9.013 
57 1 6.482 7.850 4.297 
58 1 10.137 -1.186 -6.283 
59 1 2.810 -7.468 -9.373 
60 1 -1.699 0.937 0.228 
61 1 9.736 6.771 2.836 
62 1 -8.440 -3.355 -7.180 
63 1 5.521 -10.285 5.684 
64 1 -5.847 -7.276 1.007 
65 1 -6.214 5.124 8.995 
66 1 -8.576 -10.286 -3.066 
67 1 8.094 1.019 5.430 
68 1 8.782 1.508 -3.902 
69 1 0.246 -5.317 -10.646 
70 1 -5.324 7.731 6.721 
71 1 9.399 -0.830 2.470 
72 1 6.772 -8.959 2.396 
73 1 -6.933 10.705 0.365 
74 1 -7.505 0.466 -8.769 
75 1 1.148 -6.387 1.321 
76 1 7.993 -10.713 -10.238 
77 1 -2.604 -4.971 1.180 
78 1 3.020 -6.405 -5.861 
79 1 5.514 -8.141 9.711 
80 1 10.440 -2.702 5.463 
81 1 -2.177 -3.595 -8.309 
82 1 -5.659 9.144 3.554 
83 1 -4.882 -9.360 -3.190 
84 1 -4.252 -0.662 6.612 
85 1 -10.496 8.323 -9.628 
86 1 -3.047 -6.931 -5.125 
87 1 -3.944 6.769 -7.170 
88 1 1.851 2.643 -3.636 
89 1 -2.467 -2.302 -4.974 
90 1 4.338 4.894 -2.313 
91 1 10.386 -8.161 1.766 
92 1 0.458 -9.950 5.119 
93 1 -5.216 3.010 -6.721 
94 1 8.997 3.982 -6.738 
95 1 0.841 -10.296 1.173 
96 1 -7.459 2.583 -2.873 
97 1 -5.005 4.615 4.998 
98 1 -9.318 1.922 -5.880 
99 1 -5.911 8.683 -2.771 
100 1 3.013 -1.007 -4.329 
101 1 -0.414 8.017 5.981 
102 1 -9.021 -5.121 2.472 
103 1 9.787 -5.018 -6.228 
104 1 -6.762 7.754 -9.225 
105 1 -6.222 -7.238 8.833 
106 1 5.984 -4.240 -6.568 
107 1 -0.002 -2.420 1.614 
108 1 5.605 7.517 -9.729 
109 1 -4.603 4.789 1.298 
110 1 -0.072 3.283 8.831 
111 1 -0.441 -3.800 7.679 
112 1 8.156 9.561 7.742 
113 1 10.328 1.606 -9.185 
114 1 6.792 3.575 7.721 
115 1 -7.366 -6.341 -9.307 
116 1 1.740 -3.700 -1.449 
117 1 6.728 -2.407 4.565 
118 1 -5.667 -2.200 -1.836 
119 1 9.346 -7.218 -9.417 
120 1 -2.409 -3.215 4.682 
121 1 4.963 3.706 -9.739 
122 1 -6.589 5.700 -4.726 
123 1 -4.129 8.378 0.334 
124 1 3.893 2.826 5.240 
125 1 1.216 -2.820 -7.044 
126 1 -9.037 -4.694 8.318 
127 1 -2.417 2.487 6.200 
128 1 9.723 9.158 -2.391 
129 1 -0.685 8.737 -9.612 
130 1 8.252 -2.806 -9.152 
131 1 -1.256 0.088 3.877 
132 1 -9.120 9.100 5.393 
133 1 7.149 0.689 -7.546 
134 1 -10.271 -10.063 8.949 
135 1 8.703 -4.703 2.527 
136 1 -0.438 -0.181 7.687 
137 1 1.061 3.519 -0.180 
138 1 -1.155 9.530 -1.728 
139 1 -3.750 -8.895 -8.230 
140 1 -0.334 10.329 8.587 
141 1 -4.422 0.706 -3.737 
142 1 -8.729 0.316 3.820 
143 1 -4.421 -5.742 -1.967 
144 1 -3.082 10.571 6.265 
145 1 -8.444 5.550 5.673 
146 1 -5.595 -4.171 -5.101 
147 1 -9.051 -2.669 -3.578 
148 1 0.717 4.636 5.367 
149 1 -5.791 -3.011 -9.682 
150 1 -3.670 -6.273 6.102 
151 1 5.113 1.892 -0.436 
152 1 -7.683 3.544 2.616 
153 1 1.805 -1.839 5.165 
154 1 -0.516 -8.935 -10.159 
155 1 -3.412 4.641 -10.075 
156 1 0.657 6.149 -2.886 
157 1 8.407 5.479 -10.503 
158 1 -2.817 -1.924 9.915 
159 1 -8.991 5.206 -7.716 
160 1 -5.287 -3.860 8.193 
161 1 -7.142 -10.058 -10.236 
162 1 4.153 -4.927 4.836 
163 1 -0.023 -4.820 -4.416 
164 1 5.584 7.101 8.135 
165 1 -2.858 7.032 -3.709 
166 1 -3.348 -6.056 10.709 
167 1 -1.509 3.528 2.719 
168 1 -1.292 6.248 0.170 
169 1 -3.922 -1.592 1.524 
170 1 -8.188 7.148 2.121 
171 1 1.967 -0.079 -0.823 
172 1 3.126 8.007 5.668 
173 1 -3.432 3.861 -2.023 
174 1 -9.739 -2.284 -10.401 
175 1 7.598 -2.657 8.424 
176 1 2.801 0.977 9.785 
177 1 7.140 9.909 -6.773 
178 1 1.901 1.214 2.588 
179 1 -5.191 -8.869 4.097 
180 1 -1.948 -2.663 -1.497 
181 1 8.201 -8.257 7.292 
182 1 -5.494 -4.414 3.184 
183 1 5.547 0.610 2.895 
184 1 -0.340 7.242 -6.342 
185 1 -10.677 0.647 -0.693 
186 1 -2.190 10.442 -5.513 
187 1 -3.682 -9.689 9.627 
188 1 6.980 4.222 3.783 
189 1 8.989 6.254 6.381 
190 1 3.260 -8.245 3.631 
191 1 -2.176 10.194 2.812 
192 1 -4.312 -0.507 -7.411 
193 1 -7.026 -8.906 -6.409 
194 1 3.507 7.896 -4.369 
195 1 -10.255 0.572 7.228 
196 1 -3.857 8.168 10.056 
197 1 -4.442 1.843 9.290 
198 1 -1.536 1.192 -10.078 
199 1 6.734 -1.589 0.019 
200 1 4.146 -9.958 -5.217 
ITEM: TIMESTEP
80
ITEM: NUMBER OF ATOMS
200
ITEM: BOX BOUNDS pp pp pp
-10.725124871596057 10.725124871596057
-10.725124871596057 10.725124871596057
-10.725124871596057 10.725124871596057
ITEM: ATOMS id type x y z
1 1 3.652 4.790 2.162 
2 1 3.058 7.577 -0.319 
3 1 2.372 2.776 -7.285 
4 1 -2.574 5.734 7.849 
5 1 -7.677 -1.879 1.176 
6 1 3.364 10.405 8.650 
7 1 3.683 -2.453 1.915 
8 1 1.409 7.176 9.302 
9 1 3.966 9.854 2.481 
10 1 -7.111 5.692 -1.073 
11 1 0.661 -5.720 5.001 
12 1 9.119 10.479 4.248 
13 1 -7.991 -5.064 -1.201 
14 1 10.443 -6.474 5.266 
15 1 6.740 0.609 10.229 
16 1 1.084 -10.609 -7.227 
17 1 -3.106 -9.243 0.054 
18 1 0.330 -8.620 -4.291 
19 1 -4.812 1.328 3.517 
20 1 -0.868 0.458 -3.189 
21 1 0.698 -1.689 -10.485 
22 1 -0.282 -6.642 -7.310 
23 1 6.248 6.214 -6.243 
24 1 9.934 7.535 -6.045 
25 1 -8.094 8.501 8.946 
26 1 4.239 10.669 -9.132 
27 1 10.119 2.845 2.663 
28 1 -8.048 8.903 -6.047 
29 1 -1.524 3.750 -5.407 
30 1 -7.414 -2.465 5.600 
31 1 -5.755 1.235 -0.003 
32 1 0.917 7.556 2.658 
33 1 -0.362 0.270 -6.765 
34 1 -10.026 5.486 9.130 
35 1 -0.719 -7.564 7.936 
36 1 -8.366 2.410 10.001 
37 1 3.029 -5.184 8.350 
38 1 -1.713 -7.842 3.286 
39 1 -6.971 1.983 6.552 
40 1 -0.012 4.826 -9.201 
41 1 -0.898 -6.784 -1.464 
42 1 -10.658 -10.140 -7.444 
43 1 10.464 -3.067 -0.329 
44 1 3.731 -0.497 -8.334 
45 1 2.297 10.590 -2.206 
46 1 -6.659 -10.191 7.036 
47 1 -7.387 -6.403 5.594 
48 1 3.991 -8.453 -0.020 
49 1 4.833 -0.346 6.982 
50 1 2.907 6.529 -7.875 
51 1 -2.719 6.741 3.579 
52 1 3.404 4.356 8.489 
53 1 6.209 -7.841 -7.759 
54 1 7.268 9.040 0.831 
55 1 3.861 -3.981 -9.638 
56 1 -7.052 -0.886 8.996 
57 1 6.475 7.818 4.353 
58 1 10.092 -1.159 -6.414 
59 1 2.773 -7.516 -9.292 
60 1 -1.731 0.930 0.258 
61 1 9.708 6.768 2.810 
62 1 -8.502 -3.282 -7.232 
63 1 5.521 -10.343 5.732 
64 1 -6.005 -7.180 0.908 
65 1 -6.224 5.146 8.925 
66 1 -8.677 -10.099 -3.123 
67 1 8.176 0.959 5.509 
68 1 8.827 1.437 -3.927 
69 1 0.275 -5.270 -10.610 
70 1 -5.309 7.843 6.721 
71 1 9.404 -0.846 2.449 
72 1 6.761 -8.834 2.446 
73 1 -6.995 -10.722 0.330 
74 1 -7.520 0.214 -8.687 
75 1 1.194 -6.152 1.413 
76 1 7.998 -10.639 -10.254 
77 1 -2.593 -5.080 1.222 
78 1 3.054 -6.302 -5.814 
79 1 5.513 -8.094 9.822 
80 1 10.387 -2.738 5.485 
81 1 -2.198 -3.596 -8.324 
82 1 -5.600 9.155 3.490 
83 1 -4.938 -9.262 -3.119 
84 1 -4.126 -0.771 6.511 
85 1 -10.573 8.267 -9.673 
86 1 -3.054 -6.881 -5.129 
87 1 -3.809 6.877 -7.153 
88 1 1.948 2.624 -3.676 
89 1 -2.541 -2.303 -4.958 
90 1 4.471 4.981 -2.460 
91 1 10.485 -8.214 1.835 
92 1 0.583 -10.034 5.180 
93 1 -5.190 3.032 -6.923 
94 1 9.036 3.921 -6.844 
95 1 0.822 -10.047 1.143 
96 1 -7.537 2.505 -2.885 
97 1 -5.154 4.658 5.025 
98 1 -9.339 1.932 -5.980 
99 1 -6.045 8.751 -2.887 
100 1 2.800 -0.982 -4.409 
101 1 -0.507 7.976 5.957 
102 1 -9.066 -5.010 2.485 
103 1 9.722 -5.000 -6.370 
104 1 -6.773 7.607 -9.239 
105 1 -6.426 -7.213 8.991 
106 1 5.965 -4.095 -6.526 
107 1 0.028 -2.447 1.697 
108 1 5.844 7.552 -9.765 
109 1 -4.556 4.646 1.292 
110 1 -0.039 3.379 8.868 
111 1 -0.617 -3.736 7.758 
112 1 8.380 9.482 7.755 
113 1 10.244 1.404 -9.339 
114 1 6.890 3.521 7.830 
115 1 -7.443 -6.386 -9.096 
116 1 1.861 -3.766 -1.342 
117 1 6.783 -2.381 4.595 
118 1 -5.579 -2.149 -1.872 
119 1 9.465 -7.175 -9.599 
120 1 -2.256 -3.389 4.549 
121 1 5.075 3.696 -9.669 
122 1 -6.580 5.647 -4.803 
123 1 -4.211 8.313 0.224 
124 1 3.926 2.777 5.313 
125 1 1.284 -3.061 -7.136 
126 1 -9.080 -4.567 8.353 
127 1 -2.482 2.548 6.223 
128 1 9.730 9.111 -2.439 
129 1 -0.798 8.643 -9.508 
130 1 8.082 -2.682 -9.247 
131 1 -1.326 0.036 3.954 
132 1 -9.128 9.056 5.365 
133 1 7.072 0.782 -7.455 
134 1 -10.196 -9.894 9.037 
135 1 8.605 -4.760 2.465 
136 1 -0.372 -0.090 7.690 
137 1 1.110 3.488 -0.204 
138 1 -1.173 9.573 -1.723 
139 1 -3.799 -8.855 -8.231 
140 1 -0.365 10.330 8.702 
141 1 -4.466 0.706 -3.946 
142 1 -8.866 0.326 3.860 
143 1 -4.361 -5.642 -1.967 
144 1 -3.045 -10.717 6.186 
145 1 -8.616 5.445 5.695 
146 1 -5.668 -4.186 -5.153 
147 1 -9.021 -2.406 -3.594 
148 1 0.791 4.668 5.444 
149 1 -5.795 -3.096 -9.691 
150 1 -3.641 -6.420 6.159 
151 1 4.944 1.906 -0.463 
152 1 -7.731 3.508 2.525 
153 1 1.743 -1.924 5.134 
154 1 -0.596 -8.930 -10.068 
155 1 -3.522 4.630 -10.057 
156 1 0.709 6.085 -2.892 
157 1 8.442 5.132 -10.368 
158 1 -2.896 -1.774 9.947 
159 1 -9.026 5.122 -7.872 
160 1 -5.240 -3.913 8.138 
161 1 -7.126 -10.135 -10.121 
162 1 4.207 -4.866 4.806 
163 1 -0.022 -4.760 -4.270 
164 1 5.684 7.117 8.062 
165 1 -2.935 6.923 -3.555 
166 1 -3.322 -6.031 10.607 
167 1 -1.351 3.502 2.739 
168 1 -1.335 6.194 0.092 
169 1 -3.894 -1.650 1.554 
170 1 -8.180 7.149 2.120 
171 1 1.877 -0.147 -0.780 
172 1 3.066 8.001 5.690 
173 1 -3.366 3.636 -2.004 
174 1 -9.902 -2.076 -10.444 
175 1 7.725 -2.564 8.326 
176 1 2.822 1.050 9.841 
177 1 7.112 9.878 -6.785 
178 1 1.890 1.198 2.647 
179 1 -5.187 -8.816 3.930 
180 1 -1.831 -2.709 -1.453 
181 1 8.207 -8.326 7.378 
182 1 -5.501 -4.430 3.250 
183 1 5.626 0.636 2.880 
184 1 -0.237 7.319 -6.163 
185 1 -10.393 0.664 -0.655 
186 1 -2.350 10.385 -5.442 
187 1 -3.727 -9.601 9.564 
188 1 6.966 4.198 3.879 
189 1 9.111 6.151 6.378 
190 1 3.265 -8.189 3.655 
191 1 -2.065 10.060 2.764 
192 1 -4.052 -0.413 -7.682 
193 1 -7.017 -8.921 -6.358 
194 1 3.455 7.986 -4.506 
195 1 -10.235 0.359 7.455 
196 1 -3.920 8.250 10.094 
197 1 -4.489 1.758 9.305 
198 1 -1.529 1.312 -10.013 
199 1 6.782 -1.599 -0.018 
200 1 4.129 -9.845 -5.300 
ITEM: TIMESTEP
90
ITEM: NUMBER OF ATOMS
200
ITEM: BOX BOUNDS pp pp pp
-10.725124871596057 10.725124871596057
-10.725124871596057 10.725124871596057
-10.725124871596057 10.725124871596057
ITEM: ATOMS id type x y z
1 1 3.580 4.812 2.293 
2 1 2.977 7.524 -0.319 
3 1 2.324 2.814 -7.354 
4 1 -2.620 5.736 7.927 
5 1 -7.661 -1.806 1.156 
6 1 3.355 10.328 8.722 
7 1 3.700 -2.406 1.933 
8 1 1.276 7.135 9.328 
9 1 3.914 9.866 2.480 
10 1 -6.989 5.677 -1.111 
11 1 0.707 -5.689 5.109 
12 1 9.108 10.477 4.247 
13 1 -7.988 -4.904 -1.351 
14 1 10.404 -6.487 5.274 
15 1 6.725 0.580 10.281 
16 1 1.061 -10.691 -7.208 
17 1 -3.223 -9.239 0.191 
18 1 0.306 -8.654 -4.305 
19 1 -4.824 1.323 3.503 
20 1 -0.957 0.533 -3.225 
21 1 0.647 -1.638 -10.445 
22 1 -0.265 -6.641 -7.341 
23 1 6.189 6.155 -6.275 
24 1 9.932 7.489 -6.129 
25 1 -8.084 8.572 8.930 
26 1 4.249 10.587 -9.083 
27 1 10.074 2.857 2.647 
28 1 -8.061 8.907 -6.128 
29 1 -1.496 3.721 -5.492 
30 1 -7.394 -2.439 5.607 
31 1 -5.644 1.203 -0.080 
32 1 0.898 7.558 2.665 
33 1 -0.232 0.110 -6.794 
34 1 -9.956 5.480 9.199 
35 1 -0.590 -7.550 7.982 
36 1 -8.277 2.383 10.103 
37 1 2.892 -5.279 8.248 
38 1 -1.601 -7.900 3.368 
39 1 -6.999 1.880 6.602 
40 1 -0.126 4.915 -9.127 
41 1 -0.831 -6.928 -1.384 
42 1 -10.644 -10.126 -7.534 
43 1 10.440 -3.033 -0.365 
44 1 3.691 -0.562 -8.301 
45 1 2.333 10.619 -2.193 
46 1 -6.660 -10.090 6.944 
47 1 -7.401 -6.432 5.645 
48 1 3.992 -8.323 -0.014 
49 1 4.831 -0.422 7.048 
50 1 2.913 6.681 -8.099 
51 1 -2.860 6.543 3.515 
52 1 3.476 4.413 8.537 
53 1 6.276 -7.791 -7.818 
54 1 7.289 9.131 0.903 
55 1 3.956 -4.031 -9.772 
56 1 -6.985 -0.951 9.060 
57 1 6.461 7.801 4.361 
58 1 10.022 -1.142 -6.512 
59 1 2.741 -7.560 -9.180 
60 1 -1.717 0.890 0.297 
61 1 9.715 6.769 2.831 
62 1 -8.564 -3.247 -7.272 
63 1 5.522 -10.381 5.781 
64 1 -6.165 -7.106 0.797 
65 1 -6.248 5.155 8.826 
66 1 -8.732 -10.043 -3.136 
67 1 8.250 0.920 5.559 
68 1 8.920 1.378 -3.907 
69 1 0.327 -5.271 -10.544 
70 1 -5.255 7.931 6.697 
71 1 9.383 -0.839 2.408 
72 1 6.770 -8.739 2.500 
73 1 -6.998 -10.709 0.291 
74 1 -7.491 0.086 -8.650 
75 1 1.216 -6.038 1.506 
76 1 7.997 -10.581 -10.275 
77 1 -2.581 -5.160 1.242 
78 1 3.073 -6.251 -5.724 
79 1 5.456 -8.067 9.851 
80 1 10.408 -2.750 5.421 
81 1 -2.193 -3.604 -8.337 
82 1 -5.566 9.202 3.443 
83 1 -4.984 -9.188 -3.030 
84 1 -4.082 -0.794 6.491 
85 1 -10.626 8.254 -9.732 
86 1 -3.104 -6.881 -5.124 
87 1 -3.745 6.958 -7.143 
88 1 2.003 2.579 -3.696 
89 1 -2.620 -2.304 -4.955 
90 1 4.527 5.051 -2.595 
91 1 10.566 -8.232 1.882 
92 1 0.690 -10.147 5.243 
93 1 -5.227 3.042 -7.089 
94 1 9.035 3.869 -6.802 
95 1 0.794 -9.876 1.110 
96 1 -7.594 2.471 -2.882 
97 1 -5.227 4.683 5.046 
98 1 -9.321 1.891 -6.034 
99 1 -6.075 8.787 -2.970 
100 1 2.599 -1.064 -4.446 
101 1 -0.534 8.078 6.112 
102 1 -9.097 -4.920 2.502 
103 1 9.634 -4.989 -6.553 
104 1 -6.776 7.472 -9.273 
105 1 -6.557 -7.192 9.114 
106 1 5.891 -3.953 -6.530 
107 1 0.035 -2.456 1.729 
108 1 6.085 7.556 -9.787 
109 1 -4.475 4.517 1.299 
110 1 -0.002 3.448 8.891 
111 1 -0.793 -3.721 7.834 
112 1 8.606 9.432 7.792 
113 1 10.171 1.392 -9.408 
114 1 6.935 3.475 7.900 
115 1 -7.538 -6.438 -8.942 
116 1 1.973 -3.810 -1.320 
117 1 6.799 -2.353 4.577 
118 1 -5.494 -2.080 -1.921 
119 1 9.568 -7.164 -9.761 
120 1 -2.240 -3.489 4.545 
121 1 5.122 3.690 -9.611 
122 1 -6.580 5.622 -4.877 
123 1 -4.251 8.249 0.171 
124 1 3.916 2.702 5.394 
125 1 1.350 -3.253 -7.217 
126 1 -9.089 -4.465 8.349 
127 1 -2.493 2.594 6.216 
128 1 9.744 9.068 -2.497 
129 1 -0.893 8.613 -9.441 
130 1 7.928 -2.574 -9.315 
131 1 -1.346 -0.002 3.995 
132 1 -9.115 9.002 5.345 
133 1 6.989 0.835 -7.416 
134 1 -10.115 -9.749 9.148 
135 1 8.557 -4.793 2.430 
136 1 -0.354 -0.046 7.718 
137 1 1.148 3.459 -0.204 
138 1 -1.191 9.621 -1.689 
139 1 -3.857 -8.812 -8.256 
140 1 -0.410 10.203 8.633 
141 1 -4.549 0.755 -4.144 
142 1 -8.961 0.333 3.922 
143 1 -4.284 -5.579 -1.971 
144 1 -2.986 -10.566 6.117 
145 1 -8.753 5.337 5.660 
146 1 -5.755 -4.219 -5.155 
147 1 -8.977 -2.097 -3.621 
148 1 0.864 4.694 5.488 
149 1 -5.773 -3.222 -9.675 
150 1 -3.609 -6.584 6.250 
151 1 4.763 1.966 -0.459 
152 1 -7.759 3.446 2.430 
153 1 1.708 -1.970 5.166 
154 1 -0.632 -8.832 -9.882 
155 1 -3.627 4.692 -10.058 
156 1 0.728 6.011 -2.895 
157 1 8.526 4.908 -10.323 
158 1 -2.971 -1.647 9.998 
159 1 -9.102 5.007 -8.053 
160 1 -5.177 -3.951 8.090 
161 1 -7.090 -10.199 -10.008 
162 1 4.250 -4.854 4.770 
163 1 -0.058 -4.732 -4.170 
164 1 5.769 7.163 8.021 
165 1 -2.952 6.876 -3.489 
166 1 -3.273 -6.012 10.529 
167 1 -1.230 3.498 2.760 
168 1 -1.334 6.164 0.087 
169 1 -3.880 -1.708 1.577 
170 1 -8.137 7.117 2.112 
171 1 1.773 -0.194 -0.797 
172 1 3.019 7.994 5.724 
173 1 -3.243 3.518 -2.033 
174 1 -10.031 -1.980 -10.499 
175 1 7.904 -2.437 8.275 
176 1 2.832 1.098 9.901 
177 1 7.118 9.861 -6.783 
178 1 1.906 1.145 2.663 
179 1 -5.165 -8.734 3.771 
180 1 -1.750 -2.708 -1.439 
181 1 8.216 -8.374 7.464 
182 1 -5.505 -4.490 3.283 
183 1 5.691 0.693 2.861 
184 1 -0.184 7.351 -6.101 
185 1 -10.151 0.662 -0.580 
186 1 -2.454 10.367 -5.406 
187 1 -3.775 -9.523 9.502 
188 1 6.945 4.176 3.971 
189 1 9.134 6.082 6.405 
190 1 3.274 -8.168 3.676 
191 1 -1.960 10.078 2.703 
192 1 -3.934 -0.374 -7.835 
193 1 -6.990 -8.946 -6.276 
194 1 3.367 8.045 -4.638 
195 1 -10.244 0.202 7.653 
196 1 -3.972 8.337 10.096 
197 1 -4.463 1.765 9.318 
198 1 -1.468 1.434 -9.956 
199 1 6.761 -1.575 -0.060 
200 1 4.119 -9.782 -5.356 
ITEM: TIMESTEP
100
ITEM: NUMBER OF ATOMS
200
ITEM: BOX BOUNDS pp pp pp
-10.725124871596057 10.725124871596057
-10.725124871596057 10.725124871596057
-10.725124871596057 10.725124871596057
ITEM: ATOMS id type x y z
1 1 3.499 4.789 2.431 
2 1 2.907 7.444 -0.306 
3 1 2.241 2.818 -7.415 
4 1 -2.633 5.747 7.994 
5 1 -7.605 -1.779 1.175 
6 1 3.294 10.271 8.763 
7 1 3.703 -2.340 1.959 
8 1 1.150 7.096 9.345 
9 1 3.862 9.869 2.485 
10 1 -6.835 5.655 -1.154 
11 1 0.711 -5.643 5.163 
12 1 9.105 10.471 4.291 
13 1 -7.945 -4.710 -1.547 
14 1 10.360 -6.499 5.298 
15 1 6.684 0.604 10.317 
16 1 1.076 10.714 -7.204 
17 1 -3.299 -9.173 0.313 
18 1 0.280 -8.711 -4.303 
19 1 -4.848 1.281 3.507 
20 1 -1.027 0.560 -3.270 
21 1 0.594 -1.611 -10.404 
22 1 -0.308 -6.678 -7.244 
23 1 6.098 6.108 -6.336 
24 1 9.933 7.434 -6.229 
25 1 -8.033 8.637 8.918 
26 1 4.280 10.512 -9.078 
27 1 10.041 2.891 2.651 
28 1 -8.069 8.905 -6.228 
29 1 -1.487 3.692 -5.585 
30 1 -7.333 -2.393 5.591 
31 1 -5.582 1.183 -0.132 
32 1 0.880 7.507 2.737 
33 1 -0.202 -0.029 -6.834 
34 1 -9.908 5.505 9.195 
35 1 -0.480 -7.579 8.025 
36 1 -8.220 2.392 10.172 
37 1 2.851 -5.356 8.199 
38 1 -1.517 -7.934 3.460 
39 1 -7.001 1.823 6.635 
40 1 -0.208 4.993 -9.096 
41 1 -0.764 -7.025 -1.315 
42 1 -10.597 -10.084 -7.656 
43 1 10.446 -2.985 -0.398 
44 1 3.657 -0.616 -8.273 
45 1 2.385 10.613 -2.162 
46 1 -6.637 -10.014 6.859 
47 1 -7.420 -6.433 5.700 
48 1 3.994 -8.211 0.002 
49 1 4.841 -0.521 7.137 
50 1 2.894 6.856 -8.337 
51 1 -2.850 6.579 3.550 
52 1 3.523 4.504 8.580 
53 1 6.353 -7.761 -7.869 
54 1 7.329 9.237 0.973 
55 1 4.027 -4.077 -9.882 
56 1 -6.927 -0.989 9.138 
57 1 6.435 7.784 4.340 
58 1 9.960 -1.130 -6.605 
59 1 2.778 -7.620 -9.039 
60 1 -1.712 0.875 0.330 
61 1 9.762 6.783 2.886 
62 1 -8.624 -3.258 -7.264 
63 1 5.521 -10.415 5.833 
64 1 -6.342 -7.052 0.656 
65 1 -6.265 5.170 8.727 
66 1 -8.769 -10.043 -3.125 
67 1 8.329 0.896 5.594 
68 1 9.063 1.283 -3.848 
69 1 0.404 -5.261 -10.529 
70 1 -5.181 7.990 6.651 
71 1 9.346 -0.807 2.356 
72 1 6.792 -8.651 2.571 
73 1 -6.986 -10.708 0.242 
74 1 -7.463 -0.009 -8.653 
75 1 1.244 -5.974 1.574 
76 1 7.989 -10.506 -10.302 
77 1 -2.543 -5.228 1.276 
78 1 3.061 -6.243 -5.582 
79 1 5.353 -8.060 9.842 
80 1 10.463 -2.750 5.322 
81 1 -2.160 -3.611 -8.326 
82 1 -5.534 9.304 3.403 
83 1 -5.029 -9.132 -2.902 
84 1 -4.045 -0.781 6.525 
85 1 -10.676 8.268 -9.815 
86 1 -3.149 -6.910 -5.147 
87 1 -3.748 7.024 -7.121 
88 1 2.047 2.487 -3.708 
89 1 -2.711 -2.321 -4.929 
90 1 4.527 5.097 -2.726 
91 1 10.642 -8.242 1.929 
92 1 0.792 -10.225 5.289 
93 1 -5.351 3.027 -7.252 
94 1 9.014 3.822 -6.703 
95 1 0.794 -9.762 1.078 
96 1 -7.636 2.459 -2.884 
97 1 -5.332 4.650 5.043 
98 1 -9.283 1.845 -6.080 
99 1 -6.058 8.816 -3.063 
100 1 2.448 -1.224 -4.414 
101 1 -0.640 8.038 6.079 
102 1 -9.129 -4.853 2.529 
103 1 9.492 -4.971 -6.773 
104 1 -6.795 7.300 -9.316 
105 1 -6.640 -7.171 9.216 
106 1 5.743 -3.799 -6.541 
107 1 0.038 -2.465 1.774 
108 1 6.312 7.550 -9.791 
109 1 -4.408 4.398 1.284 
110 1 0.032 3.474 8.901 
111 1 -0.942 -3.751 7.931 
112 1 8.876 9.378 7.878 
113 1 10.140 1.415 -9.425 
114 1 6.945 3.441 7.936 
115 1 -7.698 -6.520 -8.828 
116 1 2.048 -3.861 -1.318 
117 1 6.817 -2.328 4.573 
118 1 -5.396 -2.009 -1.980 
119 1 9.657 -7.130 -9.913 
120 1 -2.272 -3.541 4.575 
121 1 5.147 3.731 -9.550 
122 1 -6.593 5.603 -4.949 
123 1 -4.272 8.206 0.143 
124 1 3.883 2.595 5.491 
125 1 1.416 -3.391 -7.269 
126 1 -9.089 -4.362 8.333 
127 1 -2.486 2.641 6.194 
128 1 9.749 9.014 -2.581 
129 1 -0.986 8.649 -9.410 
130 1 7.793 -2.526 -9.369 
131 1 -1.352 -0.015 4.026 
132 1 -9.086 8.922 5.334 
133 1 6.917 0.869 -7.393 
134 1 -10.000 -9.638 9.250 
135 1 8.530 -4.806 2.404 
136 1 -0.377 -0.035 7.757 
137 1 1.143 3.438 -0.207 
138 1 -1.218 9.696 -1.647 
139 1 -3.893 -8.757 -8.305 
140 1 -0.511 10.257 8.735 
141 1 -4.615 0.823 -4.286 
142 1 -9.043 0.346 3.968 
143 1 -4.200 -5.517 -1.953 
144 1 -2.961 -10.465 6.028 
145 1 -8.865 5.186 5.564 
146 1 -5.850 -4.263 -5.114 
147 1 -8.911 -1.709 -3.657 
148 1 0.910 4.759 5.541 
149 1 -5.762 -3.368 -9.643 
150 1 -3.600 -6.714 6.360 
151 1 4.624 2.026 -0.437 
152 1 -7.756 3.361 2.301 
153 1 1.692 -1.984 5.219 
154 1 -0.637 -8.914 -9.957 
155 1 -3.714 4.791 -10.058 
156 1 0.729 5.921 -2.932 
157 1 8.616 4.759 -10.288 
158 1 -3.039 -1.577 10.058 
159 1 -9.242 4.848 -8.305 
160 1 -5.137 -3.972 8.058 
161 1 -7.051 -10.279 -9.892 
162 1 4.266 -4.837 4.733 
163 1 -0.109 -4.750 -4.157 
164 1 5.850 7.256 8.011 
165 1 -2.939 6.866 -3.452 
166 1 -3.195 -5.988 10.467 
167 1 -1.112 3.496 2.781 
168 1 -1.305 6.174 0.087 
169 1 -3.860 -1.765 1.591 
170 1 -8.042 7.055 2.113 
171 1 1.690 -0.241 -0.822 
172 1 2.995 7.976 5.774 
173 1 -3.138 3.473 -2.057 
174 1 -10.117 -1.960 -10.476 
175 1 8.125 -2.264 8.247 
176 1 2.832 1.151 9.956 
177 1 7.153 9.857 -6.784 
178 1 1.930 1.089 2.656 
179 1 -5.149 -8.598 3.651 
180 1 -1.677 -2.682 -1.417 
181 1 8.244 -8.439 7.575 
182 1 -5.509 -4.577 3.280 
183 1 5.750 0.750 2.849 
184 1 -0.184 7.353 -6.095 
185 1 -9.968 0.693 -0.465 
186 1 -2.539 10.371 -5.387 
187 1 -3.790 -9.454 9.434 
188 1 6.905 4.150 4.065 
189 1 9.109 6.037 6.437 
190 1 3.270 -8.164 3.710 
191 1 -1.903 9.984 2.673 
192 1 -3.893 -0.370 -7.881 
193 1 -6.919 -8.981 -6.186 
194 1 3.281 8.089 -4.768 
195 1 -10.224 0.096 7.764 
196 1 -4.041 8.424 10.089 
197 1 -4.432 1.825 9.322 
198 1 -1.445 1.527 -9.906 
199 1 6.714 -1.535 -0.113 
200 1 4.135 -9.755 -5.403 
