ITEM: TIMESTEP
0
ITEM: NUMBER OF ATOMS
200
ITEM: BOX BOUNDS pp pp pp
-19.592236299174868 19.592236299174868
-19.592236299174868 19.592236299174868
-19.592236299174868 19.592236299174868
ITEM: ATOMS id type x y z
1 1 13.153 -18.492 -14.905 
2 1 7.050 5.937 0.164 
3 1 -9.583 13.481 9.733 
4 1 -8.092 -16.217 -16.235 
5 1 -9.677 -6.065 19.353 
6 1 15.752 -8.037 5.224 
7 1 -4.449 -9.675 -0.999 
8 1 3.093 6.423 0.059 
9 1 10.442 -7.600 9.742 
10 1 -18.095 -10.767 -13.940 
11 1 2.862 -3.113 -15.363 
12 1 -7.023 -6.327 17.648 
13 1 13.896 7.341 -11.476 
14 1 10.475 -11.881 6.694 
15 1 -1.731 4.804 -12.671 
16 1 -11.989 -19.300 -7.613 
17 1 -5.542 9.291 8.334 
18 1 17.020 -3.125 3.640 
19 1 -14.189 3.520 9.632 
20 1 6.726 4.335 -13.823 
21 1 18.434 5.503 -8.783 
22 1 -9.258 19.468 16.293 
23 1 -7.479 0.719 -6.566 
24 1 14.726 0.889 -11.789 
25 1 17.097 -8.207 -13.076 
26 1 -13.202 7.423 12.787 
27 1 -15.330 5.678 0.090 
28 1 5.474 -18.143 -18.040 
29 1 -14.905 14.135 17.602 
30 1 -5.986 -14.548 16.154 
31 1 -3.176 -14.599 -12.000 
32 1 -5.083 -15.271 9.226 
33 1 -9.956 -4.264 8.303 
34 1 5.903 -16.920 13.775 
35 1 11.311 5.641 6.795 
36 1 -3.682 0.872 -13.262 
37 1 -19.346 -0.620 5.371 
38 1 -11.319 2.104 19.224 
39 1 14.906 -4.762 8.269 
40 1 12.573 -11.939 -12.208 
41 1 8.211 -10.236 -19.152 
42 1 1.910 13.190 4.291 
43 1 -6.851 -1.948 -16.925 
44 1 11.548 13.088 6.190 
45 1 -14.954 13.713 6.549 
46 1 12.670 -0.016 -4.428 
47 1 6.535 -10.446 -8.451 
48 1 -17.514 16.507 5.830 
49 1 18.357 0.370 -14.682 
50 1 -0.065 19.379 -11.678 
51 1 1.544 -10.820 5.903 
52 1 -16.835 -9.292 5.417 
53 1 3.465 -16.190 -15.353 
54 1 14.410 -16.296 -7.089 
55 1 6.907 -1.064 -19.018 
56 1 -4.925 17.774 9.163 
57 1 -2.368 2.117 -15.192 
58 1 6.097 -4.604 -15.850 
59 1 13.421 -10.206 13.299 
60 1 -6.551 -3.455 6.545 
61 1 17.617 4.312 15.499 
62 1 14.681 -0.590 4.461 
63 1 -0.525 -16.327 19.367 
64 1 -2.641 -10.395 -18.038 
65 1 -17.950 -0.384 9.066 
66 1 -8.658 0.316 -3.966 
67 1 4.392 -2.477 -7.749 
68 1 -12.479 -9.449 9.129 
69 1 -0.760 -7.510 -0.277 
70 1 -14.038 11.283 -5.701 
71 1 -7.993 -16.446 -4.683 
72 1 -19.053 16.205 -9.299 
73 1 -5.956 -13.856 -18.312 
74 1 -5.866 17.885 -5.169 
75 1 16.923 3.556 -13.767 
76 1 17.124 13.431 -4.130 
77 1 -15.741 0.742 15.061 
78 1 -1.631 14.841 15.385 
79 1 -14.910 -16.760 2.948 
80 1 -19.052 2.543 -10.850 
81 1 -8.785 -10.049 12.152 
82 1 -0.958 -0.251 16.441 
83 1 4.723 -9.197 7.949 
84 1 -9.357 8.591 -17.319 
85 1 1.202 16.138 -1.966 
86 1 -6.409 7.122 13.503 
87 1 -6.478 -4.682 4.932 
88 1 7.604 19.085 -0.111 
89 1 8.932 18.127 3.066 
90 1 11.147 -6.568 -12.838 
91 1 6.479 6.304 -10.038 
92 1 11.460 5.918 16.477 
93 1 5.730 -1.814 6.014 
94 1 -17.047 -19.485 -18.787 
95 1 -5.230 11.324 -18.434 
96 1 -19.375 -13.414 -10.245 
97 1 0.641 -11.360 14.523 
98 1 0.828 -0.583 -2.780 
99 1 -9.560 1.244 -2.198 
100 1 17.524 11.499 -13.844 
101 1 3.875 4.989 2.710 
102 1 -7.869 -15.793 -8.929 
103 1 1.534 -12.058 12.466 
104 1 19.418 -18.615 11.224 
105 1 8.014 -18.688 13.868 
106 1 0.497 -19.116 -8.788 
107 1 13.487 12.111 3.705 
108 1 4.050 17.230 9.504 
109 1 3.484 -5.560 -17.998 
110 1 11.232 2.054 8.606 
111 1 18.387 -14.942 -10.221 
112 1 18.415 -11.688 10.388 
113 1 -16.580 7.818 5.452 
114 1 -4.321 -10.312 17.880 
115 1 12.602 6.648 7.532 
116 1 -3.991 -19.349 8.440 
117 1 17.037 -19.170 -12.275 
118 1 -6.967 6.035 -1.894 
119 1 -13.631 -2.377 12.513 
120 1 1.602 8.228 5.815 
121 1 2.480 6.053 -3.303 
122 1 4.089 7.323 0.492 
123 1 -16.206 -9.641 -10.552 
124 1 -0.562 18.335 7.498 
125 1 -12.462 -8.391 9.432 
126 1 -7.120 -11.120 15.861 
127 1 -18.473 7.380 12.978 
128 1 12.588 1.298 -9.330 
129 1 -15.893 7.699 15.464 
130 1 -2.689 -3.882 11.494 
131 1 10.654 10.432 16.151 
132 1 -4.294 15.036 13.352 
133 1 0.603 -17.028 17.944 
134 1 -3.193 -5.153 -0.158 
135 1 -1.219 2.308 -2.800 
136 1 -15.650 4.267 7.004 
137 1 17.283 13.061 3.641 
138 1 -13.992 4.740 2.233 
139 1 -9.261 -0.739 -3.005 
140 1 2.158 10.782 13.110 
141 1 -7.641 -6.733 -6.251 
142 1 -16.327 -3.283 -0.629 
143 1 -3.151 8.805 9.651 
144 1 4.466 8.633 -18.874 
145 1 0.689 -19.043 12.915 
146 1 0.632 -12.017 16.970 
147 1 -14.434 9.446 -1.162 
148 1 2.895 -15.944 -5.229 
149 1 -2.864 8.679 4.318 
150 1 -6.722 17.232 2.674 
151 1 5.475 1.899 -6.060 
152 1 17.344 -0.112 17.417 
153 1 -1.329 -14.192 0.747 
154 1 -7.458 -17.806 -0.637 
155 1 7.225 -8.456 -5.710 
156 1 11.169 -15.885 16.590 
157 1 -15.883 16.840 18.735 
158 1 -10.594 6.245 12.227 
159 1 11.104 -11.685 2.692 
160 1 14.373 -8.243 8.748 
161 1 -0.668 -7.999 -9.067 
162 1 10.145 -2.563 -11.511 
163 1 14.406 0.038 -4.070 
164 1 5.548 -13.404 -19.590 
165 1 3.063 7.952 -11.465 
166 1 -0.380 -1.410 17.524 
167 1 -11.508 4.040 10.075 
168 1 18.074 -3.840 -17.432 
169 1 -7.611 -14.990 13.578 
170 1 11.081 -10.488 11.246 
171 1 5.991 -5.654 15.591 
172 1 11.335 0.545 -2.967 
173 1 1.714 2.277 18.157 
174 1 6.682 -14.602 -0.576 
175 1 15.706 -12.815 -10.914 
176 1 2.457 18.335 -10.864 
177 1 0.207 -0.965 11.814 
178 1 3.698 18.736 -18.255 
179 1 11.214 -14.239 -13.194 
180 1 -12.348 3.014 12.684 
181 1 -0.029 -1.292 12.627 
182 1 -9.551 10.898 13.230 
183 1 14.494 12.870 17.058 
184 1 9.907 -2.055 1.462 
185 1 0.686 -1.120 -7.781 
186 1 14.472 -16.287 -17.219 
187 1 0.821 6.444 -19.271 
188 1 -2.927 4.339 -15.665 
189 1 -0.272 -8.833 -17.615 
190 1 9.320 16.186 0.754 
191 1 15.888 1.173 9.021 
192 1 -19.527 11.964 15.747 
193 1 -15.864 -14.177 7.969 
194 1 -10.927 18.136 15.226 
195 1 8.553 10.458 10.326 
196 1 9.515 3.573 -8.015 
197 1 -5.097 2.754 5.022 
198 1 4.087 -4.280 -15.793 
199 1 -11.921 -17.181 -16.406 
200 1 5.016 16.143 -10.937 
ITEM: TIMESTEP
10
ITEM: NUMBER OF ATOMS
200
ITEM: BOX BOUNDS pp pp pp
-19.592236299174868 19.592236299174868
-19.592236299174868 19.592236299174868
-19.592236299174868 19.592236299174868
ITEM: ATOMS id type x y z
1 1 13.153 -18.493 -14.905 
2 1 7.054 5.934 0.163 
3 1 -9.583 13.481 9.733 
4 1 -8.092 -16.217 -16.235 
5 1 -9.682 -6.065 19.356 
6 1 15.752 -8.036 5.224 
7 1 -4.449 -9.675 -0.999 
8 1 2.620 5.998 -0.145 
9 1 10.441 -7.598 9.741 
10 1 -18.095 -10.767 -13.939 
11 1 2.412 -2.642 -15.190 
12 1 -7.019 -6.327 17.646 
13 1 13.896 7.341 -11.476 
14 1 10.475 -11.881 6.694 
15 1 -1.729 4.804 -12.669 
16 1 -11.989 -19.300 -7.613 
17 1 -5.571 9.297 8.318 
18 1 17.020 -3.126 3.640 
19 1 -14.219 3.512 9.633 
20 1 6.726 4.335 -13.823 
21 1 18.434 5.503 -8.783 
22 1 -9.138 19.564 16.370 
23 1 -7.429 0.725 -6.683 
24 1 14.728 0.888 -11.791 
25 1 17.097 -8.208 -13.076 
26 1 -13.217 7.429 12.790 
27 1 -15.354 5.695 0.051 
28 1 5.484 -18.130 -18.039 
29 1 -14.903 14.129 17.599 
30 1 -5.981 -14.547 16.161 
31 1 -3.176 -14.599 -12.000 
32 1 -5.083 -15.272 9.226 
33 1 -9.956 -4.264 8.303 
34 1 5.875 -16.896 13.774 
35 1 10.969 5.374 6.600 
36 1 -3.717 0.841 -13.211 
37 1 -19.346 -0.620 5.371 
38 1 -11.319 2.104 19.224 
39 1 14.906 -4.762 8.269 
40 1 12.583 -11.919 -12.200 
41 1 8.211 -10.236 -19.152 
42 1 1.910 13.190 4.291 
43 1 -6.851 -1.948 -16.925 
44 1 11.546 13.089 6.192 
45 1 -14.954 13.713 6.549 
46 1 12.372 -0.162 -4.886 
47 1 6.535 -10.447 -8.452 
48 1 -17.514 16.507 5.830 
49 1 18.357 0.369 -14.682 
50 1 -0.087 19.386 -11.694 
51 1 1.544 -10.820 5.903 
52 1 -16.835 -9.292 5.417 
53 1 3.465 -16.190 -15.353 
54 1 14.410 -16.296 -7.090 
55 1 6.907 -1.065 -19.018 
56 1 -4.994 17.620 9.217 
57 1 -2.284 1.956 -15.202 
58 1 6.655 -4.650 -15.850 
59 1 13.425 -10.205 13.303 
60 1 -6.564 -3.239 6.829 
61 1 17.617 4.311 15.499 
62 1 14.681 -0.589 4.462 
63 1 -0.756 -16.183 -19.526 
64 1 -2.658 -10.407 -18.041 
65 1 -17.950 -0.384 9.066 
66 1 -8.422 0.647 -4.328 
67 1 4.392 -2.477 -7.749 
68 1 -12.492 -10.239 8.903 
69 1 -0.759 -7.511 -0.277 
70 1 -14.038 11.283 -5.701 
71 1 -7.993 -16.446 -4.683 
72 1 -19.053 16.205 -9.299 
73 1 -5.956 -13.856 -18.313 
74 1 -5.866 17.885 -5.169 
75 1 16.923 3.556 -13.767 
76 1 17.124 13.431 -4.130 
77 1 -15.741 0.742 15.061 
78 1 -1.630 14.841 15.386 
79 1 -14.910 -16.760 2.948 
80 1 -19.052 2.543 -10.850 
81 1 -8.785 -10.049 12.152 
82 1 -1.139 0.112 16.104 
83 1 4.722 -9.197 7.949 
84 1 -9.357 8.591 -17.319 
85 1 1.202 16.138 -1.966 
86 1 -6.409 7.122 13.503 
87 1 -6.465 -4.898 4.648 
88 1 7.603 19.086 -0.112 
89 1 8.931 18.132 3.073 
90 1 11.147 -6.568 -12.838 
91 1 6.479 6.304 -10.038 
92 1 11.460 5.918 16.477 
93 1 5.730 -1.814 6.014 
94 1 -17.047 -19.485 -18.786 
95 1 -5.230 11.324 -18.434 
96 1 -19.152 -13.174 -10.249 
97 1 0.561 -11.265 14.588 
98 1 0.828 -0.584 -2.780 
99 1 -9.640 1.454 -2.023 
100 1 17.524 11.499 -13.844 
101 1 3.876 4.987 2.714 
102 1 -7.869 -15.793 -8.929 
103 1 1.614 -12.121 12.284 
104 1 19.418 -18.615 11.224 
105 1 8.042 -18.712 13.869 
106 1 0.498 -19.113 -8.778 
107 1 13.489 12.111 3.703 
108 1 4.050 17.230 9.504 
109 1 3.441 -5.636 -18.154 
110 1 11.232 2.054 8.606 
111 1 18.165 -15.183 -10.217 
112 1 18.415 -11.687 10.388 
113 1 -16.580 7.817 5.452 
114 1 -4.320 -10.312 17.881 
115 1 12.944 6.915 7.727 
116 1 -3.921 -19.195 8.386 
117 1 17.036 -19.170 -12.275 
118 1 -6.967 6.035 -1.894 
119 1 -13.631 -2.377 12.513 
120 1 1.602 8.228 5.815 
121 1 2.479 6.053 -3.307 
122 1 4.556 7.753 0.697 
123 1 -16.206 -9.641 -10.552 
124 1 -0.562 18.335 7.498 
125 1 -12.450 -7.600 9.657 
126 1 -7.120 -11.120 15.861 
127 1 -18.473 7.380 12.978 
128 1 12.587 1.299 -9.328 
129 1 -15.893 7.699 15.465 
130 1 -2.689 -3.882 11.494 
131 1 10.654 10.432 16.151 
132 1 -4.296 15.036 13.351 
133 1 0.835 -17.172 17.653 
134 1 -3.194 -5.151 -0.157 
135 1 -1.220 2.308 -2.800 
136 1 -15.653 4.269 6.998 
137 1 17.283 13.061 3.641 
138 1 -13.968 4.723 2.271 
139 1 -9.467 -1.288 -2.701 
140 1 2.158 10.782 13.110 
141 1 -7.641 -6.733 -6.251 
142 1 -16.327 -3.283 -0.629 
143 1 -3.122 8.799 9.667 
144 1 4.466 8.633 -18.874 
145 1 0.689 -19.043 12.915 
146 1 0.632 -12.050 17.088 
147 1 -14.434 9.446 -1.162 
148 1 2.895 -15.944 -5.229 
149 1 -2.863 8.679 4.318 
150 1 -6.722 17.232 2.674 
151 1 5.475 1.899 -6.060 
152 1 17.344 -0.112 17.417 
153 1 -1.329 -14.192 0.747 
154 1 -7.458 -17.806 -0.637 
155 1 7.225 -8.455 -5.710 
156 1 11.169 -15.885 16.590 
157 1 -15.885 16.845 18.738 
158 1 -10.578 6.242 12.226 
159 1 11.104 -11.685 2.692 
160 1 14.373 -8.244 8.748 
161 1 -0.668 -7.999 -9.067 
162 1 10.145 -2.563 -11.511 
163 1 14.941 0.064 -3.933 
164 1 5.548 -13.404 -19.590 
165 1 3.063 7.951 -11.465 
166 1 -0.199 -1.773 17.863 
167 1 -11.471 4.050 10.064 
168 1 18.074 -3.840 -17.432 
169 1 -7.615 -14.991 13.572 
170 1 11.077 -10.491 11.242 
171 1 5.991 -5.654 15.591 
172 1 11.099 0.666 -2.646 
173 1 1.714 2.277 18.157 
174 1 6.682 -14.602 -0.576 
175 1 15.706 -12.815 -10.914 
176 1 2.478 18.326 -10.859 
177 1 0.446 -0.634 10.991 
178 1 3.688 18.723 -18.256 
179 1 11.203 -14.258 -13.202 
180 1 -12.352 3.009 12.698 
181 1 -0.267 -1.623 13.449 
182 1 -9.551 10.897 13.230 
183 1 14.494 12.870 17.058 
184 1 9.907 -2.055 1.462 
185 1 0.686 -1.120 -7.781 
186 1 14.472 -16.287 -17.220 
187 1 0.821 6.444 -19.271 
188 1 -2.977 4.532 -15.708 
189 1 -0.254 -8.821 -17.612 
190 1 9.321 16.179 0.748 
191 1 15.888 1.173 9.021 
192 1 -19.527 11.964 15.747 
193 1 -15.864 -14.177 7.969 
194 1 -11.047 18.041 15.150 
195 1 8.553 10.458 10.326 
196 1 9.515 3.573 -8.015 
197 1 -5.097 2.754 5.022 
198 1 4.022 -4.628 -15.810 
199 1 -11.921 -17.181 -16.406 
200 1 5.018 16.142 -10.937 
ITEM: TIMESTEP
20
ITEM: NUMBER OF ATOMS
200
ITEM: BOX BOUNDS pp pp pp
-19.592236299174868 19.592236299174868
-19.592236299174868 19.592236299174868
-19.592236299174868 19.592236299174868
ITEM: ATOMS id type x y z
1 1 13.181 -18.383 -14.495 
2 1 6.971 5.556 0.234 
3 1 -9.468 13.262 9.984 
4 1 -8.061 -16.108 -16.376 
5 1 -9.837 -6.021 19.512 
6 1 15.656 -7.726 5.505 
7 1 -4.178 -9.358 -0.897 
8 1 2.052 5.614 -0.099 
9 1 10.578 -7.320 9.446 
10 1 -18.399 -10.729 -13.684 
11 1 1.815 -1.871 -15.185 
12 1 -6.639 -6.785 17.467 
13 1 14.090 7.144 -11.491 
14 1 10.619 -11.573 6.884 
15 1 -1.706 4.360 -12.650 
16 1 -11.817 -19.193 -7.576 
17 1 -5.983 9.372 8.064 
18 1 17.158 -3.254 3.911 
19 1 -14.810 3.261 10.056 
20 1 6.662 4.490 -13.566 
21 1 18.308 5.377 -9.048 
22 1 -8.746 -19.199 16.559 
23 1 -6.707 0.658 -8.596 
24 1 15.096 0.825 -11.995 
25 1 17.234 -8.581 -13.007 
26 1 -13.678 7.269 12.571 
27 1 -15.560 5.912 -0.279 
28 1 5.714 -17.519 -18.201 
29 1 -14.793 13.589 17.293 
30 1 -5.687 -14.320 16.767 
31 1 -3.184 -14.710 -12.010 
32 1 -5.172 -15.338 9.432 
33 1 -9.970 -4.381 8.325 
34 1 5.325 -16.619 13.837 
35 1 10.565 5.050 6.364 
36 1 -4.034 0.873 -12.687 
37 1 19.560 -0.691 5.499 
38 1 -11.342 2.097 19.152 
39 1 14.943 -4.838 7.922 
40 1 12.589 -11.359 -12.186 
41 1 7.984 -10.422 -19.163 
42 1 1.880 13.020 4.329 
43 1 -6.822 -1.936 -16.931 
44 1 11.361 13.111 6.418 
45 1 -14.974 13.696 6.548 
46 1 11.999 -0.271 -5.700 
47 1 6.510 -10.550 -8.609 
48 1 -17.529 16.465 5.822 
49 1 18.234 0.294 -14.408 
50 1 -0.653 -19.511 -12.040 
51 1 1.661 -10.779 6.019 
52 1 -16.764 -9.409 5.561 
53 1 3.387 -16.270 -15.480 
54 1 14.682 -16.176 -7.455 
55 1 6.809 -1.369 -18.801 
56 1 -5.035 17.070 9.572 
57 1 -1.564 1.688 -15.475 
58 1 7.492 -4.466 -16.036 
59 1 13.749 -10.084 13.266 
60 1 -6.569 -2.923 7.289 
61 1 17.727 4.219 15.496 
62 1 14.701 -0.466 4.828 
63 1 -1.025 -15.608 -19.290 
64 1 -2.885 -10.982 -17.999 
65 1 -17.896 -0.185 8.956 
66 1 -8.057 1.045 -4.006 
67 1 4.399 -2.236 -7.648 
68 1 -12.604 -10.783 8.790 
69 1 -0.763 -7.831 -0.302 
70 1 -14.070 11.193 -5.479 
71 1 -7.945 -16.682 -4.746 
72 1 -19.107 16.237 -9.320 
73 1 -5.671 -13.680 -18.655 
74 1 -5.964 18.105 -5.113 
75 1 16.992 3.822 -13.415 
76 1 17.145 13.443 -4.147 
77 1 -15.360 0.806 14.652 
78 1 -1.483 14.830 15.413 
79 1 -14.927 -16.731 3.029 
80 1 -19.483 2.491 -11.179 
81 1 -8.873 -10.188 12.176 
82 1 -1.372 0.864 16.061 
83 1 4.631 -9.315 7.948 
84 1 -9.183 8.676 -17.366 
85 1 1.212 16.151 -1.959 
86 1 -6.421 7.399 13.338 
87 1 -6.427 -5.199 4.200 
88 1 7.557 19.212 -0.127 
89 1 8.888 18.350 3.368 
90 1 11.037 -6.388 -12.808 
91 1 6.510 6.069 -10.100 
92 1 11.446 6.235 16.449 
93 1 5.759 -1.808 6.000 
94 1 -17.146 -19.122 -18.558 
95 1 -5.372 11.197 -18.403 
96 1 -19.110 -12.667 -10.472 
97 1 0.107 -10.766 14.623 
98 1 0.942 -0.674 -3.038 
99 1 -10.227 1.910 -0.967 
100 1 17.496 11.452 -13.801 
101 1 4.237 5.097 2.974 
102 1 -7.893 -15.924 -8.627 
103 1 1.991 -12.407 11.630 
104 1 19.436 -18.589 11.195 
105 1 8.468 -18.862 14.006 
106 1 0.458 -18.840 -8.397 
107 1 13.617 12.034 3.518 
108 1 3.855 17.316 9.510 
109 1 3.179 -5.909 -18.852 
110 1 11.581 2.046 8.537 
111 1 17.831 -15.869 -10.109 
112 1 18.313 -11.615 10.338 
113 1 -16.462 7.802 5.305 
114 1 -4.343 -10.479 17.721 
115 1 13.283 7.191 7.961 
116 1 -3.710 -18.741 8.281 
117 1 16.841 -18.925 -12.280 
118 1 -7.063 5.810 -1.898 
119 1 -13.741 -2.057 12.548 
120 1 1.442 8.282 5.521 
121 1 2.544 5.957 -3.847 
122 1 4.495 8.360 1.006 
123 1 -16.397 -9.799 -10.581 
124 1 -0.591 18.284 7.694 
125 1 -12.294 -7.071 9.806 
126 1 -7.379 -11.161 15.562 
127 1 -18.472 7.292 12.952 
128 1 12.372 1.291 -9.196 
129 1 -15.944 7.768 15.743 
130 1 -2.586 -3.684 11.418 
131 1 10.927 10.282 16.192 
132 1 -4.497 15.165 12.966 
133 1 1.229 -17.247 17.161 
134 1 -3.520 -5.194 -0.110 
135 1 -1.132 2.551 -2.797 
136 1 -15.671 4.235 6.434 
137 1 17.306 13.088 3.676 
138 1 -13.932 4.654 2.969 
139 1 -9.807 -1.867 -2.227 
140 1 2.093 10.815 13.104 
141 1 -7.622 -6.699 -6.206 
142 1 -16.319 -3.267 -0.611 
143 1 -2.705 8.700 9.878 
144 1 4.224 8.452 -18.896 
145 1 0.809 -18.967 13.052 
146 1 0.448 -12.559 18.077 
147 1 -14.425 9.448 -1.323 
148 1 2.828 -16.063 -5.323 
149 1 -2.690 8.657 4.651 
150 1 -6.719 17.332 2.635 
151 1 5.541 1.816 -6.233 
152 1 17.393 0.071 17.381 
153 1 -1.356 -14.094 0.721 
154 1 -7.456 -17.834 -0.934 
155 1 7.253 -8.339 -5.576 
156 1 10.999 -15.990 16.503 
157 1 -15.870 17.000 18.689 
158 1 -10.156 6.287 12.493 
159 1 11.067 -11.681 2.951 
160 1 14.115 -8.581 8.950 
161 1 -0.660 -7.984 -9.061 
162 1 10.260 -2.698 -11.580 
163 1 15.172 0.172 -3.669 
164 1 5.535 -13.542 -19.477 
165 1 3.265 7.749 -11.459 
166 1 0.171 -2.011 18.013 
167 1 -11.064 4.051 9.642 
168 1 18.066 -3.650 -17.336 
169 1 -7.630 -14.715 13.379 
170 1 11.022 -10.853 10.729 
171 1 5.919 -5.653 15.733 
172 1 11.022 0.673 -2.117 
173 1 1.476 2.181 18.237 
174 1 6.698 -14.705 -0.579 
175 1 16.042 -12.620 -10.916 
176 1 2.732 18.440 -10.811 
177 1 0.431 -0.581 10.581 
178 1 3.377 18.613 -18.273 
179 1 11.288 -14.831 -13.467 
180 1 -12.490 3.191 13.101 
181 1 -0.232 -2.123 14.021 
182 1 -9.505 10.548 12.915 
183 1 14.345 12.676 16.974 
184 1 10.013 -1.867 1.314 
185 1 0.767 -1.066 -7.547 
186 1 14.484 -16.114 -17.254 
187 1 1.003 6.275 -19.256 
188 1 -3.222 5.100 -16.066 
189 1 0.284 -8.498 -17.743 
190 1 9.415 15.882 0.508 
191 1 15.686 1.060 8.690 
192 1 -19.406 11.857 15.762 
193 1 -15.763 -13.937 7.925 
194 1 -11.448 17.700 14.992 
195 1 8.648 10.468 10.273 
196 1 9.275 3.467 -8.061 
197 1 -5.105 2.770 5.044 
198 1 3.817 -5.160 -15.180 
199 1 -11.815 -17.168 -16.447 
200 1 5.439 15.750 -10.970 
ITEM: TIMESTEP
30
ITEM: NUMBER OF ATOMS
200
ITEM: BOX BOUNDS pp pp pp
-19.592236299174868 19.592236299174868
-19.592236299174868 19.592236299174868
-19.592236299174868 19.592236299174868
ITEM: ATOMS id type x y z
1 1 13.253 -18.375 -14.076 
2 1 6.055 5.468 0.119 
3 1 -9.026 13.243 9.811 
4 1 -7.856 -15.768 -16.856 
5 1 -9.389 -6.051 19.376 
6 1 15.579 -7.652 5.565 
7 1 -4.220 -9.198 -0.797 
8 1 2.282 5.323 -0.109 
9 1 10.734 -7.510 8.967 
10 1 -18.675 -10.745 -13.761 
11 1 1.670 -1.689 -15.669 
12 1 -6.587 -7.859 17.458 
13 1 14.626 6.567 -11.482 
14 1 11.214 -10.486 7.062 
15 1 -1.609 4.086 -12.702 
16 1 -10.761 -18.610 -7.265 
17 1 -6.017 9.410 8.141 
18 1 16.876 -3.898 4.815 
19 1 -15.113 3.097 10.714 
20 1 6.248 4.812 -13.292 
21 1 17.688 5.152 -9.732 
22 1 -8.791 -19.007 16.446 
23 1 -6.610 0.765 -8.240 
24 1 15.489 1.101 -11.464 
25 1 17.164 -9.454 -12.505 
26 1 -14.756 6.354 12.298 
27 1 -15.494 6.076 -0.061 
28 1 5.856 -17.302 -18.698 
29 1 -15.291 13.425 17.015 
30 1 -5.467 -14.230 16.585 
31 1 -3.026 -15.180 -12.042 
32 1 -5.419 -15.468 10.097 
33 1 -9.858 -4.529 8.270 
34 1 4.637 -16.932 14.253 
35 1 10.502 4.935 6.329 
36 1 -4.015 1.141 -12.790 
37 1 18.595 -0.596 6.194 
38 1 -11.405 2.095 18.909 
39 1 14.726 -4.758 7.832 
40 1 12.784 -11.218 -12.379 
41 1 7.597 -10.652 -19.158 
42 1 1.752 12.202 4.396 
43 1 -6.791 -1.934 -16.961 
44 1 11.257 12.844 6.568 
45 1 -15.023 13.640 6.533 
46 1 11.551 0.134 -5.927 
47 1 6.541 -10.547 -8.638 
48 1 -17.617 16.363 5.785 
49 1 17.935 0.443 -14.413 
50 1 -0.641 -18.993 -11.877 
51 1 1.676 -10.825 6.161 
52 1 -16.271 -9.911 6.207 
53 1 3.151 -16.614 -16.108 
54 1 14.827 -15.832 -8.206 
55 1 6.206 -1.996 -18.515 
56 1 -4.485 17.075 9.504 
57 1 -1.245 1.428 -15.503 
58 1 7.510 -4.503 -15.912 
59 1 14.424 -9.805 12.582 
60 1 -6.491 -2.998 7.290 
61 1 18.043 3.978 15.495 
62 1 14.897 -0.653 5.168 
63 1 -1.607 -15.150 -19.414 
64 1 -2.225 -11.546 -18.146 
65 1 -17.554 0.610 8.748 
66 1 -7.856 1.328 -4.288 
67 1 4.528 -1.752 -7.365 
68 1 -12.958 -10.771 8.716 
69 1 -0.727 -7.818 -0.206 
70 1 -14.141 11.002 -5.049 
71 1 -8.294 -17.189 -4.893 
72 1 -19.238 16.286 -9.343 
73 1 -5.228 -13.661 -18.867 
74 1 -6.342 18.789 -4.733 
75 1 16.853 4.096 -13.352 
76 1 17.204 13.478 -4.198 
77 1 -16.080 0.697 14.214 
78 1 -1.467 14.807 15.129 
79 1 -14.970 -16.621 3.244 
80 1 19.171 1.977 -11.150 
81 1 -9.047 -10.668 12.127 
82 1 -1.352 0.942 15.985 
83 1 4.649 -9.502 8.176 
84 1 -8.787 8.856 -17.465 
85 1 1.241 16.195 -1.951 
86 1 -5.628 8.237 12.572 
87 1 -6.296 -5.114 4.057 
88 1 7.593 19.376 -0.074 
89 1 8.870 18.371 3.402 
90 1 10.771 -6.200 -12.916 
91 1 6.655 5.545 -9.558 
92 1 11.499 6.482 16.422 
93 1 5.831 -1.781 5.972 
94 1 -16.974 -19.208 -18.592 
95 1 -5.683 10.897 -18.318 
96 1 -19.472 -12.442 -10.494 
97 1 -0.053 -11.006 14.732 
98 1 1.147 -0.447 -3.465 
99 1 -9.906 2.147 -1.134 
100 1 17.423 11.280 -13.672 
101 1 3.961 5.425 3.434 
102 1 -8.191 -16.374 -8.560 
103 1 2.019 -12.301 11.689 
104 1 19.469 -18.544 11.130 
105 1 8.245 -18.399 14.265 
106 1 0.696 -18.537 -8.336 
107 1 13.597 12.089 3.602 
108 1 2.985 17.629 9.521 
109 1 3.149 -5.758 -19.021 
110 1 12.280 2.064 8.163 
111 1 17.997 -15.821 -10.235 
112 1 17.555 -11.141 10.266 
113 1 -16.167 7.424 5.074 
114 1 -4.140 -10.892 17.810 
115 1 13.157 7.077 8.008 
116 1 -3.648 -18.551 8.455 
117 1 16.557 -18.652 -12.253 
118 1 -7.502 4.753 -2.053 
119 1 -13.841 -1.407 12.303 
120 1 1.504 8.391 4.625 
121 1 2.459 5.327 -3.823 
122 1 3.998 8.580 1.288 
123 1 -16.690 -9.886 -10.609 
124 1 -0.711 18.120 8.387 
125 1 -11.992 -7.287 9.891 
126 1 -7.324 -11.067 15.591 
127 1 -18.028 6.867 12.855 
128 1 12.206 1.264 -9.522 
129 1 -15.674 8.007 15.580 
130 1 -2.457 -3.377 11.438 
131 1 11.141 10.275 16.172 
132 1 -4.526 15.114 12.805 
133 1 1.428 -16.728 17.090 
134 1 -3.803 -5.514 0.210 
135 1 -0.216 3.081 -2.762 
136 1 -15.488 4.020 6.819 
137 1 17.294 13.142 3.781 
138 1 -14.109 4.818 3.288 
139 1 -9.686 -1.465 -2.290 
140 1 1.867 10.942 13.101 
141 1 -7.558 -6.617 -6.084 
142 1 -16.281 -3.230 -0.583 
143 1 -2.715 8.643 9.722 
144 1 3.933 8.140 -18.902 
145 1 1.401 -18.554 13.557 
146 1 0.293 -12.178 18.241 
147 1 -14.418 9.420 -1.576 
148 1 2.556 -16.475 -5.730 
149 1 -2.469 8.718 5.765 
150 1 -6.716 17.613 2.443 
151 1 5.665 1.846 -6.661 
152 1 17.543 0.558 17.231 
153 1 -1.421 -13.785 0.654 
154 1 -7.275 -18.354 -1.357 
155 1 7.237 -8.319 -5.608 
156 1 10.561 -16.181 16.353 
157 1 -15.681 16.983 18.525 
158 1 -9.425 7.136 12.799 
159 1 11.076 -11.613 3.193 
160 1 14.137 -8.963 8.864 
161 1 -0.633 -7.948 -9.058 
162 1 10.439 -2.546 -11.565 
163 1 14.686 0.225 -3.636 
164 1 5.121 -13.634 -19.361 
165 1 3.835 7.115 -11.677 
166 1 0.569 -1.684 18.078 
167 1 -12.240 3.812 8.909 
168 1 18.038 -3.056 -17.003 
169 1 -7.311 -13.995 13.155 
170 1 11.181 -10.804 10.528 
171 1 5.623 -5.593 16.315 
172 1 11.206 0.426 -2.110 
173 1 1.177 2.066 18.627 
174 1 6.768 -15.127 -0.547 
175 1 15.965 -12.775 -11.065 
176 1 2.710 18.575 -10.821 
177 1 0.195 -0.713 10.817 
178 1 3.070 19.389 -18.085 
179 1 12.142 -14.756 -13.739 
180 1 -12.903 2.639 13.240 
181 1 -0.136 -2.238 14.303 
182 1 -9.153 10.551 13.028 
183 1 14.240 12.405 16.879 
184 1 10.236 -1.535 1.032 
185 1 0.846 -0.789 -7.235 
186 1 14.187 -15.795 -16.694 
187 1 0.993 5.643 -19.173 
188 1 -2.983 4.799 -16.177 
189 1 0.484 -8.750 -18.353 
190 1 9.381 15.973 0.494 
191 1 15.968 0.877 8.458 
192 1 -18.596 11.524 15.834 
193 1 -15.631 -13.330 7.699 
194 1 -11.506 17.660 15.282 
195 1 9.008 10.534 9.986 
196 1 9.061 2.913 -8.080 
197 1 -5.127 2.802 5.098 
198 1 3.752 -4.940 -15.347 
199 1 -11.493 -17.100 -16.581 
200 1 5.352 15.810 -10.976 
ITEM: TIMESTEP
40
ITEM: NUMBER OF ATOMS
200
ITEM: BOX BOUNDS pp pp pp
-19.592236299174868 19.592236299174868
-19.592236299174868 19.592236299174868
-19.592236299174868 19.592236299174868
ITEM: ATOMS id type x y z
1 1 13.112 -18.330 -14.002 
2 1 5.776 5.622 0.097 
3 1 -8.473 12.894 9.849 
4 1 -7.761 -15.702 -17.057 
5 1 -9.148 -6.051 19.346 
6 1 15.476 -7.601 5.371 
7 1 -4.249 -9.262 -0.714 
8 1 2.022 5.350 -0.018 
9 1 11.055 -7.191 8.912 
10 1 -18.782 -10.766 -13.850 
11 1 1.724 -1.542 -16.319 
12 1 -6.293 -8.080 17.691 
13 1 14.549 6.324 -11.614 
14 1 11.555 -10.232 6.865 
15 1 -1.354 3.982 -12.822 
16 1 -10.647 -18.798 -7.122 
17 1 -6.123 9.637 8.408 
18 1 16.695 -4.086 5.099 
19 1 -15.637 3.046 10.668 
20 1 6.364 4.681 -13.172 
21 1 17.461 4.767 -9.783 
22 1 -8.855 -18.927 16.413 
23 1 -6.638 0.839 -7.902 
24 1 15.609 1.423 -11.354 
25 1 16.982 -9.840 -12.305 
26 1 -14.141 6.244 12.365 
27 1 -15.456 6.131 0.259 
28 1 5.829 -17.267 -19.087 
29 1 -15.360 13.384 16.928 
30 1 -5.215 -14.369 16.479 
31 1 -2.802 -15.582 -12.023 
32 1 -5.403 -15.528 10.232 
33 1 -9.783 -4.626 8.229 
34 1 4.531 -16.746 14.799 
35 1 10.439 4.859 6.294 
36 1 -3.947 1.227 -13.145 
37 1 18.589 -0.734 6.194 
38 1 -11.454 2.098 18.703 
39 1 14.327 -5.004 7.960 
40 1 13.102 -10.850 -12.504 
41 1 7.222 -10.867 -19.168 
42 1 1.741 11.874 4.255 
43 1 -6.761 -1.941 -16.980 
44 1 11.187 12.492 6.753 
45 1 -15.066 13.608 6.515 
46 1 11.361 0.359 -6.050 
47 1 6.557 -10.539 -8.659 
48 1 -17.714 16.271 5.749 
49 1 17.697 0.447 -14.359 
50 1 -0.600 -18.707 -11.953 
51 1 1.667 -10.872 6.280 
52 1 -16.018 -9.871 6.434 
53 1 3.152 -16.200 -16.578 
54 1 14.777 -15.875 -8.785 
55 1 5.374 -2.639 -18.322 
56 1 -4.400 17.059 9.518 
57 1 -0.953 1.285 -15.603 
58 1 7.673 -4.580 -15.690 
59 1 14.480 -9.728 12.492 
60 1 -6.414 -3.110 7.173 
61 1 18.498 4.055 15.271 
62 1 14.600 -0.784 5.527 
63 1 -1.770 -14.942 19.249 
64 1 -2.085 -11.519 -18.146 
65 1 -17.697 0.628 8.289 
66 1 -7.876 1.413 -4.305 
67 1 4.557 -1.539 -7.146 
68 1 -13.044 -10.781 8.678 
69 1 -0.821 -7.756 -0.099 
70 1 -14.171 10.974 -4.995 
71 1 -8.299 -16.998 -4.709 
72 1 -19.336 16.319 -9.348 
73 1 -5.260 -13.575 -18.985 
74 1 -6.518 18.865 -4.751 
75 1 17.016 4.027 -13.460 
76 1 17.250 13.506 -4.245 
77 1 -16.239 1.325 14.278 
78 1 -1.413 14.710 14.870 
79 1 -15.010 -16.483 3.459 
80 1 19.252 1.873 -11.294 
81 1 -9.072 -10.704 12.226 
82 1 -1.191 0.838 16.066 
83 1 4.591 -9.672 8.425 
84 1 -8.768 8.820 -17.468 
85 1 1.261 16.229 -1.954 
86 1 -5.984 8.387 11.998 
87 1 -6.070 -5.062 3.851 
88 1 7.624 -19.543 -0.030 
89 1 8.834 18.444 3.409 
90 1 10.414 -5.865 -13.119 
91 1 6.438 5.073 -9.354 
92 1 11.552 6.521 16.415 
93 1 5.883 -1.760 5.950 
94 1 -16.826 -19.328 -18.671 
95 1 -5.651 10.860 -18.325 
96 1 19.309 -12.263 -10.481 
97 1 -0.306 -11.187 14.769 
98 1 1.474 -0.223 -3.579 
99 1 -10.019 2.097 -1.166 
100 1 17.370 11.134 -13.581 
101 1 3.790 5.380 3.364 
102 1 -8.005 -16.416 -8.506 
103 1 2.013 -12.158 11.716 
104 1 19.491 -18.527 11.086 
105 1 7.997 -18.315 14.348 
106 1 0.629 -18.494 -8.351 
107 1 13.555 12.155 3.769 
108 1 2.778 17.819 9.778 
109 1 3.051 -5.577 -19.193 
110 1 12.598 2.052 7.779 
111 1 18.333 -15.798 -10.204 
112 1 17.215 -10.915 10.118 
113 1 -16.146 7.243 5.160 
114 1 -3.669 -11.081 17.619 
115 1 13.046 6.994 8.050 
116 1 -3.646 -18.500 8.568 
117 1 16.337 -18.390 -12.121 
118 1 -7.370 4.600 -2.274 
119 1 -13.813 -0.583 11.886 
120 1 1.270 8.112 4.353 
121 1 2.969 5.154 -3.752 
122 1 3.618 8.574 1.348 
123 1 -16.848 -9.856 -10.664 
124 1 -0.847 18.109 8.600 
125 1 -11.751 -7.438 9.977 
126 1 -7.109 -11.149 15.639 
127 1 -17.959 6.278 13.023 
128 1 11.992 0.937 -9.717 
129 1 -15.689 8.252 15.403 
130 1 -2.481 -3.311 11.550 
131 1 11.114 10.300 16.116 
132 1 -4.595 14.940 12.690 
133 1 1.618 -16.268 17.317 
134 1 -3.985 -5.662 0.620 
135 1 -0.010 3.129 -2.477 
136 1 -15.495 3.854 7.107 
137 1 17.271 13.186 3.865 
138 1 -14.058 4.591 3.481 
139 1 -9.548 -1.468 -2.452 
140 1 1.617 11.109 13.130 
141 1 -7.514 -6.554 -5.995 
142 1 -16.250 -3.209 -0.575 
143 1 -2.737 8.656 9.876 
144 1 3.761 7.926 -18.879 
145 1 1.315 -18.497 13.736 
146 1 0.478 -12.202 18.406 
147 1 -14.420 9.358 -1.525 
148 1 2.590 -16.514 -5.733 
149 1 -2.244 8.787 6.052 
150 1 -6.743 17.933 2.072 
151 1 5.464 2.192 -6.841 
152 1 17.674 0.739 17.171 
153 1 -1.505 -13.466 0.591 
154 1 -7.240 -18.676 -1.351 
155 1 7.228 -8.303 -5.630 
156 1 10.361 -16.154 16.428 
157 1 -15.451 16.975 18.335 
158 1 -9.699 6.846 12.491 
159 1 11.109 -11.580 3.196 
160 1 14.250 -8.849 8.973 
161 1 -0.615 -7.926 -9.053 
162 1 10.599 -2.297 -11.461 
163 1 14.521 0.235 -3.847 
164 1 4.445 -13.731 -19.362 
165 1 3.867 6.998 -11.480 
166 1 0.793 -1.822 18.205 
167 1 -12.493 4.105 9.570 
168 1 17.997 -2.606 -16.760 
169 1 -7.260 -14.007 13.208 
170 1 11.415 -10.609 10.494 
171 1 5.353 -5.414 16.924 
172 1 11.076 0.443 -2.188 
173 1 1.060 1.926 18.970 
174 1 6.878 -15.715 -0.475 
175 1 15.752 -13.286 -11.383 
176 1 2.606 18.671 -10.924 
177 1 0.175 -0.631 11.020 
178 1 2.899 -19.580 -18.334 
179 1 12.715 -14.611 -13.224 
180 1 -12.744 2.765 13.107 
181 1 -0.065 -2.373 14.425 
182 1 -8.908 10.615 12.845 
183 1 14.264 12.329 16.864 
184 1 10.327 -1.462 1.042 
185 1 0.887 -0.567 -7.307 
186 1 14.304 -15.741 -16.527 
187 1 0.714 5.478 -18.794 
188 1 -2.687 4.581 -16.346 
189 1 0.669 -8.883 -18.808 
190 1 9.302 16.137 0.428 
191 1 16.114 0.860 8.640 
192 1 -18.227 11.113 15.747 
193 1 -15.572 -13.483 7.594 
194 1 -11.647 17.665 15.569 
195 1 9.411 10.616 9.589 
196 1 9.136 2.669 -8.009 
197 1 -5.139 2.809 5.137 
198 1 3.821 -4.693 -15.537 
199 1 -11.363 -17.078 -16.690 
200 1 5.247 15.906 -10.976 
ITEM: TIMESTEP
50
ITEM: NUMBER OF ATOMS
200
ITEM: BOX BOUNDS pp pp pp
-19.592236299174868 19.592236299174868
-19.592236299174868 19.592236299174868
-19.592236299174868 19.592236299174868
ITEM: ATOMS id type x y z
1 1 12.870 -18.386 -14.026 
2 1 5.510 5.696 -0.157 
3 1 -7.893 12.793 9.964 
4 1 -7.685 -15.636 -17.263 
5 1 -8.860 -6.099 19.307 
6 1 15.055 -7.663 5.438 
7 1 -4.203 -9.430 -0.601 
8 1 1.767 5.483 0.047 
9 1 11.200 -7.130 8.843 
10 1 -18.933 -10.863 -13.820 
11 1 1.796 -1.588 -17.185 
12 1 -5.955 -8.347 17.969 
13 1 14.454 5.981 -11.686 
14 1 11.941 -9.857 6.812 
15 1 -1.052 3.875 -13.024 
16 1 -10.335 -19.010 -6.876 
17 1 -6.092 9.805 8.407 
18 1 16.676 -4.064 5.240 
19 1 -15.822 3.249 10.844 
20 1 6.388 4.596 -13.077 
21 1 17.339 4.596 -9.694 
22 1 -8.984 -18.913 16.391 
23 1 -6.616 0.840 -7.862 
24 1 15.467 1.682 -11.251 
25 1 16.931 -9.839 -12.303 
26 1 -13.971 6.362 12.285 
27 1 -15.438 6.218 0.609 
28 1 5.554 -17.033 19.428 
29 1 -15.341 13.391 16.862 
30 1 -4.995 -14.478 16.393 
31 1 -2.785 -15.617 -11.963 
32 1 -5.369 -15.543 10.330 
33 1 -9.725 -4.746 8.205 
34 1 4.522 -16.582 15.430 
35 1 10.412 4.766 6.272 
36 1 -3.785 1.333 -13.651 
37 1 18.519 -0.807 6.261 
38 1 -11.523 2.124 18.482 
39 1 14.140 -4.969 7.932 
40 1 13.286 -10.983 -12.530 
41 1 6.807 -11.112 -19.223 
42 1 1.791 11.518 4.015 
43 1 -6.718 -1.948 -16.989 
44 1 11.234 12.413 6.742 
45 1 -15.114 13.584 6.494 
46 1 11.315 0.297 -6.086 
47 1 6.558 -10.529 -8.670 
48 1 -17.832 16.172 5.707 
49 1 17.442 0.427 -14.308 
50 1 -0.561 -18.705 -12.032 
51 1 1.638 -10.917 6.389 
52 1 -15.945 -9.872 6.521 
53 1 2.999 -15.970 -16.991 
54 1 14.614 -15.965 -9.296 
55 1 5.177 -2.784 -18.575 
56 1 -4.452 17.017 9.543 
57 1 -0.592 1.245 -15.956 
58 1 7.495 -4.441 -15.787 
59 1 14.529 -9.709 12.611 
60 1 -6.386 -3.151 7.168 
61 1 18.987 3.892 15.119 
62 1 14.622 -0.930 5.848 
63 1 -1.995 -14.736 18.695 
64 1 -1.939 -11.616 -18.220 
65 1 -17.645 0.916 8.391 
66 1 -7.893 1.411 -4.313 
67 1 4.503 -1.337 -6.792 
68 1 -12.997 -10.887 8.739 
69 1 -0.828 -7.816 -0.005 
70 1 -14.191 10.940 -4.932 
71 1 -8.306 -16.826 -4.524 
72 1 -19.416 16.337 -9.337 
73 1 -5.290 -13.265 -19.184 
74 1 -6.816 18.929 -4.965 
75 1 17.213 4.154 -13.527 
76 1 17.291 13.534 -4.292 
77 1 -16.349 1.900 14.282 
78 1 -1.314 14.474 14.501 
79 1 -15.055 -16.250 3.784 
80 1 19.332 1.842 -11.348 
81 1 -9.024 -10.727 12.365 
82 1 -0.914 0.687 16.347 
83 1 4.452 -9.871 8.743 
84 1 -8.752 8.796 -17.472 
85 1 1.296 16.256 -1.953 
86 1 -6.174 8.221 11.866 
87 1 -6.057 -5.061 3.856 
88 1 7.632 -19.572 -0.031 
89 1 8.825 18.489 3.420 
90 1 10.204 -5.641 -13.224 
91 1 6.316 4.972 -9.273 
92 1 11.608 6.555 16.409 
93 1 5.933 -1.739 5.929 
94 1 -16.658 -19.462 -18.784 
95 1 -5.629 10.830 -18.325 
96 1 19.275 -12.140 -10.359 
97 1 -0.515 -11.513 14.901 
98 1 2.015 0.050 -3.825 
99 1 -10.037 2.088 -1.205 
100 1 17.327 11.008 -13.515 
101 1 3.799 5.357 3.286 
102 1 -7.845 -16.526 -8.319 
103 1 1.946 -11.946 11.776 
104 1 19.509 -18.515 11.050 
105 1 7.798 -18.290 14.450 
106 1 0.567 -18.449 -8.395 
107 1 13.616 12.170 3.779 
108 1 2.677 17.983 10.093 
109 1 2.420 -5.308 -19.120 
110 1 12.815 2.065 7.544 
111 1 18.462 -15.831 -10.026 
112 1 17.234 -11.009 10.162 
113 1 -16.139 7.093 5.168 
114 1 -3.312 -11.241 17.478 
115 1 12.903 6.995 8.086 
116 1 -3.671 -18.521 8.634 
117 1 16.100 -17.790 -12.210 
118 1 -7.336 4.573 -2.273 
119 1 -14.286 -0.065 11.506 
120 1 1.037 7.821 4.240 
121 1 3.408 4.796 -3.450 
122 1 3.462 8.658 1.419 
123 1 -16.936 -9.806 -10.731 
124 1 -0.876 18.076 8.723 
125 1 -11.484 -7.641 10.077 
126 1 -6.840 -11.233 15.736 
127 1 -17.588 5.598 13.075 
128 1 12.021 0.955 -9.784 
129 1 -15.667 8.128 15.192 
130 1 -2.457 -3.263 11.710 
131 1 11.090 10.320 16.064 
132 1 -4.686 14.655 12.531 
133 1 1.674 -16.063 17.884 
134 1 -4.018 -5.787 0.674 
135 1 0.122 3.116 -2.484 
136 1 -15.399 3.875 7.187 
137 1 17.308 13.255 3.947 
138 1 -14.008 4.375 3.637 
139 1 -9.518 -1.493 -2.468 
140 1 1.236 11.402 13.197 
141 1 -7.483 -6.491 -5.915 
142 1 -16.223 -3.191 -0.569 
143 1 -2.815 8.738 9.967 
144 1 3.527 7.692 -18.823 
145 1 1.405 -18.335 13.969 
146 1 0.749 -12.262 18.361 
147 1 -14.433 9.284 -1.481 
148 1 2.601 -16.561 -5.763 
149 1 -2.198 8.886 6.164 
150 1 -6.782 18.188 1.715 
151 1 5.257 2.385 -6.633 
152 1 17.815 0.873 17.107 
153 1 -1.663 -13.009 0.504 
154 1 -7.267 -18.821 -1.418 
155 1 7.222 -8.282 -5.648 
156 1 10.133 -16.126 16.541 
157 1 -15.077 17.050 18.082 
158 1 -10.149 6.730 12.169 
159 1 11.138 -11.560 3.163 
160 1 14.290 -8.574 8.812 
161 1 -0.607 -7.913 -9.041 
162 1 10.605 -2.226 -11.444 
163 1 14.454 0.252 -3.919 
164 1 4.052 -13.608 19.464 
165 1 3.817 6.897 -11.437 
166 1 1.155 -2.075 18.355 
167 1 -12.387 4.205 9.646 
168 1 17.984 -2.471 -16.739 
169 1 -7.239 -14.066 13.295 
170 1 11.507 -10.435 10.323 
171 1 5.175 -5.052 17.473 
172 1 11.010 0.446 -2.275 
173 1 0.862 1.544 -19.492 
174 1 6.913 -15.846 -0.442 
175 1 16.098 -13.483 -11.724 
176 1 2.626 18.729 -10.910 
177 1 0.183 -0.565 11.297 
178 1 2.705 -19.291 -18.734 
179 1 12.794 -14.815 -12.855 
180 1 -12.776 2.952 13.249 
181 1 0.048 -2.526 14.607 
182 1 -9.059 10.462 12.757 
183 1 14.281 12.263 16.855 
184 1 10.402 -1.385 1.046 
185 1 0.901 -0.332 -7.417 
186 1 14.469 -15.664 -16.164 
187 1 0.579 5.229 -18.444 
188 1 -2.580 4.408 -16.449 
189 1 0.741 -8.896 -19.044 
190 1 9.277 16.188 0.407 
191 1 16.252 0.890 8.768 
192 1 -18.131 11.002 15.708 
193 1 -15.452 -13.571 7.382 
194 1 -11.933 17.685 15.971 
195 1 9.613 10.383 9.535 
196 1 8.938 2.523 -8.055 
197 1 -5.142 2.813 5.158 
198 1 3.674 -4.626 -15.600 
199 1 -11.254 -17.070 -16.805 
200 1 5.217 15.932 -10.974 
ITEM: TIMESTEP
60
ITEM: NUMBER OF ATOMS
200
ITEM: BOX BOUNDS pp pp pp
-19.592236299174868 19.592236299174868
-19.592236299174868 19.592236299174868
-19.592236299174868 19.592236299174868
ITEM: ATOMS id type x y z
1 1 12.724 -18.443 -14.101 
2 1 5.389 5.798 -0.240 
3 1 -7.398 12.724 10.231 
4 1 -7.594 -15.543 -17.528 
5 1 -8.535 -6.172 19.286 
6 1 14.819 -7.412 5.244 
7 1 -4.236 -9.582 -0.492 
8 1 1.627 5.559 0.054 
9 1 11.117 -6.920 8.803 
10 1 -19.102 -11.142 -13.774 
11 1 1.633 -1.746 -17.245 
12 1 -5.690 -8.663 18.350 
13 1 14.280 5.488 -11.657 
14 1 12.096 -9.847 6.560 
15 1 -0.774 3.841 -13.217 
16 1 -10.255 -19.110 -6.699 
17 1 -5.947 9.825 8.241 
18 1 16.799 -4.161 5.272 
19 1 -15.866 3.552 10.725 
20 1 6.399 4.504 -12.949 
21 1 17.413 4.652 -9.686 
22 1 -9.070 -18.836 16.416 
23 1 -6.589 0.826 -7.845 
24 1 15.373 1.848 -11.276 
25 1 16.916 -9.797 -12.172 
26 1 -13.994 6.556 12.147 
27 1 -15.495 6.421 1.059 
28 1 5.447 -17.014 19.216 
29 1 -15.297 13.387 16.778 
30 1 -4.885 -14.496 16.237 
31 1 -2.761 -15.654 -11.851 
32 1 -5.313 -15.562 10.451 
33 1 -9.658 -4.940 8.202 
34 1 4.473 -16.176 15.713 
35 1 10.400 4.708 6.266 
36 1 -3.683 1.430 -14.042 
37 1 18.542 -0.887 6.388 
38 1 -11.636 2.184 18.159 
39 1 14.102 -4.621 7.864 
40 1 13.378 -11.249 -12.528 
41 1 6.817 -10.977 -19.215 
42 1 1.795 11.191 3.843 
43 1 -6.632 -1.934 -16.992 
44 1 11.295 12.309 6.733 
45 1 -15.185 13.568 6.464 
46 1 11.248 0.221 -6.150 
47 1 6.555 -10.519 -8.681 
48 1 -18.035 16.000 5.634 
49 1 17.255 0.489 -14.294 
50 1 -0.530 -18.723 -12.119 
51 1 1.597 -10.967 6.541 
52 1 -15.886 -9.903 6.586 
53 1 2.763 -15.806 -17.467 
54 1 14.669 -15.651 -9.431 
55 1 4.987 -2.708 -18.594 
56 1 -4.512 16.925 9.594 
57 1 -0.381 1.319 -15.972 
58 1 7.380 -4.319 -15.934 
59 1 14.504 -9.688 12.610 
60 1 -6.383 -3.189 7.186 
61 1 19.244 3.603 15.111 
62 1 14.631 -1.180 6.190 
63 1 -2.012 -14.749 18.684 
64 1 -1.928 -11.647 -18.284 
65 1 -17.611 0.997 8.532 
66 1 -7.904 1.405 -4.318 
67 1 4.607 -1.245 -6.672 
68 1 -12.950 -11.003 8.793 
69 1 -0.828 -8.054 0.121 
70 1 -14.214 10.897 -4.847 
71 1 -8.383 -16.640 -4.434 
72 1 -19.488 16.331 -9.300 
73 1 -5.353 -13.033 -19.445 
74 1 -6.908 19.130 -5.198 
75 1 17.362 4.233 -13.510 
76 1 17.341 13.571 -4.354 
77 1 -16.479 2.191 14.230 
78 1 -1.371 14.408 14.161 
79 1 -15.093 -15.952 4.157 
80 1 19.228 1.747 -11.306 
81 1 -8.989 -10.664 12.459 
82 1 -0.707 0.522 16.410 
83 1 4.261 -10.077 9.117 
84 1 -8.736 8.771 -17.478 
85 1 1.337 16.287 -1.953 
86 1 -6.345 8.150 11.643 
87 1 -6.058 -5.083 3.863 
88 1 7.607 19.570 -0.051 
89 1 8.825 18.512 3.411 
90 1 10.012 -5.436 -13.311 
91 1 6.142 4.884 -9.153 
92 1 11.668 6.597 16.403 
93 1 5.991 -1.713 5.902 
94 1 -16.514 -19.501 -18.834 
95 1 -5.608 10.799 -18.324 
96 1 19.220 -12.163 -10.215 
97 1 -0.519 -11.921 14.683 
98 1 2.630 0.715 -4.020 
99 1 -10.055 2.073 -1.219 
100 1 17.295 10.879 -13.454 
101 1 3.790 5.325 3.202 
102 1 -7.619 -16.783 -8.145 
103 1 1.938 -11.769 11.680 
104 1 19.526 -18.502 11.011 
105 1 7.473 -18.275 14.626 
106 1 0.478 -18.375 -8.459 
107 1 13.719 12.196 3.789 
108 1 2.537 18.188 10.485 
109 1 2.100 -5.251 -18.954 
110 1 12.992 2.125 7.438 
111 1 18.375 -15.871 -10.006 
112 1 17.069 -11.015 10.128 
113 1 -16.076 6.950 4.905 
114 1 -3.078 -11.274 17.331 
115 1 12.600 7.182 8.162 
116 1 -3.716 -18.590 8.719 
117 1 16.003 -17.330 -12.521 
118 1 -7.319 4.540 -2.250 
119 1 -14.544 0.153 11.423 
120 1 0.776 7.535 4.016 
121 1 3.584 4.349 -3.276 
122 1 3.382 8.655 1.422 
123 1 -17.098 -9.784 -10.812 
124 1 -0.917 18.008 8.863 
125 1 -11.136 -7.939 10.201 
126 1 -6.703 -11.236 15.787 
127 1 -17.555 5.802 13.201 
128 1 11.927 1.129 -9.791 
129 1 -15.482 8.156 15.258 
130 1 -2.435 -3.224 11.852 
131 1 11.061 10.342 16.002 
132 1 -4.706 14.305 12.356 
133 1 1.551 -16.065 18.087 
134 1 -4.031 -5.971 0.710 
135 1 0.104 3.102 -2.461 
136 1 -15.302 3.847 7.141 
137 1 17.398 13.372 4.066 
138 1 -13.809 4.178 3.627 
139 1 -9.496 -1.510 -2.469 
140 1 0.924 11.532 13.150 
141 1 -7.455 -6.410 -5.827 
142 1 -16.192 -3.171 -0.565 
143 1 -2.829 8.854 10.123 
144 1 3.329 7.467 -18.742 
145 1 1.549 -18.182 14.292 
146 1 0.685 -12.259 18.226 
147 1 -14.458 9.183 -1.417 
148 1 2.610 -16.622 -5.810 
149 1 -2.209 8.948 6.293 
150 1 -6.786 18.244 1.621 
151 1 5.063 2.504 -6.373 
152 1 17.885 0.752 17.209 
153 1 -1.770 -12.321 0.413 
154 1 -7.292 -18.884 -1.565 
155 1 7.215 -8.261 -5.667 
156 1 9.739 -16.070 16.730 
157 1 -15.063 16.993 18.062 
158 1 -10.161 6.598 11.944 
159 1 11.204 -11.469 3.248 
160 1 14.662 -8.405 9.143 
161 1 -0.599 -7.904 -9.029 
162 1 10.583 -2.113 -11.394 
163 1 14.389 0.272 -3.982 
164 1 4.160 -13.499 19.031 
165 1 3.720 6.767 -11.441 
166 1 1.705 -2.116 18.153 
167 1 -12.337 4.191 9.648 
168 1 17.976 -2.349 -16.748 
169 1 -7.311 -14.052 13.332 
170 1 11.649 -10.429 10.252 
171 1 4.726 -4.878 17.532 
172 1 10.939 0.450 -2.342 
173 1 0.993 1.301 -19.502 
174 1 6.932 -15.877 -0.414 
175 1 16.304 -13.671 -12.339 
176 1 2.654 18.794 -10.866 
177 1 0.186 -0.469 11.603 
178 1 2.478 -19.213 -19.152 
179 1 12.765 -14.973 -12.536 
180 1 -12.903 3.124 13.266 
181 1 0.139 -2.725 14.681 
182 1 -9.262 10.336 12.562 
183 1 14.297 12.184 16.845 
184 1 10.472 -1.305 1.039 
185 1 1.062 -0.029 -7.395 
186 1 14.829 -15.483 -15.606 
187 1 0.617 4.796 -18.042 
188 1 -2.755 4.217 -16.459 
189 1 0.662 -8.891 -19.186 
190 1 9.292 16.171 0.430 
191 1 16.348 0.935 8.861 
192 1 -18.059 10.951 15.684 
193 1 -15.280 -13.615 7.181 
194 1 -11.892 17.716 16.072 
195 1 9.975 9.941 9.415 
196 1 8.645 2.258 -8.029 
197 1 -5.144 2.818 5.178 
198 1 3.603 -4.563 -15.571 
199 1 -11.115 -17.058 -16.957 
200 1 5.195 15.949 -10.972 
ITEM: TIMESTEP
70
ITEM: NUMBER OF ATOMS
200
ITEM: BOX BOUNDS pp pp pp
-19.592236299174868 19.592236299174868
-19.592236299174868 19.592236299174868
-19.592236299174868 19.592236299174868
ITEM: ATOMS id type x y z
1 1 12.743 -18.349 -14.281 
2 1 5.388 5.835 -0.201 
3 1 -7.279 12.449 10.241 
4 1 -7.514 -15.444 -17.776 
5 1 -8.293 -6.283 19.279 
6 1 14.717 -7.307 5.321 
7 1 -4.423 -9.562 -0.537 
8 1 1.600 5.552 0.067 
9 1 11.141 -6.879 8.722 
10 1 -19.350 -11.500 -13.721 
11 1 1.456 -1.847 -17.301 
12 1 -5.564 -8.993 18.737 
13 1 14.157 5.331 -11.625 
14 1 12.194 -9.843 6.530 
15 1 -0.685 3.928 -13.401 
16 1 -10.333 -19.077 -6.601 
17 1 -5.766 9.773 8.020 
18 1 16.865 -4.149 5.351 
19 1 -15.935 3.697 10.605 
20 1 6.416 4.431 -12.887 
21 1 17.368 4.642 -9.683 
22 1 -9.104 -18.746 16.464 
23 1 -6.573 0.811 -7.835 
24 1 15.368 1.769 -11.222 
25 1 16.896 -9.806 -12.085 
26 1 -13.983 6.706 12.078 
27 1 -15.488 6.460 1.167 
28 1 5.478 -17.040 19.072 
29 1 -15.254 13.340 16.710 
30 1 -4.734 -14.479 16.091 
31 1 -2.724 -15.710 -11.715 
32 1 -5.257 -15.585 10.583 
33 1 -9.595 -5.097 8.204 
34 1 4.524 -15.764 15.680 
35 1 10.413 4.675 6.289 
36 1 -3.568 1.382 -14.089 
37 1 18.602 -0.897 6.511 
38 1 -11.764 2.265 17.827 
39 1 14.104 -4.579 7.916 
40 1 13.441 -11.325 -12.527 
41 1 6.716 -10.996 -19.236 
42 1 1.683 11.044 3.884 
43 1 -6.539 -1.907 -16.980 
44 1 11.361 12.180 6.728 
45 1 -15.268 13.572 6.431 
46 1 11.198 0.176 -6.221 
47 1 6.551 -10.511 -8.687 
48 1 -18.295 15.776 5.536 
49 1 17.186 0.526 -14.315 
50 1 -0.505 -18.756 -12.196 
51 1 1.560 -11.011 6.708 
52 1 -15.818 -9.891 6.635 
53 1 2.664 -15.653 -17.753 
54 1 14.851 -15.337 -9.410 
55 1 4.852 -2.692 -18.628 
56 1 -4.546 16.847 9.627 
57 1 -0.363 1.324 -16.047 
58 1 7.315 -4.244 -16.039 
59 1 14.547 -9.589 12.600 
60 1 -6.393 -3.224 7.200 
61 1 19.261 3.545 15.067 
62 1 14.710 -1.175 6.286 
63 1 -2.067 -14.732 18.732 
64 1 -2.021 -11.583 -18.346 
65 1 -17.570 1.022 8.637 
66 1 -7.912 1.402 -4.322 
67 1 4.755 -1.175 -6.635 
68 1 -12.887 -11.018 8.838 
69 1 -0.917 -8.255 0.213 
70 1 -14.231 10.867 -4.787 
71 1 -8.490 -16.557 -4.386 
72 1 -19.542 16.321 -9.261 
73 1 -5.456 -12.823 19.488 
74 1 -6.822 19.343 -5.366 
75 1 17.317 4.234 -13.470 
76 1 17.382 13.603 -4.411 
77 1 -16.472 2.236 14.222 
78 1 -1.296 14.527 14.058 
79 1 -15.095 -15.899 4.194 
80 1 19.187 1.711 -11.297 
81 1 -8.922 -10.624 12.560 
82 1 -0.521 0.364 16.323 
83 1 4.292 -10.088 9.193 
84 1 -8.726 8.750 -17.480 
85 1 1.369 16.311 -1.953 
86 1 -6.444 8.233 11.441 
87 1 -6.066 -5.109 3.876 
88 1 7.585 19.537 -0.069 
89 1 8.823 18.533 3.402 
90 1 9.903 -5.259 -13.338 
91 1 6.096 4.883 -9.123 
92 1 11.712 6.636 16.389 
93 1 6.038 -1.688 5.879 
94 1 -16.413 -19.498 -18.853 
95 1 -5.599 10.780 -18.319 
96 1 19.053 -12.181 -10.068 
97 1 -0.483 -12.386 14.644 
98 1 2.749 0.715 -3.903 
99 1 -10.066 2.059 -1.223 
100 1 17.279 10.786 -13.414 
101 1 3.757 5.315 3.206 
102 1 -7.408 -17.061 -8.002 
103 1 1.888 -11.804 11.627 
104 1 19.537 -18.492 10.985 
105 1 7.161 -18.310 14.799 
106 1 0.382 -18.295 -8.522 
107 1 13.849 12.245 3.825 
108 1 2.405 18.354 10.801 
109 1 1.981 -5.262 -18.918 
110 1 13.086 2.153 7.397 
111 1 18.490 -15.909 -10.131 
112 1 16.961 -11.075 10.075 
113 1 -16.032 6.872 4.940 
114 1 -2.892 -11.264 17.176 
115 1 12.565 7.226 8.119 
116 1 -3.753 -18.651 8.808 
117 1 15.923 -17.351 -12.428 
118 1 -7.310 4.515 -2.227 
119 1 -14.619 0.384 11.289 
120 1 0.607 7.401 3.795 
121 1 3.586 4.378 -3.208 
122 1 3.350 8.650 1.410 
123 1 -17.310 -9.806 -10.926 
124 1 -0.945 17.945 8.995 
125 1 -10.898 -8.092 10.285 
126 1 -6.621 -11.243 15.868 
127 1 -17.574 5.962 13.423 
128 1 11.853 1.313 -9.808 
129 1 -15.291 8.206 15.315 
130 1 -2.395 -3.196 11.969 
131 1 11.036 10.362 15.954 
132 1 -4.636 14.154 12.319 
133 1 1.449 -16.018 17.868 
134 1 -3.980 -6.010 0.772 
135 1 0.111 3.083 -2.471 
136 1 -15.274 3.730 7.140 
137 1 17.527 13.519 4.195 
138 1 -13.707 4.126 3.579 
139 1 -9.481 -1.524 -2.469 
140 1 0.738 11.478 13.004 
141 1 -7.436 -6.345 -5.757 
142 1 -16.158 -3.158 -0.573 
143 1 -2.814 9.017 10.237 
144 1 3.216 7.304 -18.657 
145 1 1.680 -18.055 14.593 
146 1 0.673 -12.289 18.218 
147 1 -14.469 9.132 -1.379 
148 1 2.614 -16.679 -5.865 
149 1 -2.190 8.954 6.365 
150 1 -6.787 18.272 1.574 
151 1 4.970 2.571 -6.347 
152 1 17.953 0.705 17.261 
153 1 -1.652 -12.004 0.438 
154 1 -7.313 -18.949 -1.674 
155 1 7.208 -8.248 -5.675 
156 1 9.228 -15.999 16.961 
157 1 -15.067 16.935 18.048 
158 1 -10.192 6.492 11.882 
159 1 11.241 -11.422 3.246 
160 1 14.703 -8.261 9.061 
161 1 -0.591 -7.895 -9.026 
162 1 10.571 -1.996 -11.325 
163 1 14.328 0.287 -4.030 
164 1 4.205 -13.515 18.716 
165 1 3.620 6.626 -11.473 
166 1 1.877 -2.107 18.124 
167 1 -12.423 4.174 9.630 
168 1 17.975 -2.270 -16.782 
169 1 -7.345 -14.026 13.379 
170 1 11.728 -10.371 10.258 
171 1 4.467 -4.816 17.431 
172 1 10.870 0.451 -2.407 
173 1 1.160 1.258 -19.562 
174 1 6.946 -15.901 -0.392 
175 1 16.460 -13.638 -12.458 
176 1 2.668 18.846 -10.811 
177 1 0.172 -0.382 11.960 
178 1 2.399 -19.119 -19.338 
179 1 12.796 -15.012 -12.479 
180 1 -12.931 3.273 13.262 
181 1 0.281 -2.977 14.753 
182 1 -9.448 10.244 12.483 
183 1 14.307 12.120 16.838 
184 1 10.524 -1.252 1.023 
185 1 1.304 0.274 -7.366 
186 1 14.961 -15.351 -15.519 
187 1 0.716 4.583 -17.683 
188 1 -2.843 4.191 -16.515 
189 1 0.564 -8.882 -19.312 
190 1 9.303 16.160 0.448 
191 1 16.408 0.985 8.942 
192 1 -18.005 10.874 15.644 
193 1 -15.238 -13.605 7.243 
194 1 -11.870 17.744 16.132 
195 1 10.050 9.797 9.400 
196 1 8.448 2.067 -8.063 
197 1 -5.137 2.830 5.194 
198 1 3.546 -4.509 -15.559 
199 1 -10.993 -17.043 -17.092 
200 1 5.173 15.967 -10.968 
ITEM: TIMESTEP
80
ITEM: NUMBER OF ATOMS
200
ITEM: BOX BOUNDS pp pp pp
-19.592236299174868 19.592236299174868
-19.592236299174868 19.592236299174868
-19.592236299174868 19.592236299174868
ITEM: ATOMS id type x y z
1 1 12.796 -18.280 -14.395 
2 1 5.377 5.844 -0.170 
3 1 -7.166 12.126 10.301 
4 1 -7.489 -15.433 -17.943 
5 1 -8.121 -6.380 19.276 
6 1 14.637 -7.214 5.355 
7 1 -4.447 -9.546 -0.540 
8 1 1.581 5.539 0.076 
9 1 11.205 -6.889 8.630 
10 1 -19.509 -11.820 -13.642 
11 1 1.351 -1.840 -17.319 
12 1 -5.374 -9.124 18.913 
13 1 14.041 5.195 -11.567 
14 1 12.282 -9.871 6.569 
15 1 -0.560 4.010 -13.587 
16 1 -10.319 -19.067 -6.555 
17 1 -5.636 9.710 7.819 
18 1 16.918 -4.142 5.430 
19 1 -16.140 3.998 10.805 
20 1 6.428 4.363 -12.855 
21 1 17.304 4.606 -9.660 
22 1 -9.134 -18.664 16.522 
23 1 -6.561 0.798 -7.828 
24 1 15.356 1.685 -11.181 
25 1 16.933 -9.800 -12.016 
26 1 -14.025 6.780 12.023 
27 1 -15.500 6.466 1.203 
28 1 5.414 -17.014 18.850 
29 1 -15.224 13.280 16.656 
30 1 -4.516 -14.436 15.922 
31 1 -2.663 -15.782 -11.549 
32 1 -5.197 -15.609 10.721 
33 1 -9.538 -5.202 8.182 
34 1 4.519 -15.538 15.512 
35 1 10.414 4.650 6.303 
36 1 -3.559 1.394 -14.033 
37 1 18.659 -0.901 6.606 
38 1 -11.922 2.369 17.431 
39 1 14.130 -4.539 7.994 
40 1 13.511 -11.356 -12.514 
41 1 6.704 -10.966 -19.226 
42 1 1.558 10.918 3.958 
43 1 -6.441 -1.868 -16.955 
44 1 11.435 12.045 6.717 
45 1 -15.359 13.583 6.398 
46 1 11.150 0.152 -6.298 
47 1 6.547 -10.504 -8.691 
48 1 -18.486 15.593 5.466 
49 1 17.147 0.535 -14.322 
50 1 -0.479 -18.799 -12.276 
51 1 1.521 -11.062 6.889 
52 1 -15.763 -9.884 6.670 
53 1 2.622 -15.575 -17.924 
54 1 15.018 -15.066 -9.389 
55 1 4.824 -2.709 -18.681 
56 1 -4.562 16.789 9.666 
57 1 -0.385 1.163 -16.144 
58 1 7.262 -4.205 -16.099 
59 1 14.591 -9.470 12.608 
60 1 -6.389 -3.239 7.214 
61 1 19.241 3.512 15.015 
62 1 14.774 -1.138 6.335 
63 1 -2.073 -14.706 18.720 
64 1 -2.162 -11.480 -18.435 
65 1 -17.633 0.982 8.682 
66 1 -7.920 1.399 -4.324 
67 1 4.912 -1.114 -6.581 
68 1 -12.839 -11.028 8.871 
69 1 -0.940 -8.230 0.241 
70 1 -14.244 10.854 -4.759 
71 1 -8.492 -16.527 -4.390 
72 1 -19.588 16.308 -9.221 
73 1 -5.402 -12.865 19.280 
74 1 -6.776 19.364 -5.377 
75 1 17.237 4.227 -13.437 
76 1 17.420 13.634 -4.467 
77 1 -16.442 2.314 14.135 
78 1 -1.218 14.649 13.939 
79 1 -15.094 -15.858 4.218 
80 1 19.167 1.710 -11.306 
81 1 -8.840 -10.594 12.679 
82 1 -0.376 0.293 16.193 
83 1 4.323 -10.097 9.268 
84 1 -8.718 8.733 -17.482 
85 1 1.396 16.332 -1.954 
86 1 -6.516 8.391 11.292 
87 1 -6.091 -5.135 3.903 
88 1 7.565 19.508 -0.086 
89 1 8.821 18.554 3.391 
90 1 9.825 -5.093 -13.338 
91 1 6.089 4.888 -9.110 
92 1 11.752 6.671 16.378 
93 1 6.078 -1.667 5.858 
94 1 -16.322 -19.502 -18.878 
95 1 -5.591 10.765 -18.315 
96 1 18.895 -12.209 -9.902 
97 1 -0.413 -12.941 14.708 
98 1 2.854 0.684 -3.781 
99 1 -10.076 2.045 -1.224 
100 1 17.267 10.709 -13.382 
101 1 3.729 5.324 3.225 
102 1 -7.348 -17.101 -7.990 
103 1 1.807 -11.858 11.614 
104 1 19.544 -18.482 10.965 
105 1 6.860 -18.424 14.996 
106 1 0.279 -18.199 -8.598 
107 1 13.980 12.299 3.876 
108 1 2.276 18.516 11.111 
109 1 1.932 -5.299 -18.953 
110 1 13.164 2.200 7.389 
111 1 18.619 -15.921 -10.253 
112 1 16.840 -11.124 10.000 
113 1 -15.968 6.782 5.007 
114 1 -2.865 -11.220 17.110 
115 1 12.596 7.232 8.054 
116 1 -3.773 -18.699 8.895 
117 1 15.861 -17.347 -12.399 
118 1 -7.303 4.494 -2.206 
119 1 -14.533 0.521 11.220 
120 1 0.483 7.297 3.630 
121 1 3.581 4.394 -3.178 
122 1 3.315 8.652 1.415 
123 1 -17.546 -9.832 -11.043 
124 1 -0.954 17.900 9.127 
125 1 -10.774 -8.163 10.325 
126 1 -6.548 -11.230 15.945 
127 1 -17.462 5.985 13.541 
128 1 11.788 1.500 -9.822 
129 1 -15.076 8.288 15.372 
130 1 -2.341 -3.163 12.079 
131 1 11.013 10.381 15.910 
132 1 -4.547 13.994 12.262 
133 1 1.448 -15.896 17.688 
134 1 -3.997 -6.010 0.812 
135 1 0.128 3.051 -2.482 
136 1 -15.236 3.618 6.986 
137 1 17.598 13.610 4.289 
138 1 -13.658 4.113 3.603 
139 1 -9.468 -1.535 -2.469 
140 1 0.494 11.416 12.837 
141 1 -7.423 -6.288 -5.693 
142 1 -16.129 -3.146 -0.579 
143 1 -2.824 9.246 10.300 
144 1 3.183 7.228 -18.603 
145 1 1.847 -18.117 14.612 
146 1 0.719 -12.243 18.286 
147 1 -14.464 9.114 -1.357 
148 1 2.609 -16.737 -5.927 
149 1 -2.069 8.946 6.388 
150 1 -6.787 18.293 1.541 
151 1 4.826 2.628 -6.370 
152 1 18.021 0.690 17.293 
153 1 -1.663 -11.968 0.459 
154 1 -7.348 -18.976 -1.717 
155 1 7.202 -8.237 -5.681 
156 1 8.622 -15.864 17.159 
157 1 -15.070 16.874 18.031 
158 1 -10.227 6.395 11.870 
159 1 11.267 -11.384 3.235 
160 1 14.701 -8.166 9.001 
161 1 -0.584 -7.889 -9.024 
162 1 10.554 -1.878 -11.237 
163 1 14.269 0.300 -4.082 
164 1 4.219 -13.450 18.605 
165 1 3.535 6.473 -11.506 
166 1 1.877 -2.110 18.104 
167 1 -12.474 4.152 9.650 
168 1 17.979 -2.211 -16.828 
169 1 -7.365 -14.028 13.442 
170 1 11.779 -10.332 10.245 
171 1 4.371 -4.845 17.378 
172 1 10.805 0.444 -2.477 
173 1 1.166 1.289 -19.544 
174 1 6.960 -15.921 -0.370 
175 1 16.531 -13.598 -12.512 
176 1 2.674 18.898 -10.744 
177 1 0.149 -0.287 12.346 
178 1 2.355 -19.029 -19.539 
179 1 12.832 -15.041 -12.447 
180 1 -12.951 3.418 13.316 
181 1 0.383 -3.181 14.822 
182 1 -9.644 10.159 12.465 
183 1 14.313 12.061 16.833 
184 1 10.564 -1.204 0.994 
185 1 1.573 0.595 -7.333 
186 1 14.999 -15.308 -15.512 
187 1 0.789 4.513 -17.426 
188 1 -2.894 4.122 -16.622 
189 1 0.447 -8.814 -19.405 
190 1 9.312 16.152 0.462 
191 1 16.457 1.026 8.994 
192 1 -17.953 10.780 15.595 
193 1 -15.211 -13.601 7.295 
194 1 -11.855 17.778 16.186 
195 1 10.055 9.734 9.416 
196 1 8.268 1.897 -8.097 
197 1 -5.130 2.845 5.205 
198 1 3.511 -4.505 -15.567 
199 1 -10.905 -17.039 -17.217 
200 1 5.147 15.990 -10.965 
ITEM: TIMESTEP
90
ITEM: NUMBER OF ATOMS
200
ITEM: BOX BOUNDS pp pp pp
-19.592236299174868 19.592236299174868
-19.592236299174868 19.592236299174868
-19.592236299174868 19.592236299174868
ITEM: ATOMS id type x y z
1 1 12.801 -18.229 -14.449 
2 1 5.363 5.872 -0.121 
3 1 -7.102 11.959 10.290 
4 1 -7.452 -15.453 -18.125 
5 1 -7.902 -6.538 19.259 
6 1 14.478 -7.056 5.372 
7 1 -4.463 -9.522 -0.542 
8 1 1.565 5.510 0.069 
9 1 11.262 -6.889 8.472 
10 1 -19.449 -12.065 -13.586 
11 1 1.469 -2.088 -17.408 
12 1 -5.127 -9.223 19.031 
13 1 13.851 4.982 -11.451 
14 1 12.426 -9.963 6.573 
15 1 -0.496 4.034 -13.708 
16 1 -10.279 -19.067 -6.529 
17 1 -5.521 9.638 7.714 
18 1 16.959 -4.142 5.539 
19 1 -16.242 4.067 10.669 
20 1 6.440 4.251 -12.840 
21 1 17.192 4.542 -9.617 
22 1 -9.175 -18.550 16.629 
23 1 -6.552 0.778 -7.819 
24 1 15.331 1.550 -11.124 
25 1 17.060 -9.816 -12.062 
26 1 -14.026 6.931 11.933 
27 1 -15.471 6.453 1.299 
28 1 5.068 -17.046 18.594 
29 1 -15.195 13.178 16.591 
30 1 -4.236 -14.363 15.628 
31 1 -2.510 -15.941 -11.223 
32 1 -5.091 -15.640 10.950 
33 1 -9.467 -5.315 8.132 
34 1 4.532 -15.254 15.261 
35 1 10.420 4.629 6.326 
36 1 -3.557 1.505 -13.962 
37 1 18.719 -0.912 6.701 
38 1 -12.197 2.526 16.908 
39 1 14.161 -4.434 8.097 
40 1 13.572 -11.332 -12.454 
41 1 6.720 -10.927 -19.216 
42 1 1.359 10.738 4.098 
43 1 -6.296 -1.791 -16.903 
44 1 11.521 11.838 6.732 
45 1 -15.414 13.557 6.374 
46 1 11.088 0.130 -6.428 
47 1 6.541 -10.497 -8.696 
48 1 -18.528 15.573 5.465 
49 1 17.105 0.532 -14.324 
50 1 -0.432 -18.882 -12.406 
51 1 1.452 -11.147 7.157 
52 1 -15.699 -9.880 6.704 
53 1 2.459 -15.473 -18.165 
54 1 15.200 -14.878 -9.373 
55 1 4.779 -2.764 -18.737 
56 1 -4.549 16.700 9.762 
57 1 -0.634 1.287 -16.041 
58 1 7.252 -4.195 -16.124 
59 1 14.664 -9.333 12.605 
60 1 -6.377 -3.239 7.235 
61 1 19.276 3.499 14.923 
62 1 14.851 -1.090 6.382 
63 1 -1.947 -14.672 18.615 
64 1 -2.266 -11.424 -18.514 
65 1 -17.684 1.063 8.836 
66 1 -7.931 1.396 -4.328 
67 1 5.131 -0.929 -6.577 
68 1 -12.784 -11.039 8.904 
69 1 -0.962 -8.202 0.264 
70 1 -14.260 10.832 -4.716 
71 1 -8.444 -16.501 -4.410 
72 1 19.535 16.285 -9.158 
73 1 -5.341 -13.013 19.067 
74 1 -6.726 19.377 -5.383 
75 1 17.083 4.208 -13.385 
76 1 17.472 13.679 -4.556 
77 1 -16.407 2.307 14.050 
78 1 -1.088 14.849 13.711 
79 1 -15.090 -15.801 4.242 
80 1 19.135 1.727 -11.322 
81 1 -8.739 -10.558 12.803 
82 1 -0.381 0.267 16.232 
83 1 4.308 -10.162 9.449 
84 1 -8.709 8.713 -17.484 
85 1 1.430 16.359 -1.956 
86 1 -6.543 8.321 11.194 
87 1 -6.141 -5.179 3.949 
88 1 7.537 19.473 -0.109 
89 1 8.817 18.582 3.376 
90 1 9.753 -4.855 -13.291 
91 1 6.126 4.884 -9.128 
92 1 11.807 6.721 16.367 
93 1 6.131 -1.642 5.830 
94 1 -16.193 -19.520 -18.925 
95 1 -5.581 10.747 -18.311 
96 1 18.702 -12.277 -9.780 
97 1 -0.399 -13.556 15.045 
98 1 2.995 0.693 -3.719 
99 1 -10.085 2.025 -1.225 
100 1 17.253 10.615 -13.346 
101 1 3.685 5.328 3.247 
102 1 -7.313 -17.110 -8.007 
103 1 1.684 -11.979 11.692 
104 1 19.553 -18.469 10.942 
105 1 6.370 -18.521 15.314 
106 1 0.103 -18.012 -8.749 
107 1 14.015 12.314 3.894 
108 1 2.108 18.700 11.511 
109 1 1.928 -5.280 -18.982 
110 1 13.261 2.274 7.393 
111 1 18.721 -15.941 -10.430 
112 1 16.627 -11.212 9.931 
113 1 -15.943 6.723 5.108 
114 1 -2.644 -11.207 16.962 
115 1 12.630 7.271 7.955 
116 1 -3.777 -18.758 9.043 
117 1 15.838 -17.335 -12.354 
118 1 -7.297 4.467 -2.180 
119 1 -14.423 0.913 11.036 
120 1 0.346 7.159 3.489 
121 1 3.576 4.434 -3.123 
122 1 3.236 8.654 1.443 
123 1 -17.894 -9.782 -11.048 
124 1 -0.944 17.848 9.350 
125 1 -10.654 -8.225 10.360 
126 1 -6.405 -11.190 15.922 
127 1 -17.333 6.075 13.787 
128 1 11.717 1.776 -9.839 
129 1 -14.813 8.350 15.374 
130 1 -2.288 -3.129 12.209 
131 1 10.980 10.404 15.853 
132 1 -4.308 13.679 12.122 
133 1 1.491 -15.779 17.445 
134 1 -4.029 -6.001 0.852 
135 1 0.161 2.989 -2.502 
136 1 -15.272 3.479 7.115 
137 1 17.589 13.603 4.323 
138 1 -13.627 4.067 3.650 
139 1 -9.451 -1.552 -2.471 
140 1 -0.035 11.355 12.537 
141 1 -7.409 -6.211 -5.610 
142 1 -16.094 -3.132 -0.588 
143 1 -2.893 9.692 10.404 
144 1 3.171 7.167 -18.552 
145 1 2.240 -18.231 14.702 
146 1 0.767 -12.196 18.409 
147 1 -14.469 9.071 -1.317 
148 1 2.577 -16.829 -6.047 
149 1 -1.858 8.998 6.412 
150 1 -6.785 18.303 1.517 
151 1 4.853 2.787 -6.297 
152 1 18.117 0.712 17.304 
153 1 -1.683 -11.940 0.483 
154 1 -7.408 -18.992 -1.739 
155 1 7.188 -8.223 -5.691 
156 1 8.081 -15.499 17.028 
157 1 -15.073 16.780 18.001 
158 1 -10.277 6.272 11.905 
159 1 11.294 -11.330 3.227 
160 1 14.778 -8.096 9.000 
161 1 -0.568 -7.888 -9.021 
162 1 10.520 -1.687 -11.062 
163 1 14.185 0.314 -4.171 
164 1 4.334 -13.389 18.476 
165 1 3.430 6.239 -11.552 
166 1 1.944 -2.099 18.202 
167 1 -12.604 4.081 9.690 
168 1 17.986 -2.138 -16.895 
169 1 -7.383 -14.043 13.562 
170 1 11.874 -10.267 10.262 
171 1 4.276 -4.868 17.288 
172 1 10.713 0.426 -2.589 
173 1 1.175 1.295 -19.564 
174 1 6.979 -15.946 -0.340 
175 1 16.509 -13.629 -12.572 
176 1 2.660 18.979 -10.617 
177 1 0.204 -0.275 12.516 
178 1 2.019 -18.979 19.395 
179 1 12.877 -15.021 -12.380 
180 1 -12.986 3.639 13.368 
181 1 0.463 -3.297 14.839 
182 1 -9.745 10.040 12.377 
183 1 14.316 11.981 16.826 
184 1 10.609 -1.142 0.935 
185 1 1.748 0.808 -7.296 
186 1 14.995 -15.295 -15.520 
187 1 0.846 4.403 -17.278 
188 1 -2.870 4.046 -16.704 
189 1 0.185 -8.727 -19.548 
190 1 9.321 16.143 0.479 
191 1 16.532 1.078 9.047 
192 1 -17.874 10.618 15.515 
193 1 -15.186 -13.598 7.357 
194 1 -11.840 17.836 16.263 
195 1 10.049 9.639 9.459 
196 1 8.064 1.673 -8.171 
197 1 -5.119 2.866 5.216 
198 1 3.478 -4.532 -15.620 
199 1 -10.860 -17.076 -17.385 
200 1 5.099 16.037 -10.962 
ITEM: TIMESTEP
100
ITEM: NUMBER OF ATOMS
200
ITEM: BOX BOUNDS pp pp pp
-19.592236299174868 19.592236299174868
-19.592236299174868 19.592236299174868
-19.592236299174868 19.592236299174868
ITEM: ATOMS id type x y z
1 1 12.754 -18.199 -14.411 
2 1 5.341 5.927 -0.058 
3 1 -6.967 11.863 10.263 
4 1 -7.434 -15.493 -18.306 
5 1 -7.748 -6.672 19.226 
6 1 14.259 -6.884 5.423 
7 1 -4.479 -9.499 -0.543 
8 1 1.543 5.475 0.073 
9 1 11.361 -6.914 8.262 
10 1 -19.254 -12.286 -13.464 
11 1 1.409 -1.971 -17.333 
12 1 -4.957 -9.298 19.058 
13 1 13.707 4.854 -11.367 
14 1 12.653 -10.078 6.592 
15 1 -0.475 4.025 -13.709 
16 1 -10.236 -19.065 -6.506 
17 1 -5.534 9.544 7.568 
18 1 16.964 -4.161 5.647 
19 1 -16.288 4.242 10.703 
20 1 6.453 4.129 -12.859 
21 1 17.061 4.466 -9.560 
22 1 -9.218 -18.420 16.788 
23 1 -6.543 0.758 -7.814 
24 1 15.274 1.438 -11.074 
25 1 17.194 -9.844 -12.177 
26 1 -14.047 7.136 11.770 
27 1 -15.437 6.445 1.402 
28 1 4.819 -17.085 18.481 
29 1 -15.179 13.052 16.531 
30 1 -4.098 -14.314 15.453 
31 1 -2.447 -16.045 -11.024 
32 1 -4.946 -15.670 11.247 
33 1 -9.392 -5.418 8.063 
34 1 4.399 -15.130 15.047 
35 1 10.444 4.625 6.362 
36 1 -3.582 1.625 -13.916 
37 1 18.774 -0.934 6.776 
38 1 -12.441 2.573 16.750 
39 1 14.179 -4.326 8.225 
40 1 13.652 -11.290 -12.339 
41 1 6.741 -10.900 -19.221 
42 1 1.196 10.585 4.236 
43 1 -6.136 -1.679 -16.829 
44 1 11.625 11.565 6.760 
45 1 -15.454 13.524 6.357 
46 1 11.025 0.078 -6.574 
47 1 6.535 -10.491 -8.701 
48 1 -18.544 15.587 5.474 
49 1 17.056 0.520 -14.315 
50 1 -0.391 -18.927 -12.482 
51 1 1.373 -11.250 7.452 
52 1 -15.642 -9.879 6.729 
53 1 2.277 -15.321 -18.297 
54 1 15.358 -14.778 -9.395 
55 1 4.798 -2.851 -18.770 
56 1 -4.524 16.547 9.937 
57 1 -0.606 1.098 -16.092 
58 1 7.280 -4.210 -16.110 
59 1 14.753 -9.196 12.614 
60 1 -6.359 -3.231 7.254 
61 1 19.328 3.522 14.825 
62 1 14.919 -1.042 6.425 
63 1 -1.894 -14.713 18.514 
64 1 -2.242 -11.564 -18.515 
65 1 -17.822 1.133 9.005 
66 1 -7.940 1.392 -4.333 
67 1 5.299 -0.777 -6.604 
68 1 -12.735 -11.047 8.932 
69 1 -0.985 -8.174 0.283 
70 1 -14.275 10.809 -4.668 
71 1 -8.389 -16.475 -4.431 
72 1 19.472 16.250 -9.079 
73 1 -5.261 -13.086 18.907 
74 1 -6.673 19.394 -5.386 
75 1 16.915 4.177 -13.332 
76 1 17.528 13.733 -4.659 
77 1 -16.399 2.256 13.967 
78 1 -0.970 15.236 13.348 
79 1 -15.085 -15.747 4.263 
80 1 19.082 1.752 -11.330 
81 1 -8.661 -10.541 12.864 
82 1 -0.493 0.256 16.238 
83 1 4.285 -10.237 9.648 
84 1 -8.700 8.695 -17.485 
85 1 1.463 16.385 -1.958 
86 1 -6.583 8.206 11.102 
87 1 -6.198 -5.228 4.000 
88 1 7.509 19.438 -0.134 
89 1 8.812 18.613 3.358 
90 1 9.721 -4.607 -13.184 
91 1 6.172 4.864 -9.177 
92 1 11.865 6.776 16.358 
93 1 6.178 -1.619 5.803 
94 1 -16.049 -19.551 -18.988 
95 1 -5.571 10.730 -18.307 
96 1 18.507 -12.332 -9.686 
97 1 -0.346 -13.538 14.983 
98 1 3.138 0.732 -3.697 
99 1 -10.093 2.002 -1.226 
100 1 17.241 10.531 -13.314 
101 1 3.626 5.326 3.279 
102 1 -7.280 -17.119 -8.028 
103 1 1.617 -12.116 11.770 
104 1 19.561 -18.458 10.920 
105 1 6.234 -18.468 15.306 
106 1 0.013 -17.937 -8.817 
107 1 14.015 12.312 3.890 
108 1 2.006 18.698 11.776 
109 1 1.881 -5.335 -19.039 
110 1 13.357 2.342 7.405 
111 1 18.829 -15.919 -10.637 
112 1 16.315 -11.321 9.860 
113 1 -15.919 6.649 5.228 
114 1 -2.498 -11.197 16.956 
115 1 12.645 7.380 7.828 
116 1 -3.785 -18.851 9.239 
117 1 15.823 -17.323 -12.344 
118 1 -7.292 4.440 -2.156 
119 1 -14.399 1.081 10.882 
120 1 0.218 7.039 3.429 
121 1 3.576 4.487 -3.071 
122 1 3.124 8.651 1.496 
123 1 -18.253 -9.684 -10.989 
124 1 -0.959 17.731 9.613 
125 1 -10.560 -8.264 10.379 
126 1 -6.221 -11.118 15.849 
127 1 -17.105 6.053 13.901 
128 1 11.648 1.975 -9.819 
129 1 -14.533 8.399 15.332 
130 1 -2.267 -3.095 12.311 
131 1 10.944 10.428 15.794 
132 1 -3.908 13.334 11.924 
133 1 1.515 -15.729 17.302 
134 1 -4.064 -5.993 0.896 
135 1 0.202 2.927 -2.521 
136 1 -15.329 3.360 7.158 
137 1 17.591 13.586 4.347 
138 1 -13.623 4.011 3.750 
139 1 -9.431 -1.571 -2.477 
140 1 -0.417 11.558 12.433 
141 1 -7.400 -6.130 -5.527 
142 1 -16.060 -3.118 -0.596 
143 1 -3.187 9.965 10.400 
144 1 3.170 7.126 -18.509 
145 1 2.458 -18.411 15.005 
146 1 0.851 -12.195 18.477 
147 1 -14.476 9.024 -1.278 
148 1 2.557 -16.928 -6.179 
149 1 -1.753 9.080 6.434 
150 1 -6.783 18.310 1.498 
151 1 4.956 2.925 -6.223 
152 1 18.218 0.761 17.290 
153 1 -1.704 -11.913 0.502 
154 1 -7.472 -19.011 -1.760 
155 1 7.177 -8.211 -5.699 
156 1 7.685 -15.229 16.973 
157 1 -15.070 16.670 17.962 
158 1 -10.315 6.227 11.934 
159 1 11.319 -11.262 3.236 
160 1 14.875 -7.993 8.985 
161 1 -0.553 -7.889 -9.017 
162 1 10.431 -1.493 -10.803 
163 1 14.098 0.327 -4.278 
164 1 4.428 -13.391 18.368 
165 1 3.337 5.976 -11.594 
166 1 2.021 -2.117 18.281 
167 1 -12.631 4.244 9.601 
168 1 17.992 -2.061 -16.962 
169 1 -7.424 -14.057 13.687 
170 1 12.002 -10.194 10.262 
171 1 4.191 -4.869 17.196 
172 1 10.614 0.398 -2.724 
173 1 1.125 1.263 -19.487 
174 1 7.000 -15.972 -0.307 
175 1 16.441 -13.674 -12.672 
176 1 2.646 19.064 -10.485 
177 1 0.282 -0.293 12.589 
178 1 1.694 -18.919 19.237 
179 1 12.923 -14.976 -12.334 
180 1 -13.131 3.862 13.286 
181 1 0.533 -3.374 14.822 
182 1 -9.766 9.977 12.255 
183 1 14.312 11.894 16.820 
184 1 10.646 -1.079 0.850 
185 1 1.886 0.930 -7.267 
186 1 14.953 -15.321 -15.542 
187 1 0.892 4.351 -17.250 
188 1 -2.846 4.064 -16.731 
189 1 -0.124 -8.677 19.382 
190 1 9.330 16.137 0.495 
191 1 16.623 1.130 9.085 
192 1 -17.770 10.402 15.417 
193 1 -15.165 -13.596 7.414 
194 1 -11.830 17.915 16.354 
195 1 10.017 9.540 9.534 
196 1 7.969 1.546 -8.309 
197 1 -5.108 2.888 5.225 
198 1 3.493 -4.622 -15.655 
199 1 -10.829 -17.136 -17.587 
200 1 5.034 16.105 -10.957 
