ITEM: TIMESTEP
0
ITEM: NUMBER OF ATOMS
200
ITEM: BOX BOUNDS pp pp pp
-19.592236299174868 19.592236299174868
-19.592236299174868 19.592236299174868
-19.592236299174868 19.592236299174868
ITEM: ATOMS id type x y z
1 1 12.754 -18.199 -14.411 
2 1 5.341 5.927 -0.058 
3 1 -6.967 11.863 10.263 
4 1 -7.434 -15.493 -18.306 
5 1 -7.748 -6.672 19.226 
6 1 14.259 -6.884 5.423 
7 1 -4.479 -9.499 -0.543 
8 1 1.543 5.475 0.073 
9 1 11.361 -6.914 8.262 
10 1 -19.254 -12.286 -13.464 
11 1 1.409 -1.971 -17.333 
12 1 -4.957 -9.298 19.058 
13 1 13.707 4.854 -11.367 
14 1 12.653 -10.078 6.592 
15 1 -0.475 4.025 -13.709 
16 1 -10.236 -19.065 -6.506 
17 1 -5.534 9.544 7.568 
18 1 16.964 -4.161 5.647 
19 1 -16.288 4.242 10.703 
20 1 6.453 4.129 -12.859 
21 1 17.061 4.466 -9.560 
22 1 -9.218 -18.420 16.788 
23 1 -6.543 0.758 -7.814 
24 1 15.274 1.438 -11.074 
25 1 17.194 -9.844 -12.177 
26 1 -14.047 7.136 11.770 
27 1 -15.437 6.445 1.402 
28 1 4.819 -17.085 18.481 
29 1 -15.179 13.052 16.531 
30 1 -4.098 -14.314 15.453 
31 1 -2.447 -16.045 -11.024 
32 1 -4.946 -15.670 11.247 
33 1 -9.392 -5.418 8.063 
34 1 4.399 -15.130 15.047 
35 1 10.469 4.934 6.395 
36 1 -3.582 1.625 -13.916 
37 1 18.774 -0.934 6.776 
38 1 -12.441 2.573 16.750 
39 1 14.179 -4.326 8.225 
40 1 13.652 -11.290 -12.339 
41 1 6.741 -10.900 -19.221 
42 1 1.196 10.585 4.236 
43 1 -6.136 -1.679 -16.829 
44 1 11.625 11.565 6.760 
45 1 -15.454 13.524 6.357 
46 1 11.025 0.078 -6.574 
47 1 6.535 -10.491 -8.701 
48 1 -18.544 15.587 5.474 
49 1 17.056 0.520 -14.315 
50 1 -0.391 -18.927 -12.482 
51 1 1.373 -11.250 7.452 
52 1 -15.642 -9.879 6.729 
53 1 2.277 -15.321 -18.297 
54 1 15.358 -14.778 -9.395 
55 1 4.798 -2.851 -18.770 
56 1 -4.524 16.547 9.937 
57 1 -0.606 1.098 -16.092 
58 1 7.280 -4.210 -16.110 
59 1 14.753 -9.196 12.614 
60 1 -6.359 -3.231 7.254 
61 1 19.328 3.522 14.825 
62 1 14.919 -1.042 6.425 
63 1 -1.894 -14.713 18.514 
64 1 -2.242 -11.564 -18.515 
65 1 -17.822 1.133 9.005 
66 1 -7.940 1.392 -4.333 
67 1 5.299 -0.777 -6.604 
68 1 -12.735 -11.047 8.932 
69 1 -0.985 -8.174 0.283 
70 1 -14.562 10.670 -4.912 
71 1 -8.389 -16.475 -4.431 
72 1 19.472 16.250 -9.079 
73 1 -5.261 -13.086 18.907 
74 1 -6.673 19.394 -5.386 
75 1 16.915 4.177 -13.332 
76 1 17.528 13.733 -4.659 
77 1 -16.399 2.256 13.967 
78 1 -0.970 15.236 13.348 
79 1 -15.085 -15.747 4.263 
80 1 19.082 1.752 -11.330 
81 1 -8.661 -10.541 12.864 
82 1 -0.493 0.256 16.238 
83 1 4.285 -10.237 9.648 
84 1 -8.700 8.695 -17.485 
85 1 1.463 16.385 -1.958 
86 1 -6.583 8.206 11.102 
87 1 -6.198 -5.228 4.000 
88 1 7.509 19.438 -0.134 
89 1 8.812 18.613 3.358 
90 1 9.721 -4.607 -13.184 
91 1 6.172 4.864 -9.177 
92 1 11.865 6.776 16.358 
93 1 6.178 -1.619 5.803 
94 1 -16.049 -19.551 -18.988 
95 1 -5.571 10.730 -18.307 
96 1 18.507 -12.332 -9.686 
97 1 -0.346 -13.538 14.983 
98 1 3.138 0.732 -3.697 
99 1 -10.093 2.002 -1.226 
100 1 17.241 10.531 -13.314 
101 1 3.626 5.326 3.279 
102 1 -7.280 -17.119 -8.028 
103 1 1.617 -12.116 11.770 
104 1 19.561 -18.458 10.920 
105 1 6.234 -18.468 15.306 
106 1 0.013 -17.937 -8.817 
107 1 14.015 12.312 3.890 
108 1 2.006 18.698 11.776 
109 1 1.881 -5.335 -19.039 
110 1 13.357 2.342 7.405 
111 1 18.829 -15.919 -10.637 
112 1 16.315 -11.321 9.860 
113 1 -15.919 6.649 5.228 
114 1 -2.498 -11.197 16.956 
115 1 12.645 7.380 7.828 
116 1 -3.785 -18.851 9.239 
117 1 15.823 -17.323 -12.344 
118 1 -7.292 4.440 -2.156 
119 1 -14.399 1.081 10.882 
120 1 0.218 7.039 3.429 
121 1 3.576 4.487 -3.071 
122 1 3.124 8.651 1.496 
123 1 -18.253 -9.684 -10.989 
124 1 -0.959 17.731 9.613 
125 1 -10.560 -8.264 10.379 
126 1 -6.221 -11.118 15.849 
127 1 -17.105 6.053 13.901 
128 1 11.648 1.975 -9.819 
129 1 -14.533 8.399 15.332 
130 1 -2.267 -3.095 12.311 
131 1 10.944 10.428 15.794 
132 1 -3.908 13.334 11.924 
133 1 1.515 -15.729 17.302 
134 1 -4.064 -5.993 0.896 
135 1 0.202 2.927 -2.521 
136 1 -15.329 3.360 7.158 
137 1 17.591 13.586 4.347 
138 1 -13.623 4.011 3.750 
139 1 -9.431 -1.571 -2.477 
140 1 -0.417 11.558 12.433 
141 1 -7.400 -6.130 -5.527 
142 1 -16.060 -3.118 -0.596 
143 1 -3.187 9.965 10.400 
144 1 3.170 7.126 -18.509 
145 1 2.458 -18.411 15.005 
146 1 0.851 -12.195 18.477 
147 1 -14.476 9.024 -1.278 
148 1 2.557 -16.928 -6.179 
149 1 -1.753 9.080 6.434 
150 1 -6.783 18.310 1.498 
151 1 4.956 2.925 -6.223 
152 1 18.218 0.761 17.290 
153 1 -1.704 -11.913 0.502 
154 1 -7.472 -19.011 -1.760 
155 1 7.177 -8.211 -5.699 
156 1 7.685 -15.229 16.973 
157 1 -15.070 16.670 17.962 
158 1 -10.315 6.227 11.934 
159 1 11.319 -11.262 3.236 
160 1 14.875 -7.993 8.985 
161 1 -0.553 -7.889 -9.017 
162 1 10.431 -1.493 -10.803 
163 1 14.098 0.327 -4.278 
164 1 4.428 -13.391 18.368 
165 1 3.337 5.976 -11.594 
166 1 2.021 -2.117 18.281 
167 1 -12.631 4.244 9.601 
168 1 17.992 -2.061 -16.962 
169 1 -7.424 -14.057 13.687 
170 1 12.002 -10.194 10.262 
171 1 4.191 -4.869 17.196 
172 1 10.614 0.398 -2.724 
173 1 1.125 1.263 -19.487 
174 1 7.000 -15.972 -0.307 
175 1 16.441 -13.674 -12.672 
176 1 2.646 19.064 -10.485 
177 1 0.282 -0.293 12.589 
178 1 1.694 -18.919 19.237 
179 1 12.923 -14.976 -12.334 
180 1 -13.131 3.862 13.286 
181 1 0.533 -3.374 14.822 
182 1 -9.766 9.977 12.255 
183 1 14.312 11.894 16.820 
184 1 10.646 -1.079 0.850 
185 1 1.886 0.930 -7.267 
186 1 14.953 -15.321 -15.542 
187 1 0.892 4.351 -17.250 
188 1 -2.846 4.064 -16.731 
189 1 -0.124 -8.677 19.382 
190 1 9.330 16.137 0.495 
191 1 16.623 1.130 9.085 
192 1 -17.770 10.402 15.417 
193 1 -15.165 -13.596 7.414 
194 1 -11.830 17.915 16.354 
195 1 10.017 9.540 9.534 
196 1 7.969 1.546 -8.309 
197 1 -5.108 2.888 5.225 
198 1 3.493 -4.622 -15.655 
199 1 -10.829 -17.136 -17.587 
200 1 5.034 16.105 -10.957 
ITEM: TIMESTEP
1000
ITEM: NUMBER OF ATOMS
200
ITEM: BOX BOUNDS pp pp pp
-19.592236299174868 19.592236299174868
-19.592236299174868 19.592236299174868
-19.592236299174868 19.592236299174868
ITEM: ATOMS id type x y z
1 1 13.061 -18.745 -15.558 
2 1 6.061 6.584 -0.816 
3 1 -6.819 12.141 10.108 
4 1 -6.405 -16.050 -17.433 
5 1 -8.120 -6.880 -19.070 
6 1 14.502 -5.981 5.536 
7 1 -4.688 -9.195 -0.638 
8 1 1.679 5.139 0.411 
9 1 12.044 -8.042 8.203 
10 1 -19.039 -11.744 -12.844 
11 1 1.503 -1.570 -18.036 
12 1 -4.672 -8.533 18.694 
13 1 13.993 4.932 -11.280 
14 1 13.277 -10.245 5.948 
15 1 -1.096 3.927 -13.780 
16 1 -10.038 19.230 -6.674 
17 1 -6.422 9.929 5.674 
18 1 17.193 -3.338 4.388 
19 1 -16.538 4.260 10.783 
20 1 6.058 4.020 -11.810 
21 1 17.040 4.238 -9.000 
22 1 -9.186 -18.313 17.322 
23 1 -5.746 -0.013 -8.078 
24 1 15.529 0.014 -11.852 
25 1 17.049 -10.373 -11.610 
26 1 -13.923 6.989 10.884 
27 1 -15.831 5.945 1.244 
28 1 4.434 -16.823 18.552 
29 1 -15.417 12.749 15.706 
30 1 -4.306 -13.795 14.551 
31 1 -2.452 -17.080 -11.456 
32 1 -6.248 -15.989 10.819 
33 1 -8.894 -5.756 7.871 
34 1 4.311 -15.049 14.452 
35 1 9.811 3.927 6.041 
36 1 -3.223 0.982 -13.455 
37 1 19.498 -0.826 5.907 
38 1 -13.677 2.733 16.841 
39 1 15.687 -4.853 8.654 
40 1 13.132 -10.909 -13.102 
41 1 7.496 -12.219 -19.569 
42 1 0.150 10.995 3.404 
43 1 -6.741 -1.488 -17.075 
44 1 12.814 11.717 7.393 
45 1 -14.922 14.498 6.965 
46 1 11.548 -0.280 -6.624 
47 1 6.348 -10.719 -8.611 
48 1 -18.682 16.087 5.157 
49 1 18.309 -1.052 -13.841 
50 1 -0.113 -18.612 -13.600 
51 1 1.127 -11.678 6.183 
52 1 -16.065 -9.864 6.721 
53 1 1.544 -14.475 -18.398 
54 1 15.342 -14.588 -8.787 
55 1 5.795 -1.671 -18.968 
56 1 -3.817 16.710 10.162 
57 1 -0.735 1.354 -15.937 
58 1 7.655 -3.797 -14.992 
59 1 14.585 -9.447 13.156 
60 1 -7.227 -2.692 7.246 
61 1 18.601 4.142 14.547 
62 1 14.320 -1.431 6.838 
63 1 -1.708 -14.237 18.022 
64 1 -2.805 -11.313 -18.664 
65 1 -18.009 1.436 7.940 
66 1 -7.995 2.190 -4.216 
67 1 6.245 -1.320 -6.324 
68 1 -12.486 -10.905 8.317 
69 1 0.122 -7.769 -0.278 
70 1 -13.983 12.051 -4.027 
71 1 -8.640 -15.953 -4.180 
72 1 19.053 16.238 -10.054 
73 1 -6.097 -13.095 -19.560 
74 1 -6.241 18.187 -5.720 
75 1 17.422 4.638 -13.257 
76 1 17.713 14.055 -5.957 
77 1 -16.530 2.561 14.359 
78 1 -1.457 16.064 13.306 
79 1 -15.942 -16.182 4.183 
80 1 18.583 2.261 -11.409 
81 1 -8.310 -9.889 12.825 
82 1 -0.263 0.645 15.348 
83 1 4.084 -10.153 8.586 
84 1 -8.685 8.609 -17.641 
85 1 0.204 16.577 -1.788 
86 1 -6.225 8.510 10.446 
87 1 -6.045 -5.289 5.261 
88 1 8.018 18.975 -0.423 
89 1 8.215 18.835 4.160 
90 1 9.652 -4.675 -12.439 
91 1 6.948 5.847 -8.868 
92 1 11.652 6.131 16.851 
93 1 5.976 -2.593 4.895 
94 1 -16.268 -19.315 -18.676 
95 1 -6.069 11.347 -17.702 
96 1 18.901 -11.960 -8.982 
97 1 0.042 -13.284 15.317 
98 1 2.488 -0.700 -3.145 
99 1 -9.856 2.089 -0.858 
100 1 16.980 10.037 -13.297 
101 1 4.037 4.221 4.484 
102 1 -6.964 -17.810 -8.271 
103 1 2.233 -12.967 12.680 
104 1 -18.596 -19.448 10.581 
105 1 6.456 -19.330 15.227 
106 1 -0.452 -18.382 -8.148 
107 1 15.224 10.984 3.192 
108 1 2.746 18.806 12.608 
109 1 1.598 -5.282 -19.041 
110 1 13.687 1.995 8.604 
111 1 19.182 -15.531 -10.154 
112 1 16.409 -11.072 10.304 
113 1 -15.338 7.793 4.412 
114 1 -1.853 -10.587 17.112 
115 1 12.551 8.299 8.070 
116 1 -4.469 -18.883 7.726 
117 1 14.640 -17.771 -11.893 
118 1 -7.647 5.809 -1.257 
119 1 -14.400 -0.103 10.540 
120 1 0.243 7.012 3.480 
121 1 3.470 4.748 -3.136 
122 1 3.860 8.094 1.959 
123 1 -17.591 -9.783 -10.302 
124 1 -0.416 18.871 9.922 
125 1 -10.991 -8.484 11.320 
126 1 -6.607 -10.523 16.191 
127 1 -16.716 5.794 13.881 
128 1 12.139 1.963 -9.650 
129 1 -13.436 9.462 15.603 
130 1 -3.057 -1.862 11.928 
131 1 10.743 10.026 14.653 
132 1 -4.491 13.403 12.455 
133 1 1.651 -15.596 17.019 
134 1 -3.136 -5.158 1.466 
135 1 -0.767 3.377 -3.279 
136 1 -15.511 3.767 6.285 
137 1 17.915 13.601 4.709 
138 1 -13.460 3.524 3.455 
139 1 -8.746 -1.591 -3.153 
140 1 0.140 11.948 11.218 
141 1 -7.771 -5.360 -6.625 
142 1 -16.449 -2.593 -1.395 
143 1 -3.301 10.469 10.513 
144 1 3.372 6.987 -18.133 
145 1 2.768 -18.204 15.539 
146 1 0.851 -11.941 18.404 
147 1 -15.375 9.586 -1.287 
148 1 3.123 -17.411 -6.225 
149 1 -1.394 9.280 6.000 
150 1 -6.987 18.592 1.516 
151 1 5.484 3.227 -5.013 
152 1 19.499 -0.245 16.976 
153 1 -2.228 -12.402 -0.084 
154 1 -6.391 18.748 -2.075 
155 1 6.702 -8.384 -5.885 
156 1 7.662 -15.426 16.083 
157 1 -14.599 16.007 18.836 
158 1 -10.409 5.660 12.882 
159 1 11.459 -12.407 3.585 
160 1 15.667 -8.255 8.664 
161 1 -1.729 -7.504 -9.116 
162 1 10.629 -2.008 -9.680 
163 1 13.861 -0.613 -3.564 
164 1 3.955 -13.325 17.735 
165 1 3.389 6.219 -12.111 
166 1 2.159 -1.993 17.034 
167 1 -12.387 3.692 9.815 
168 1 16.787 -1.494 -16.914 
169 1 -8.001 -14.048 13.929 
170 1 11.168 -10.903 10.184 
171 1 4.213 -4.814 16.944 
172 1 10.306 -0.030 -1.881 
173 1 1.434 1.613 18.857 
174 1 7.439 -16.326 0.314 
175 1 15.844 -13.666 -12.449 
176 1 2.324 19.437 -10.064 
177 1 1.701 -0.312 11.813 
178 1 1.327 -18.659 18.774 
179 1 11.894 -15.374 -12.623 
180 1 -13.832 4.121 12.915 
181 1 0.249 -3.201 14.611 
182 1 -9.735 9.858 12.204 
183 1 13.862 11.918 16.254 
184 1 10.629 -3.204 0.675 
185 1 3.873 1.038 -7.113 
186 1 16.398 -16.568 -16.144 
187 1 1.355 4.118 -16.686 
188 1 -3.007 3.121 -17.351 
189 1 -0.444 -8.929 -19.143 
190 1 9.318 16.778 1.525 
191 1 17.782 0.921 8.311 
192 1 -18.083 10.490 15.528 
193 1 -15.112 -14.958 7.569 
194 1 -12.045 17.924 16.389 
195 1 9.272 8.702 10.039 
196 1 7.722 0.660 -10.128 
197 1 -5.265 4.139 6.152 
198 1 4.149 -3.734 -16.455 
199 1 -9.539 -17.276 -17.238 
200 1 4.969 16.603 -10.088 
ITEM: TIMESTEP
2000
ITEM: NUMBER OF ATOMS
200
ITEM: BOX BOUNDS pp pp pp
-19.592236299174868 19.592236299174868
-19.592236299174868 19.592236299174868
-19.592236299174868 19.592236299174868
ITEM: ATOMS id type x y z
1 1 13.477 19.347 -14.268 
2 1 6.288 5.772 -0.382 
3 1 -6.577 11.599 10.142 
4 1 -5.445 -16.326 -16.641 
5 1 -7.491 -6.751 -19.481 
6 1 13.535 -5.937 5.857 
7 1 -4.354 -8.886 -0.952 
8 1 1.737 3.667 0.059 
9 1 11.896 -8.060 8.077 
10 1 19.047 -13.070 -13.593 
11 1 1.497 -2.546 -17.494 
12 1 -4.488 -8.391 18.952 
13 1 14.141 5.238 -10.479 
14 1 13.911 -10.931 5.760 
15 1 -0.477 3.886 -13.646 
16 1 -9.537 19.506 -6.135 
17 1 -7.369 12.106 5.100 
18 1 17.607 -3.409 3.360 
19 1 -17.251 4.526 10.736 
20 1 6.558 4.511 -11.836 
21 1 17.754 4.479 -8.856 
22 1 -9.029 -18.695 17.418 
23 1 -6.295 -1.240 -8.810 
24 1 16.668 -0.130 -11.429 
25 1 16.280 -10.606 -11.887 
26 1 -12.391 7.234 9.670 
27 1 -15.703 5.987 1.227 
28 1 4.811 -16.990 18.263 
29 1 -15.662 14.425 14.494 
30 1 -3.517 -14.703 14.391 
31 1 -2.811 -17.964 -11.897 
32 1 -5.861 -15.898 10.953 
33 1 -10.796 -6.131 8.391 
34 1 4.144 -14.932 14.646 
35 1 9.294 3.264 5.416 
36 1 -3.898 0.848 -12.515 
37 1 -19.349 -1.429 5.437 
38 1 -13.488 2.403 16.116 
39 1 16.149 -4.410 8.733 
40 1 12.797 -10.547 -13.820 
41 1 7.276 -11.216 -19.450 
42 1 0.633 11.172 3.496 
43 1 -6.778 -2.160 -17.013 
44 1 13.054 11.755 7.066 
45 1 -15.381 14.735 6.366 
46 1 12.015 -0.690 -6.918 
47 1 5.907 -11.503 -10.339 
48 1 19.000 18.025 5.119 
49 1 18.520 -0.223 -14.498 
50 1 1.115 -19.117 -14.079 
51 1 1.314 -11.855 5.781 
52 1 -17.044 -10.156 4.925 
53 1 1.405 -14.830 -18.899 
54 1 14.317 -15.059 -8.314 
55 1 6.509 -0.650 -18.408 
56 1 -3.273 16.213 9.356 
57 1 -0.879 0.668 -17.189 
58 1 8.933 -2.487 -15.610 
59 1 14.101 -8.144 13.139 
60 1 -7.664 -2.408 6.911 
61 1 19.013 3.543 13.242 
62 1 15.713 -1.815 6.387 
63 1 -2.601 -13.994 17.985 
64 1 -2.710 -11.466 -17.652 
65 1 -17.536 1.516 8.786 
66 1 -7.548 2.226 -5.433 
67 1 5.686 -1.803 -6.051 
68 1 -13.165 -10.207 8.968 
69 1 1.600 -7.134 -0.048 
70 1 -13.383 10.968 -3.187 
71 1 -8.226 -16.108 -5.047 
72 1 19.498 14.876 -9.894 
73 1 -5.971 -12.484 18.879 
74 1 -6.129 18.718 -6.422 
75 1 16.300 4.523 -13.799 
76 1 17.741 13.028 -5.446 
77 1 -16.949 1.873 13.710 
78 1 -0.903 16.272 12.129 
79 1 -15.942 -16.114 3.780 
80 1 19.551 2.662 -11.216 
81 1 -6.950 -9.560 12.925 
82 1 0.923 1.658 15.625 
83 1 4.501 -10.869 7.507 
84 1 -8.331 8.878 -18.095 
85 1 0.103 15.532 -1.724 
86 1 -5.902 8.067 10.607 
87 1 -6.708 -4.610 4.884 
88 1 8.127 19.192 -0.963 
89 1 8.389 -18.742 5.111 
90 1 8.740 -4.630 -12.284 
91 1 7.254 4.642 -8.554 
92 1 12.147 6.109 17.200 
93 1 5.133 -2.935 5.854 
94 1 -16.251 -18.763 -18.242 
95 1 -6.086 11.169 -16.416 
96 1 19.304 -12.672 -8.164 
97 1 0.149 -13.188 14.155 
98 1 2.567 -0.286 -3.237 
99 1 -8.859 1.186 -0.430 
100 1 16.753 9.609 -13.315 
101 1 4.015 5.518 4.871 
102 1 -8.128 -17.157 -9.942 
103 1 2.123 -13.689 11.532 
104 1 -18.984 19.188 10.346 
105 1 6.073 -19.040 14.657 
106 1 -0.925 -17.690 -7.545 
107 1 15.354 11.055 2.285 
108 1 1.757 18.549 12.697 
109 1 1.995 -5.771 -19.169 
110 1 13.038 0.869 7.551 
111 1 19.412 -15.707 -10.043 
112 1 15.705 -12.359 10.223 
113 1 -14.632 7.112 4.727 
114 1 -2.429 -10.996 16.495 
115 1 13.527 8.261 8.257 
116 1 -3.747 -17.876 7.121 
117 1 14.855 -19.208 -11.348 
118 1 -7.569 4.875 -2.075 
119 1 -14.365 0.027 10.496 
120 1 0.645 6.427 3.522 
121 1 3.419 4.350 -3.130 
122 1 2.816 9.186 1.532 
123 1 -16.607 -10.209 -10.285 
124 1 -0.367 -19.394 10.658 
125 1 -12.883 -7.710 11.858 
126 1 -6.212 -9.640 16.415 
127 1 -16.038 5.237 14.743 
128 1 12.390 2.375 -9.047 
129 1 -13.761 9.135 15.031 
130 1 -2.090 -0.417 12.265 
131 1 10.657 10.692 13.629 
132 1 -3.740 13.009 12.331 
133 1 1.638 -15.533 16.541 
134 1 -3.300 -6.733 3.393 
135 1 -1.536 2.906 -2.829 
136 1 -16.039 4.935 7.475 
137 1 17.504 12.719 4.682 
138 1 -13.634 4.042 3.160 
139 1 -8.926 -2.191 -2.463 
140 1 0.862 12.607 12.813 
141 1 -6.999 -5.977 -6.316 
142 1 -17.284 -2.286 -1.389 
143 1 -3.179 9.838 10.590 
144 1 4.930 5.795 -18.032 
145 1 2.813 -18.579 15.414 
146 1 0.312 -11.742 18.274 
147 1 -14.978 9.360 -0.173 
148 1 2.309 -18.675 -6.593 
149 1 -1.376 8.403 5.604 
150 1 -7.547 18.574 0.929 
151 1 6.059 3.079 -5.575 
152 1 18.946 0.424 17.798 
153 1 -4.485 -13.418 -0.584 
154 1 -7.405 19.005 -2.633 
155 1 6.739 -8.463 -5.429 
156 1 7.751 -15.703 15.779 
157 1 -14.432 15.598 -19.456 
158 1 -10.735 5.519 12.357 
159 1 11.427 -12.436 4.119 
160 1 16.073 -8.500 8.002 
161 1 -1.955 -7.091 -9.984 
162 1 11.066 -1.819 -10.898 
163 1 13.766 -1.505 -3.517 
164 1 3.477 -12.101 18.088 
165 1 2.656 5.735 -9.810 
166 1 2.419 -3.034 17.981 
167 1 -13.130 3.820 9.662 
168 1 15.983 -1.649 -16.617 
169 1 -7.736 -14.286 13.460 
170 1 11.630 -10.870 10.484 
171 1 4.549 -6.075 16.583 
172 1 9.665 0.204 -2.768 
173 1 1.521 1.521 19.019 
174 1 7.168 -15.068 -0.169 
175 1 15.939 -14.038 -12.170 
176 1 2.888 19.010 -10.497 
177 1 2.065 -0.197 12.415 
178 1 1.003 -18.870 18.451 
179 1 11.555 -15.818 -11.188 
180 1 -13.992 3.879 12.796 
181 1 0.505 -2.551 14.329 
182 1 -9.747 10.388 11.504 
183 1 13.411 11.537 17.282 
184 1 10.895 -2.436 -0.010 
185 1 3.309 1.671 -7.098 
186 1 16.329 -16.399 -15.964 
187 1 1.484 3.916 -17.087 
188 1 -3.655 3.169 -17.182 
189 1 -1.058 -8.473 -19.154 
190 1 8.965 16.432 2.161 
191 1 17.848 1.228 8.498 
192 1 -18.075 9.876 16.622 
193 1 -15.284 -15.264 7.683 
194 1 -11.433 17.049 16.798 
195 1 9.437 8.723 7.858 
196 1 7.506 1.162 -10.035 
197 1 -5.154 4.821 5.569 
198 1 5.011 -3.882 -16.926 
199 1 -8.577 -17.972 -17.384 
200 1 5.941 16.682 -9.225 
ITEM: TIMESTEP
3000
ITEM: NUMBER OF ATOMS
200
ITEM: BOX BOUNDS pp pp pp
-19.592236299174868 19.592236299174868
-19.592236299174868 19.592236299174868
-19.592236299174868 19.592236299174868
ITEM: ATOMS id type x y z
1 1 13.044 19.050 -13.977 
2 1 7.142 7.027 -0.381 
3 1 -6.476 12.176 9.055 
4 1 -5.905 -16.343 -16.658 
5 1 -8.198 -6.403 18.933 
6 1 12.959 -6.122 6.109 
7 1 -4.200 -8.074 -0.665 
8 1 2.062 3.049 -0.377 
9 1 11.252 -8.426 8.261 
10 1 19.419 -12.961 -13.816 
11 1 1.742 -2.514 -16.916 
12 1 -4.510 -8.294 19.362 
13 1 13.259 5.756 -10.070 
14 1 12.867 -11.735 5.953 
15 1 -0.063 3.215 -13.248 
16 1 -10.603 18.840 -6.767 
17 1 -6.868 12.067 5.128 
18 1 17.990 -4.951 4.929 
19 1 -17.599 3.880 10.776 
20 1 6.420 4.792 -11.357 
21 1 18.637 5.540 -8.973 
22 1 -9.353 -16.359 17.747 
23 1 -7.245 -1.312 -8.135 
24 1 16.460 -1.227 -9.545 
25 1 16.919 -10.512 -11.610 
26 1 -12.649 8.527 10.987 
27 1 -16.835 6.501 0.610 
28 1 6.242 -16.499 18.782 
29 1 -15.648 14.984 13.709 
30 1 -3.377 -13.868 15.161 
31 1 -1.781 19.522 -11.612 
32 1 -6.047 -16.505 10.191 
33 1 -10.949 -7.244 9.080 
34 1 3.943 -15.650 15.060 
35 1 9.394 1.243 5.798 
36 1 -5.240 1.532 -12.433 
37 1 19.565 -1.634 6.131 
38 1 -12.204 2.598 16.174 
39 1 14.741 -4.877 8.514 
40 1 13.444 -10.402 -15.485 
41 1 7.069 -12.057 18.620 
42 1 -0.201 12.016 3.496 
43 1 -6.809 -2.292 -17.575 
44 1 14.095 12.141 6.946 
45 1 -15.018 15.761 6.502 
46 1 11.410 -0.400 -7.183 
47 1 7.402 -12.563 -10.150 
48 1 18.927 18.300 4.617 
49 1 18.186 -0.012 -14.079 
50 1 0.927 19.311 -14.343 
51 1 0.705 -11.960 4.935 
52 1 -16.352 -9.055 5.857 
53 1 2.103 -15.292 -19.053 
54 1 15.150 -15.121 -9.238 
55 1 6.487 -1.457 -18.693 
56 1 -3.774 16.069 9.211 
57 1 -0.158 0.630 -16.585 
58 1 9.085 -2.353 -16.297 
59 1 12.933 -8.582 12.923 
60 1 -9.070 -2.241 6.703 
61 1 19.033 3.617 13.779 
62 1 14.807 -2.251 6.131 
63 1 -2.999 -15.588 18.762 
64 1 -2.000 -11.214 -17.315 
65 1 -16.457 0.849 7.243 
66 1 -7.237 1.322 -5.357 
67 1 5.610 -1.511 -5.545 
68 1 -12.264 -10.729 9.179 
69 1 2.029 -6.583 -0.095 
70 1 -12.820 11.727 -3.370 
71 1 -9.529 -15.515 -5.147 
72 1 -19.440 14.398 -10.239 
73 1 -5.021 -12.771 18.282 
74 1 -5.388 18.222 -6.774 
75 1 16.986 4.473 -13.589 
76 1 16.881 12.540 -4.821 
77 1 -16.773 1.322 15.624 
78 1 -1.392 16.329 12.700 
79 1 -15.740 -17.245 3.777 
80 1 19.434 2.684 -10.929 
81 1 -6.816 -9.328 12.298 
82 1 0.512 1.611 13.894 
83 1 5.180 -10.443 8.407 
84 1 -7.660 8.766 -19.241 
85 1 0.869 15.507 -2.385 
86 1 -5.450 8.202 10.222 
87 1 -6.480 -4.599 4.114 
88 1 7.561 19.551 -2.374 
89 1 7.903 -18.588 5.246 
90 1 8.780 -3.838 -11.993 
91 1 7.315 5.030 -8.098 
92 1 12.590 6.984 17.233 
93 1 5.130 -1.901 4.683 
94 1 -15.844 19.032 -18.761 
95 1 -5.938 10.535 -14.975 
96 1 18.999 -12.431 -7.889 
97 1 -0.029 -13.118 14.101 
98 1 2.920 0.193 -3.695 
99 1 -9.045 1.142 1.328 
100 1 17.274 9.354 -13.765 
101 1 3.602 4.409 5.744 
102 1 -8.606 -17.823 -9.478 
103 1 2.725 -14.587 11.355 
104 1 -18.357 19.018 10.361 
105 1 7.450 -18.813 15.921 
106 1 -1.796 -16.559 -8.940 
107 1 14.236 10.489 2.996 
108 1 2.720 19.228 12.137 
109 1 3.471 -6.233 -18.299 
110 1 13.289 1.424 7.642 
111 1 19.230 -14.870 -11.094 
112 1 16.208 -11.752 10.307 
113 1 -14.803 7.569 3.252 
114 1 -2.364 -10.788 15.677 
115 1 15.235 8.252 8.293 
116 1 -2.751 -17.149 6.783 
117 1 15.331 -19.359 -10.306 
118 1 -7.990 4.898 -2.021 
119 1 -14.693 0.169 11.623 
120 1 1.050 5.934 2.634 
121 1 3.562 4.956 -3.413 
122 1 3.098 8.012 1.119 
123 1 -16.968 -10.451 -9.095 
124 1 -0.963 18.607 9.981 
125 1 -12.584 -8.423 12.863 
126 1 -6.282 -9.693 16.048 
127 1 -16.996 5.233 14.891 
128 1 12.199 2.532 -9.325 
129 1 -14.240 9.529 15.682 
130 1 -2.467 -1.667 12.629 
131 1 10.527 9.751 13.118 
132 1 -3.587 14.148 12.482 
133 1 0.191 -15.754 15.980 
134 1 -3.347 -7.221 3.035 
135 1 -1.545 2.182 -1.034 
136 1 -15.572 5.542 7.615 
137 1 17.699 11.704 5.096 
138 1 -13.405 4.232 3.217 
139 1 -9.197 -1.786 -1.915 
140 1 0.165 12.856 13.730 
141 1 -7.517 -6.121 -6.852 
142 1 -17.010 -2.248 -1.980 
143 1 -2.297 10.771 10.602 
144 1 4.590 6.000 -17.505 
145 1 2.885 -18.963 16.700 
146 1 -0.194 -12.902 18.348 
147 1 -14.818 9.828 0.741 
148 1 2.688 -18.701 -6.075 
149 1 -0.962 9.248 7.042 
150 1 -7.047 18.947 0.433 
151 1 6.476 2.064 -6.081 
152 1 18.459 -1.151 17.591 
153 1 -4.220 -12.710 -0.593 
154 1 -6.143 19.314 -2.411 
155 1 6.588 -9.109 -4.679 
156 1 8.539 -15.577 16.602 
157 1 -13.044 14.331 19.567 
158 1 -11.340 5.606 13.077 
159 1 10.766 -12.746 3.348 
160 1 15.634 -8.541 8.003 
161 1 -0.599 -6.870 -9.697 
162 1 11.459 -1.491 -11.502 
163 1 13.990 -1.821 -4.055 
164 1 3.160 -10.818 18.123 
165 1 3.180 4.917 -10.119 
166 1 3.343 -3.160 17.487 
167 1 -11.831 2.929 10.319 
168 1 14.796 -2.166 -16.338 
169 1 -7.763 -13.902 12.363 
170 1 11.750 -10.446 10.263 
171 1 5.380 -6.659 17.003 
172 1 9.850 0.250 -2.508 
173 1 1.589 2.413 19.270 
174 1 6.817 -13.474 -0.387 
175 1 15.551 -14.406 -12.571 
176 1 3.353 -18.606 -10.163 
177 1 2.318 -0.765 12.169 
178 1 -0.299 -18.835 18.862 
179 1 12.671 -16.035 -11.789 
180 1 -14.573 3.149 13.394 
181 1 0.976 -2.836 15.032 
182 1 -9.087 10.418 11.247 
183 1 12.912 10.957 17.659 
184 1 10.897 -2.569 0.675 
185 1 2.737 1.673 -7.111 
186 1 15.613 -17.010 -16.957 
187 1 0.983 4.246 -17.172 
188 1 -3.498 3.464 -17.604 
189 1 -0.772 -7.253 -18.996 
190 1 9.685 17.000 0.965 
191 1 18.193 1.336 7.185 
192 1 -18.001 10.351 14.938 
193 1 -14.467 -15.919 7.177 
194 1 -11.137 17.381 16.191 
195 1 10.344 8.610 8.737 
196 1 8.689 1.440 -10.358 
197 1 -6.291 4.284 6.670 
198 1 5.227 -4.060 -16.244 
199 1 -9.473 -17.368 -18.014 
200 1 5.217 16.069 -8.757 
ITEM: TIMESTEP
4000
ITEM: NUMBER OF ATOMS
200
ITEM: BOX BOUNDS pp pp pp
-19.592236299174868 19.592236299174868
-19.592236299174868 19.592236299174868
-19.592236299174868 19.592236299174868
ITEM: ATOMS id type x y z
1 1 12.174 18.234 -14.536 
2 1 7.621 5.631 -0.636 
3 1 -6.608 11.936 8.878 
4 1 -5.984 -17.478 -16.359 
5 1 -7.909 -6.713 18.474 
6 1 13.817 -6.647 5.691 
7 1 -4.592 -8.110 -0.872 
8 1 1.135 2.895 1.021 
9 1 10.896 -7.995 8.971 
10 1 -19.495 -13.895 -14.143 
11 1 1.675 -2.249 -17.555 
12 1 -4.682 -8.377 18.853 
13 1 13.889 5.808 -10.375 
14 1 12.794 -11.733 7.238 
15 1 -0.721 3.591 -13.216 
16 1 -11.622 18.201 -6.578 
17 1 -4.844 12.643 5.388 
18 1 17.830 -5.824 4.609 
19 1 -17.853 3.767 10.984 
20 1 5.908 5.715 -12.892 
21 1 18.975 6.522 -9.145 
22 1 -9.992 -18.042 16.251 
23 1 -8.115 -1.091 -7.260 
24 1 17.206 -1.346 -10.269 
25 1 16.904 -11.121 -11.567 
26 1 -12.542 9.137 10.805 
27 1 -17.598 6.337 1.010 
28 1 6.625 -17.374 18.692 
29 1 -14.965 14.231 14.613 
30 1 -2.976 -14.028 15.297 
31 1 -3.949 19.265 -11.407 
32 1 -5.903 -16.853 9.854 
33 1 -10.663 -7.439 8.448 
34 1 4.161 -15.882 14.709 
35 1 10.072 1.340 6.719 
36 1 -4.913 2.175 -12.588 
37 1 19.001 -1.415 5.356 
38 1 -11.550 2.812 16.624 
39 1 16.032 -4.865 8.704 
40 1 11.780 -9.820 -15.337 
41 1 6.621 -11.531 18.041 
42 1 0.614 12.771 3.095 
43 1 -6.015 -3.393 -17.307 
44 1 14.638 12.072 7.072 
45 1 -16.144 14.682 6.990 
46 1 11.198 -0.592 -6.875 
47 1 8.268 -12.179 -10.122 
48 1 18.351 18.634 3.348 
49 1 18.366 -1.124 -13.656 
50 1 0.858 19.104 -14.163 
51 1 0.331 -12.113 4.738 
52 1 -16.540 -9.132 6.327 
53 1 2.705 -14.261 -18.928 
54 1 14.648 -15.286 -9.629 
55 1 6.305 -1.510 -18.451 
56 1 -3.511 16.078 9.199 
57 1 -1.074 1.219 -15.830 
58 1 8.936 -3.620 -15.289 
59 1 13.700 -8.187 13.301 
60 1 -9.276 -2.691 7.118 
61 1 18.824 2.876 13.905 
62 1 14.507 -2.520 5.028 
63 1 -2.852 -15.650 18.676 
64 1 -1.522 -10.937 -17.160 
65 1 -16.780 0.831 7.537 
66 1 -7.054 2.821 -5.254 
67 1 5.582 -2.099 -5.215 
68 1 -12.460 -11.921 9.589 
69 1 1.558 -7.356 -0.496 
70 1 -11.978 13.221 -4.367 
71 1 -9.233 -16.009 -5.684 
72 1 19.217 13.085 -9.936 
73 1 -5.267 -11.869 18.102 
74 1 -5.606 17.242 -6.343 
75 1 17.138 4.146 -13.906 
76 1 16.875 14.234 -4.530 
77 1 -16.678 1.828 16.312 
78 1 -1.017 16.160 12.853 
79 1 -16.797 -17.113 4.385 
80 1 19.059 2.846 -11.403 
81 1 -6.424 -9.731 12.740 
82 1 1.097 2.036 12.646 
83 1 5.412 -11.247 7.773 
84 1 -6.989 7.785 -19.443 
85 1 0.872 15.489 -2.453 
86 1 -4.400 8.969 11.308 
87 1 -6.975 -4.879 4.148 
88 1 7.955 -18.679 -2.616 
89 1 7.670 -18.656 4.029 
90 1 7.787 -5.154 -11.161 
91 1 7.381 4.988 -7.694 
92 1 12.255 7.094 16.309 
93 1 7.105 -1.418 4.850 
94 1 -15.031 17.809 -17.683 
95 1 -6.922 11.027 -15.670 
96 1 19.346 -12.619 -8.919 
97 1 0.636 -13.016 14.225 
98 1 2.493 -0.837 -4.757 
99 1 -9.590 2.116 1.174 
100 1 16.461 8.373 -14.111 
101 1 3.003 4.845 5.749 
102 1 -8.886 -18.115 -9.313 
103 1 2.193 -15.249 11.466 
104 1 -17.649 19.511 10.911 
105 1 7.966 -19.484 15.539 
106 1 -1.019 -16.701 -9.357 
107 1 14.383 10.733 3.395 
108 1 2.525 -18.647 11.097 
109 1 3.493 -6.798 -17.741 
110 1 13.557 1.029 6.876 
111 1 18.792 -16.654 -10.515 
112 1 16.806 -10.751 11.191 
113 1 -15.305 7.783 3.157 
114 1 -1.639 -10.484 14.952 
115 1 15.029 7.473 6.659 
116 1 -2.820 -16.508 7.057 
117 1 15.902 19.445 -10.001 
118 1 -8.656 5.110 -2.541 
119 1 -15.070 0.907 10.858 
120 1 0.332 6.049 3.309 
121 1 2.871 3.810 -4.568 
122 1 2.770 8.574 2.593 
123 1 -17.535 -10.084 -8.415 
124 1 -1.561 18.888 9.492 
125 1 -12.734 -8.538 13.209 
126 1 -5.875 -9.313 15.785 
127 1 -16.662 5.402 15.470 
128 1 11.854 1.248 -9.610 
129 1 -13.926 10.338 15.682 
130 1 -2.100 -1.982 11.722 
131 1 9.382 9.224 12.770 
132 1 -4.500 15.051 12.726 
133 1 0.023 -14.988 17.189 
134 1 -3.964 -7.180 3.729 
135 1 -1.273 1.292 -0.928 
136 1 -14.819 6.988 8.672 
137 1 17.545 10.672 5.764 
138 1 -13.130 3.476 2.921 
139 1 -9.240 -2.306 -0.666 
140 1 0.932 12.383 13.438 
141 1 -7.142 -6.285 -6.590 
142 1 -16.294 -2.941 -3.064 
143 1 -1.876 11.495 10.849 
144 1 5.351 6.636 -16.790 
145 1 3.444 -19.113 16.376 
146 1 -0.283 -12.113 18.068 
147 1 -15.307 10.701 0.957 
148 1 3.121 -19.131 -6.357 
149 1 -0.530 9.262 7.675 
150 1 -6.110 19.352 0.684 
151 1 6.883 2.209 -5.456 
152 1 18.647 -1.084 18.471 
153 1 -3.582 -11.531 -0.654 
154 1 -6.800 18.886 -3.185 
155 1 7.524 -8.390 -5.993 
156 1 10.193 -13.232 17.740 
157 1 -13.986 13.230 18.934 
158 1 -11.663 5.471 13.321 
159 1 11.043 -12.672 3.977 
160 1 15.761 -8.945 8.027 
161 1 -0.447 -6.403 -9.382 
162 1 12.399 -2.069 -10.208 
163 1 14.204 -2.841 -3.492 
164 1 2.374 -11.074 16.543 
165 1 2.792 5.748 -10.293 
166 1 3.445 -3.118 18.077 
167 1 -11.843 3.452 10.132 
168 1 13.859 -1.469 -15.747 
169 1 -7.928 -14.134 13.787 
170 1 12.564 -10.683 10.808 
171 1 3.898 -8.260 17.063 
172 1 9.765 1.197 -2.768 
173 1 2.240 0.757 -19.224 
174 1 5.976 -13.110 -0.930 
175 1 15.703 -14.448 -12.868 
176 1 3.187 -17.841 -11.649 
177 1 3.523 -1.212 12.756 
178 1 -1.237 -18.746 -18.531 
179 1 12.358 -16.087 -12.237 
180 1 -14.344 3.168 13.994 
181 1 0.945 -2.935 14.814 
182 1 -8.474 9.084 11.841 
183 1 12.179 10.426 17.530 
184 1 11.559 -4.086 -0.388 
185 1 0.566 0.862 -8.235 
186 1 15.643 -17.419 -16.947 
187 1 1.991 3.834 -16.396 
188 1 -4.393 3.363 -16.547 
189 1 -1.696 -6.128 -19.317 
190 1 9.036 17.511 0.933 
191 1 18.536 1.008 9.126 
192 1 -17.896 10.636 13.894 
193 1 -14.252 -15.254 8.023 
194 1 -11.282 16.576 16.059 
195 1 10.587 8.381 8.694 
196 1 7.549 -0.116 -9.759 
197 1 -7.107 4.477 6.599 
198 1 5.157 -3.484 -15.559 
199 1 -9.649 -17.732 -18.519 
200 1 6.111 14.954 -8.770 
ITEM: TIMESTEP
5000
ITEM: NUMBER OF ATOMS
200
ITEM: BOX BOUNDS pp pp pp
-19.592236299174868 19.592236299174868
-19.592236299174868 19.592236299174868
-19.592236299174868 19.592236299174868
ITEM: ATOMS id type x y z
1 1 13.798 17.251 -15.391 
2 1 7.929 5.105 -0.381 
3 1 -6.926 11.148 8.448 
4 1 -6.314 -17.250 -16.523 
5 1 -7.507 -5.792 19.408 
6 1 13.291 -6.775 5.935 
7 1 -5.256 -8.028 -0.781 
8 1 1.474 3.293 1.772 
9 1 10.535 -7.280 9.052 
10 1 -19.497 -13.776 -12.914 
11 1 1.490 -2.632 -18.700 
12 1 -3.480 -7.143 19.084 
13 1 14.473 4.014 -11.407 
14 1 12.665 -11.548 6.779 
15 1 -0.448 4.011 -14.119 
16 1 -11.871 17.807 -6.670 
17 1 -4.595 12.757 6.338 
18 1 17.589 -5.369 4.007 
19 1 -18.234 3.488 10.631 
20 1 6.795 5.564 -13.277 
21 1 18.457 6.610 -9.644 
22 1 -11.574 -18.576 15.623 
23 1 -8.859 -0.452 -7.400 
24 1 17.007 -0.840 -9.770 
25 1 17.380 -10.239 -11.801 
26 1 -12.700 7.975 10.537 
27 1 -15.968 7.173 0.495 
28 1 6.205 -17.763 -19.093 
29 1 -15.137 13.651 14.316 
30 1 -2.711 -13.752 15.553 
31 1 -5.380 -18.919 -10.698 
32 1 -6.195 -17.551 9.882 
33 1 -11.575 -8.317 8.828 
34 1 3.102 -15.026 14.818 
35 1 9.144 1.609 5.917 
36 1 -4.374 0.842 -13.810 
37 1 19.055 -1.545 4.038 
38 1 -11.518 2.789 16.535 
39 1 16.513 -5.122 9.019 
40 1 12.053 -8.516 -15.249 
41 1 6.988 -11.054 17.946 
42 1 1.637 13.098 2.407 
43 1 -5.237 -1.713 -17.568 
44 1 14.934 12.218 7.516 
45 1 -13.886 15.371 6.510 
46 1 10.075 -0.757 -7.179 
47 1 8.064 -13.074 -10.239 
48 1 17.583 19.085 3.675 
49 1 17.682 -0.873 -13.378 
50 1 -0.348 18.558 -13.409 
51 1 -0.352 -12.486 3.831 
52 1 -17.563 -8.461 6.899 
53 1 3.134 -13.247 -18.891 
54 1 14.764 -14.729 -8.921 
55 1 6.279 -1.081 -19.396 
56 1 -4.400 16.361 9.937 
57 1 -1.488 1.068 -16.076 
58 1 7.955 -4.895 -15.255 
59 1 13.831 -9.225 14.203 
60 1 -8.907 -3.041 8.142 
61 1 17.627 3.988 13.929 
62 1 13.841 -2.218 4.276 
63 1 -3.574 -15.396 18.914 
64 1 -2.489 -11.133 -17.996 
65 1 -17.513 1.586 6.588 
66 1 -7.796 4.067 -5.744 
67 1 4.768 -3.187 -7.362 
68 1 -12.345 -11.819 10.125 
69 1 1.804 -8.396 -0.293 
70 1 -13.485 12.422 -4.411 
71 1 -9.785 -16.484 -5.082 
72 1 -19.302 13.550 -10.143 
73 1 -6.194 -11.925 -19.534 
74 1 -5.310 17.720 -7.313 
75 1 17.976 3.931 -13.923 
76 1 16.975 14.270 -4.265 
77 1 -17.271 1.406 16.853 
78 1 -0.312 16.602 14.762 
79 1 -17.129 -16.717 4.700 
80 1 -19.255 3.657 -11.266 
81 1 -7.361 -8.317 12.355 
82 1 0.056 1.799 13.386 
83 1 5.260 -10.661 8.729 
84 1 -4.945 6.807 18.786 
85 1 -0.390 14.371 -1.715 
86 1 -3.750 9.269 10.192 
87 1 -7.890 -5.311 4.600 
88 1 7.955 19.590 -2.377 
89 1 8.642 19.586 3.628 
90 1 7.764 -5.492 -11.452 
91 1 6.579 5.396 -7.001 
92 1 13.002 7.045 16.723 
93 1 7.594 -1.447 3.664 
94 1 -15.229 16.972 -17.214 
95 1 -7.385 11.830 -13.940 
96 1 18.032 -13.081 -8.486 
97 1 0.389 -12.543 14.563 
98 1 2.553 -1.581 -4.935 
99 1 -9.159 2.681 1.806 
100 1 17.857 8.991 -13.440 
101 1 4.162 7.236 6.462 
102 1 -8.888 -18.545 -8.289 
103 1 1.241 -15.026 10.679 
104 1 -17.570 17.928 11.000 
105 1 7.610 19.142 14.288 
106 1 -0.787 -16.170 -8.335 
107 1 15.028 10.968 2.843 
108 1 2.458 -19.026 11.752 
109 1 3.230 -6.536 -17.124 
110 1 14.729 0.991 7.822 
111 1 19.032 -17.023 -10.578 
112 1 15.909 -11.772 12.104 
113 1 -15.445 6.882 4.663 
114 1 -2.315 -9.869 14.156 
115 1 13.783 7.433 4.966 
116 1 -2.511 -17.952 5.989 
117 1 15.914 -19.002 -11.119 
118 1 -9.494 5.295 -2.687 
119 1 -15.199 1.050 11.215 
120 1 -0.368 6.008 3.448 
121 1 3.963 2.796 -4.221 
122 1 2.083 8.891 1.865 
123 1 -16.804 -10.886 -8.554 
124 1 -1.115 18.138 9.597 
125 1 -12.096 -9.828 13.787 
126 1 -5.512 -9.723 16.422 
127 1 -17.957 6.326 16.090 
128 1 11.937 1.988 -10.453 
129 1 -14.181 9.670 15.367 
130 1 -1.988 -2.745 11.801 
131 1 9.894 9.586 12.561 
132 1 -4.851 14.856 13.326 
133 1 0.026 -15.155 17.068 
134 1 -4.658 -7.444 2.340 
135 1 -0.869 1.045 -0.965 
136 1 -15.698 6.865 8.850 
137 1 17.796 10.600 4.863 
138 1 -12.927 3.735 2.866 
139 1 -8.734 -1.739 0.432 
140 1 0.875 11.975 13.896 
141 1 -7.162 -6.764 -5.571 
142 1 -16.015 -3.302 -2.931 
143 1 -1.644 13.327 11.103 
144 1 4.942 6.600 -16.664 
145 1 4.182 19.115 17.096 
146 1 -0.192 -12.274 18.616 
147 1 -16.595 11.864 1.777 
148 1 4.000 -19.014 -6.445 
149 1 -1.078 9.933 7.534 
150 1 -5.594 -18.535 0.884 
151 1 7.125 1.292 -5.395 
152 1 18.462 -1.805 17.362 
153 1 -3.124 -12.337 -1.356 
154 1 -6.900 19.029 -3.601 
155 1 8.157 -8.464 -6.263 
156 1 10.380 -13.944 16.407 
157 1 -13.923 13.288 18.543 
158 1 -9.892 6.913 13.078 
159 1 11.126 -12.700 2.970 
160 1 15.910 -8.548 8.145 
161 1 -0.455 -5.992 -9.584 
162 1 12.349 -2.075 -11.067 
163 1 13.847 -2.979 -3.881 
164 1 3.090 -11.061 16.727 
165 1 2.827 5.689 -10.069 
166 1 4.139 -3.468 18.646 
167 1 -12.252 3.095 10.149 
168 1 13.768 -1.278 -14.614 
169 1 -7.338 -12.285 12.957 
170 1 12.166 -11.045 10.582 
171 1 5.793 -7.899 18.799 
172 1 9.660 2.413 -2.606 
173 1 1.705 0.839 -18.943 
174 1 5.525 -12.669 -1.508 
175 1 16.416 -14.333 -13.103 
176 1 2.416 -19.385 -11.593 
177 1 3.163 -0.888 12.731 
178 1 -1.119 19.418 -17.443 
179 1 12.141 -16.135 -11.804 
180 1 -13.588 4.181 14.522 
181 1 1.165 -2.729 15.118 
182 1 -8.050 9.413 11.267 
183 1 12.665 10.489 17.464 
184 1 11.126 -2.946 -0.741 
185 1 0.404 2.859 -6.773 
186 1 15.683 -16.292 -16.670 
187 1 3.450 2.422 -16.137 
188 1 -4.839 2.506 -16.803 
189 1 -1.318 -4.331 -19.105 
190 1 9.852 17.793 0.877 
191 1 18.678 0.258 8.966 
192 1 -18.810 10.869 13.243 
193 1 -14.054 -14.592 9.115 
194 1 -11.072 16.695 16.945 
195 1 11.159 7.550 8.375 
196 1 7.985 -0.094 -10.475 
197 1 -6.258 7.172 6.518 
198 1 4.935 -2.475 -15.351 
199 1 -9.803 -17.679 18.795 
200 1 5.950 13.898 -9.317 
ITEM: TIMESTEP
6000
ITEM: NUMBER OF ATOMS
200
ITEM: BOX BOUNDS pp pp pp
-19.592236299174868 19.592236299174868
-19.592236299174868 19.592236299174868
-19.592236299174868 19.592236299174868
ITEM: ATOMS id type x y z
1 1 13.808 16.229 -15.447 
2 1 8.165 4.921 -0.421 
3 1 -7.266 11.883 9.681 
4 1 -7.272 -18.462 -15.620 
5 1 -8.274 -6.039 -19.501 
6 1 11.904 -7.462 6.060 
7 1 -4.807 -8.580 -1.353 
8 1 2.351 2.964 0.464 
9 1 10.937 -6.619 9.299 
10 1 -19.463 -13.566 -13.511 
11 1 2.984 -2.171 -18.392 
12 1 -3.729 -7.022 -19.243 
13 1 14.169 4.833 -12.292 
14 1 12.630 -11.918 7.405 
15 1 0.573 4.587 -14.343 
16 1 -11.408 16.810 -7.002 
17 1 -3.889 12.291 6.270 
18 1 17.770 -6.702 5.133 
19 1 -18.292 3.835 10.618 
20 1 6.271 6.827 -13.772 
21 1 17.736 6.464 -10.015 
22 1 -11.512 -18.375 15.889 
23 1 -8.257 0.099 -6.980 
24 1 16.023 -1.000 -9.099 
25 1 18.091 -10.890 -12.697 
26 1 -12.740 8.719 11.601 
27 1 -16.307 8.555 0.454 
28 1 5.146 -17.105 19.238 
29 1 -16.102 12.838 14.560 
30 1 -2.648 -14.754 14.497 
31 1 -5.226 -18.326 -10.007 
32 1 -5.014 -16.876 10.227 
33 1 -11.780 -8.516 8.730 
34 1 3.038 -15.305 14.376 
35 1 9.353 2.986 5.398 
36 1 -3.678 0.600 -13.679 
37 1 -18.666 -1.189 3.928 
38 1 -10.953 2.910 17.159 
39 1 16.282 -5.136 9.935 
40 1 11.916 -10.507 -15.773 
41 1 6.771 -11.614 18.668 
42 1 1.302 12.866 3.439 
43 1 -4.863 -1.648 -16.789 
44 1 13.026 12.258 6.023 
45 1 -14.297 15.233 6.231 
46 1 10.272 -0.502 -7.280 
47 1 8.525 -13.380 -10.624 
48 1 17.200 18.484 5.224 
49 1 18.045 -0.458 -13.271 
50 1 -0.853 18.265 -13.031 
51 1 0.178 -11.473 3.637 
52 1 -18.200 -7.291 7.654 
53 1 3.757 -13.909 18.243 
54 1 13.734 -15.547 -7.168 
55 1 6.741 -1.466 -18.607 
56 1 -4.995 16.441 10.073 
57 1 -1.873 0.116 -16.593 
58 1 6.932 -3.512 -15.616 
59 1 14.456 -9.451 14.129 
60 1 -8.822 -3.173 8.413 
61 1 16.370 2.916 13.625 
62 1 13.790 -1.752 4.370 
63 1 -4.147 -15.955 19.475 
64 1 -2.084 -9.844 -18.937 
65 1 -17.786 2.602 7.434 
66 1 -7.731 4.078 -6.186 
67 1 4.228 -3.517 -8.446 
68 1 -11.271 -11.642 10.800 
69 1 1.835 -7.796 -0.557 
70 1 -11.687 12.225 -5.429 
71 1 -10.210 -16.342 -5.032 
72 1 17.980 11.738 -10.398 
73 1 -4.800 -12.442 18.982 
74 1 -6.476 18.460 -7.884 
75 1 18.412 4.234 -14.021 
76 1 18.212 13.442 -3.348 
77 1 -17.514 1.307 16.463 
78 1 0.063 17.990 14.862 
79 1 -17.120 -15.412 4.636 
80 1 -18.891 3.289 -10.631 
81 1 -7.302 -7.821 13.557 
82 1 -0.820 1.167 13.626 
83 1 5.122 -10.554 9.404 
84 1 -5.686 7.830 18.378 
85 1 -1.393 14.163 -3.628 
86 1 -4.296 9.110 10.951 
87 1 -6.763 -5.337 3.876 
88 1 8.426 19.241 -3.946 
89 1 7.839 19.132 3.358 
90 1 7.841 -5.562 -11.633 
91 1 7.816 5.533 -7.054 
92 1 12.597 6.849 15.537 
93 1 7.865 -1.783 3.595 
94 1 -15.200 16.358 -17.518 
95 1 -8.696 11.194 -13.871 
96 1 18.136 -13.539 -8.504 
97 1 -0.082 -11.913 14.351 
98 1 2.014 -1.158 -4.929 
99 1 -9.274 2.166 2.041 
100 1 17.018 9.339 -13.006 
101 1 4.776 8.150 5.993 
102 1 -9.235 -18.117 -7.988 
103 1 1.234 -14.410 11.237 
104 1 -18.033 18.931 10.941 
105 1 8.633 18.643 14.678 
106 1 -0.455 -16.389 -7.786 
107 1 14.090 10.761 2.260 
108 1 1.913 -18.797 12.626 
109 1 3.315 -5.412 -17.450 
110 1 15.307 0.557 7.487 
111 1 -19.572 -16.930 -10.578 
112 1 18.102 -12.155 11.801 
113 1 -14.985 6.628 5.022 
114 1 -3.179 -10.022 14.402 
115 1 14.522 6.627 5.241 
116 1 -3.690 -17.671 4.816 
117 1 16.529 18.894 -10.625 
118 1 -9.702 5.459 -3.191 
119 1 -15.260 -0.023 10.370 
120 1 -0.438 4.960 2.785 
121 1 3.817 1.799 -4.801 
122 1 2.727 8.820 2.183 
123 1 -17.056 -10.789 -8.901 
124 1 0.368 17.182 10.802 
125 1 -12.058 -10.598 14.066 
126 1 -5.446 -9.176 17.399 
127 1 -18.486 7.464 16.159 
128 1 13.074 1.565 -9.816 
129 1 -13.000 8.985 16.013 
130 1 -1.992 -1.763 12.248 
131 1 10.243 10.316 12.906 
132 1 -4.403 15.206 14.184 
133 1 0.118 -16.881 17.094 
134 1 -3.785 -7.373 3.268 
135 1 -2.241 0.591 0.591 
136 1 -16.062 6.375 8.422 
137 1 18.464 10.042 4.328 
138 1 -12.827 4.085 3.735 
139 1 -7.593 -0.950 0.163 
140 1 -0.595 12.028 13.166 
141 1 -6.009 -7.173 -6.148 
142 1 -16.349 -3.394 -2.710 
143 1 -3.166 13.592 11.501 
144 1 6.221 6.993 -17.164 
145 1 4.659 18.498 16.512 
146 1 -0.058 -13.045 17.940 
147 1 -17.837 11.190 1.932 
148 1 4.392 -19.345 -6.166 
149 1 -1.666 10.386 8.089 
150 1 -6.452 -17.518 0.416 
151 1 7.678 1.348 -6.443 
152 1 19.371 -2.244 17.891 
153 1 -3.892 -13.014 -0.367 
154 1 -6.917 -19.214 -3.870 
155 1 8.427 -8.184 -5.860 
156 1 9.719 -14.054 16.675 
157 1 -13.733 14.253 18.860 
158 1 -9.688 6.595 13.501 
159 1 12.706 -12.605 2.769 
160 1 16.714 -9.002 7.310 
161 1 -0.754 -6.663 -9.561 
162 1 12.853 -2.615 -10.167 
163 1 14.024 -2.104 -2.786 
164 1 3.183 -9.999 17.226 
165 1 1.504 5.213 -10.506 
166 1 5.073 -4.006 18.195 
167 1 -12.924 3.656 9.671 
168 1 13.567 -0.623 -14.111 
169 1 -7.499 -11.652 12.671 
170 1 12.758 -12.887 10.802 
171 1 6.663 -7.667 18.554 
172 1 9.066 2.241 -2.557 
173 1 0.940 2.967 -18.689 
174 1 5.521 -11.645 -2.467 
175 1 15.537 -13.949 -14.667 
176 1 2.733 17.944 -12.850 
177 1 3.090 -0.255 13.164 
178 1 -1.239 -19.487 -17.525 
179 1 11.323 -15.515 -11.458 
180 1 -12.644 4.328 14.368 
181 1 1.628 -2.465 15.551 
182 1 -8.733 9.048 11.565 
183 1 10.966 11.173 16.404 
184 1 11.833 -3.317 0.399 
185 1 -0.111 2.385 -7.854 
186 1 15.742 -18.069 -17.136 
187 1 3.820 1.287 -15.253 
188 1 -5.068 2.667 -17.027 
189 1 -0.954 -4.955 -18.432 
190 1 10.404 17.792 0.671 
191 1 18.798 -0.094 9.900 
192 1 -19.372 10.514 13.056 
193 1 -13.041 -14.152 9.268 
194 1 -9.010 17.374 16.234 
195 1 11.761 7.903 7.897 
196 1 7.946 0.061 -10.334 
197 1 -5.302 6.702 6.389 
198 1 3.980 -2.152 -15.002 
199 1 -9.238 -17.843 -19.570 
200 1 5.925 14.148 -9.442 
ITEM: TIMESTEP
7000
ITEM: NUMBER OF ATOMS
200
ITEM: BOX BOUNDS pp pp pp
-19.592236299174868 19.592236299174868
-19.592236299174868 19.592236299174868
-19.592236299174868 19.592236299174868
ITEM: ATOMS id type x y z
1 1 12.633 16.552 -15.015 
2 1 8.684 5.091 -0.533 
3 1 -6.193 11.752 10.157 
4 1 -6.181 18.393 -14.645 
5 1 -8.546 -7.227 19.385 
6 1 11.748 -7.619 6.012 
7 1 -5.066 -7.814 -1.533 
8 1 1.785 3.383 0.741 
9 1 10.548 -6.481 9.853 
10 1 19.465 -13.767 -13.224 
11 1 1.965 -2.103 19.303 
12 1 -4.127 -6.319 18.881 
13 1 13.342 6.296 -12.188 
14 1 11.114 -10.794 7.378 
15 1 1.260 3.907 -15.132 
16 1 -10.933 18.043 -6.715 
17 1 -4.149 13.860 5.899 
18 1 17.087 -6.241 4.051 
19 1 -18.675 3.502 10.868 
20 1 5.887 6.492 -14.310 
21 1 17.300 6.085 -11.116 
22 1 -11.196 -19.073 15.913 
23 1 -7.516 0.105 -6.747 
24 1 16.906 -1.091 -9.598 
25 1 17.567 -11.239 -11.965 
26 1 -12.083 8.712 12.547 
27 1 -15.744 7.988 0.812 
28 1 4.675 -18.101 19.538 
29 1 -15.808 13.480 15.913 
30 1 -3.019 -14.746 13.898 
31 1 -4.444 -18.113 -10.233 
32 1 -5.337 -17.710 10.211 
33 1 -12.224 -8.106 8.409 
34 1 3.777 -13.939 14.373 
35 1 9.153 2.568 3.406 
36 1 -3.131 0.500 -13.504 
37 1 -18.790 -2.390 3.653 
38 1 -11.275 2.540 16.836 
39 1 16.333 -4.291 10.418 
40 1 11.316 -11.322 -16.251 
41 1 6.952 -11.558 19.047 
42 1 1.510 13.229 3.295 
43 1 -5.586 -1.098 -17.195 
44 1 13.019 12.550 6.655 
45 1 -13.442 14.286 7.579 
46 1 11.410 -0.659 -7.914 
47 1 8.898 -12.907 -10.936 
48 1 17.606 18.643 4.201 
49 1 19.234 -0.887 -13.034 
50 1 -0.336 18.793 -12.538 
51 1 0.616 -10.360 2.873 
52 1 -17.200 -5.826 9.165 
53 1 4.516 -15.063 17.610 
54 1 13.385 -16.323 -6.016 
55 1 6.818 -2.101 -18.032 
56 1 -4.531 16.031 9.332 
57 1 -2.326 0.245 -16.727 
58 1 6.424 -4.788 -14.877 
59 1 16.007 -8.885 14.041 
60 1 -10.162 -4.712 8.919 
61 1 16.918 1.133 14.447 
62 1 14.037 -1.409 4.162 
63 1 -4.345 -16.225 19.327 
64 1 -2.025 -10.022 -18.365 
65 1 -18.355 3.028 7.501 
66 1 -8.359 3.937 -6.887 
67 1 3.789 -3.893 -9.337 
68 1 -11.426 -11.411 11.303 
69 1 2.335 -7.694 -0.232 
70 1 -11.517 12.378 -5.352 
71 1 -10.601 -17.043 -4.726 
72 1 18.844 12.101 -9.434 
73 1 -5.050 -12.376 18.762 
74 1 -6.578 17.724 -7.657 
75 1 17.474 4.268 -14.175 
76 1 17.989 12.676 -4.464 
77 1 -17.078 1.610 16.149 
78 1 -0.525 16.152 14.712 
79 1 -17.664 -15.017 5.016 
80 1 -19.025 3.252 -10.972 
81 1 -7.880 -8.867 14.823 
82 1 -0.423 2.669 13.825 
83 1 3.847 -11.715 8.886 
84 1 -5.646 8.677 18.928 
85 1 -1.221 13.037 -4.414 
86 1 -3.853 9.654 10.905 
87 1 -8.045 -4.730 3.541 
88 1 7.999 -19.055 -4.639 
89 1 9.554 18.853 3.755 
90 1 7.648 -4.989 -10.481 
91 1 6.704 5.862 -6.013 
92 1 13.060 6.574 15.864 
93 1 7.698 -0.533 2.839 
94 1 -15.151 14.978 -17.474 
95 1 -8.022 11.744 -14.238 
96 1 18.688 -13.812 -8.371 
97 1 0.761 -11.257 13.905 
98 1 2.612 -1.829 -5.629 
99 1 -7.958 4.098 1.982 
100 1 18.081 10.200 -13.981 
101 1 4.965 8.069 5.498 
102 1 -9.030 -18.373 -8.295 
103 1 0.104 -15.436 12.599 
104 1 -18.179 17.865 11.844 
105 1 8.647 19.400 13.995 
106 1 -1.451 -15.588 -7.613 
107 1 15.194 10.068 1.799 
108 1 2.219 -18.740 11.660 
109 1 3.308 -4.985 -18.201 
110 1 14.138 0.449 7.689 
111 1 18.365 -17.622 -11.456 
112 1 18.008 -10.990 12.023 
113 1 -14.180 8.241 4.792 
114 1 -3.175 -10.647 14.962 
115 1 15.369 6.614 4.947 
116 1 -3.934 -17.195 4.695 
117 1 15.984 17.777 -12.856 
118 1 -10.722 6.087 -2.027 
119 1 -14.822 -0.689 9.722 
120 1 -1.650 5.264 3.371 
121 1 3.759 3.173 -6.173 
122 1 3.016 9.646 2.497 
123 1 -17.815 -11.325 -8.604 
124 1 0.261 16.742 10.480 
125 1 -12.494 -10.858 15.044 
126 1 -5.882 -9.033 17.547 
127 1 -18.074 7.118 17.067 
128 1 13.756 1.941 -9.490 
129 1 -14.064 8.834 15.738 
130 1 -1.759 -1.810 12.930 
131 1 10.753 9.405 13.295 
132 1 -4.080 15.972 13.838 
133 1 0.274 -16.366 16.887 
134 1 -3.362 -5.926 2.959 
135 1 -2.994 1.011 0.697 
136 1 -15.712 5.180 7.942 
137 1 17.953 10.599 4.223 
138 1 -13.623 4.225 4.930 
139 1 -7.661 -1.361 1.088 
140 1 -0.258 10.836 12.965 
141 1 -5.430 -7.560 -5.864 
142 1 -15.787 -2.735 -2.247 
143 1 -2.463 13.566 11.281 
144 1 5.727 6.359 -18.226 
145 1 3.776 19.025 16.012 
146 1 0.600 -12.999 17.368 
147 1 -18.298 12.030 2.519 
148 1 4.813 -18.896 -6.880 
149 1 -2.626 10.838 8.173 
150 1 -5.222 -17.430 -1.004 
151 1 7.696 1.909 -6.263 
152 1 18.780 -2.856 19.536 
153 1 -3.491 -13.211 -0.798 
154 1 -6.904 -18.994 -3.992 
155 1 6.969 -8.844 -5.714 
156 1 9.915 -14.067 17.119 
157 1 -12.485 14.340 18.970 
158 1 -9.402 5.317 13.116 
159 1 12.691 -12.848 3.099 
160 1 15.455 -9.123 7.843 
161 1 -0.417 -6.917 -9.490 
162 1 13.276 -1.802 -10.604 
163 1 13.588 -1.285 -3.138 
164 1 3.449 -10.215 18.600 
165 1 -0.183 5.146 -11.244 
166 1 4.731 -4.525 17.740 
167 1 -11.955 3.832 9.635 
168 1 13.763 0.707 -13.375 
169 1 -7.566 -11.695 12.202 
170 1 13.626 -12.358 10.911 
171 1 7.011 -7.435 18.774 
172 1 8.462 2.104 -2.645 
173 1 0.753 2.272 -18.218 
174 1 6.433 -12.279 -3.114 
175 1 15.843 -13.972 -13.804 
176 1 2.691 18.224 -12.863 
177 1 3.977 -0.018 14.514 
178 1 -1.261 19.244 -17.316 
179 1 12.493 -13.300 -10.159 
180 1 -12.557 4.989 14.184 
181 1 1.233 -3.711 15.199 
182 1 -8.408 8.924 11.477 
183 1 11.496 11.076 16.509 
184 1 12.504 -3.822 -0.071 
185 1 -0.561 2.226 -8.495 
186 1 17.168 -17.895 -19.531 
187 1 3.266 0.710 -14.679 
188 1 -6.165 2.861 -17.642 
189 1 -1.286 -4.770 -17.865 
190 1 9.402 16.878 -0.339 
191 1 19.217 -0.353 8.424 
192 1 19.334 10.755 12.703 
193 1 -13.675 -13.429 9.899 
194 1 -7.845 17.794 16.452 
195 1 11.213 7.562 6.781 
196 1 7.577 -0.164 -9.827 
197 1 -5.010 7.414 5.429 
198 1 3.475 -3.096 -15.159 
199 1 -9.069 -17.528 -19.139 
200 1 6.421 14.313 -9.077 
ITEM: TIMESTEP
8000
ITEM: NUMBER OF ATOMS
200
ITEM: BOX BOUNDS pp pp pp
-19.592236299174868 19.592236299174868
-19.592236299174868 19.592236299174868
-19.592236299174868 19.592236299174868
ITEM: ATOMS id type x y z
1 1 12.712 15.928 -15.477 
2 1 8.755 6.076 0.436 
3 1 -5.720 12.373 11.610 
4 1 -6.506 18.349 -13.585 
5 1 -8.535 -6.874 18.756 
6 1 12.683 -8.019 6.248 
7 1 -4.832 -8.329 -0.936 
8 1 2.419 3.181 1.517 
9 1 11.565 -6.625 9.791 
10 1 -19.576 -13.706 -13.179 
11 1 1.903 -0.689 19.267 
12 1 -4.400 -6.421 -19.572 
13 1 14.098 5.305 -12.006 
14 1 10.175 -10.566 5.849 
15 1 0.604 4.039 -15.301 
16 1 -10.958 17.926 -6.786 
17 1 -5.185 12.206 7.009 
18 1 18.051 -5.837 4.489 
19 1 -19.239 3.303 11.066 
20 1 5.985 7.078 -13.601 
21 1 17.249 6.481 -11.820 
22 1 -11.275 -19.294 15.698 
23 1 -8.065 0.778 -8.055 
24 1 16.842 -1.706 -10.071 
25 1 16.312 -10.539 -12.766 
26 1 -13.459 9.297 12.882 
27 1 -15.556 7.576 0.739 
28 1 5.449 -18.969 19.568 
29 1 -15.829 14.141 16.668 
30 1 -2.864 -14.826 13.931 
31 1 -4.851 -17.170 -10.525 
32 1 -5.386 -18.651 10.510 
33 1 -12.029 -8.696 8.184 
34 1 3.941 -14.546 14.551 
35 1 10.956 2.620 1.256 
36 1 -3.713 -0.562 -13.761 
37 1 -17.987 -2.555 3.604 
38 1 -10.254 2.259 16.515 
39 1 15.578 -4.712 8.701 
40 1 12.193 -10.443 -17.059 
41 1 6.925 -11.745 -19.158 
42 1 1.324 14.052 3.221 
43 1 -5.334 -1.260 -17.641 
44 1 12.354 11.914 7.215 
45 1 -14.050 13.320 7.712 
46 1 11.560 -0.947 -7.844 
47 1 7.435 -12.098 -10.822 
48 1 16.868 16.813 4.951 
49 1 -19.264 -1.504 -11.562 
50 1 -2.017 18.787 -12.372 
51 1 0.466 -9.206 3.300 
52 1 -17.926 -5.733 8.019 
53 1 3.635 -15.228 19.077 
54 1 12.752 -16.149 -4.762 
55 1 6.672 -2.439 -18.740 
56 1 -4.020 15.686 8.861 
57 1 -1.662 0.303 -16.668 
58 1 6.634 -4.344 -14.044 
59 1 14.738 -8.772 14.095 
60 1 -9.974 -4.980 9.435 
61 1 15.931 1.014 13.988 
62 1 13.445 -1.678 3.335 
63 1 -4.543 -17.134 -19.498 
64 1 -1.606 -11.765 -17.738 
65 1 -17.569 3.105 7.125 
66 1 -9.012 3.578 -5.852 
67 1 3.346 -4.365 -10.688 
68 1 -12.051 -10.330 11.920 
69 1 3.466 -7.346 -0.957 
70 1 -11.409 11.737 -5.230 
71 1 -10.591 -16.771 -5.060 
72 1 17.304 12.595 -9.302 
73 1 -4.129 -12.986 18.067 
74 1 -6.890 18.320 -7.071 
75 1 17.065 3.485 -13.956 
76 1 18.247 11.670 -4.279 
77 1 19.447 1.816 15.941 
78 1 -0.749 16.173 15.350 
79 1 -18.124 -16.254 4.568 
80 1 -19.105 3.967 -11.056 
81 1 -7.583 -9.521 13.174 
82 1 0.694 2.624 12.800 
83 1 3.490 -12.637 8.897 
84 1 -5.200 9.201 18.658 
85 1 -0.867 12.253 -3.753 
86 1 -4.170 9.486 12.018 
87 1 -6.681 -5.477 3.756 
88 1 7.286 -19.293 -4.299 
89 1 8.740 19.076 4.559 
90 1 7.390 -5.594 -10.809 
91 1 7.551 7.074 -5.534 
92 1 13.237 6.935 16.378 
93 1 7.336 -0.129 2.205 
94 1 -14.386 14.235 -16.202 
95 1 -8.427 11.736 -13.707 
96 1 18.602 -13.674 -9.494 
97 1 0.438 -10.113 13.168 
98 1 2.813 -1.951 -6.157 
99 1 -8.094 5.615 3.606 
100 1 18.451 11.070 -13.218 
101 1 4.613 9.089 5.454 
102 1 -8.837 -18.289 -7.635 
103 1 0.317 -15.713 12.999 
104 1 -17.700 18.950 11.565 
105 1 9.819 -18.516 12.909 
106 1 -1.945 -14.652 -8.244 
107 1 14.895 10.674 1.846 
108 1 3.039 -19.422 11.246 
109 1 3.079 -5.754 -17.322 
110 1 12.624 0.712 8.381 
111 1 17.796 -17.356 -9.452 
112 1 18.835 -12.408 12.183 
113 1 -13.954 8.792 5.129 
114 1 -2.675 -10.980 14.744 
115 1 14.558 4.558 6.155 
116 1 -4.183 -17.619 5.956 
117 1 15.309 18.174 -11.873 
118 1 -11.087 6.252 -2.305 
119 1 -15.466 -0.570 8.432 
120 1 -2.573 4.755 1.481 
121 1 2.673 3.767 -5.582 
122 1 3.088 9.335 2.007 
123 1 -16.816 -11.862 -7.959 
124 1 0.121 15.998 11.084 
125 1 -13.243 -11.584 14.858 
126 1 -5.701 -9.163 17.479 
127 1 -17.948 7.811 16.565 
128 1 12.699 2.305 -10.446 
129 1 -13.665 7.934 16.226 
130 1 -0.948 -1.723 14.291 
131 1 10.686 8.853 12.635 
132 1 -3.584 16.446 12.941 
133 1 -1.658 -17.978 16.378 
134 1 -4.083 -7.461 3.209 
135 1 -3.103 0.797 -0.032 
136 1 -15.406 5.794 8.197 
137 1 18.034 9.256 4.973 
138 1 -13.365 4.513 4.709 
139 1 -6.736 -2.063 0.641 
140 1 0.108 11.046 13.587 
141 1 -5.899 -7.468 -5.150 
142 1 -14.973 -2.955 -2.214 
143 1 -2.047 13.556 10.529 
144 1 4.269 7.113 -17.067 
145 1 3.988 18.113 15.350 
146 1 0.091 -12.661 16.815 
147 1 -18.559 11.190 2.288 
148 1 4.598 -18.896 -6.354 
149 1 -2.508 9.929 7.690 
150 1 -4.767 -17.633 -0.702 
151 1 7.479 2.176 -6.406 
152 1 -19.041 -2.776 18.668 
153 1 -3.896 -13.311 -1.436 
154 1 -6.155 -19.438 -3.403 
155 1 5.707 -9.070 -6.294 
156 1 9.967 -14.041 15.674 
157 1 -11.822 13.264 19.164 
158 1 -8.036 5.320 12.910 
159 1 12.154 -11.284 2.824 
160 1 15.720 -10.022 8.996 
161 1 -0.619 -6.604 -8.496 
162 1 13.241 -2.949 -10.506 
163 1 13.445 -1.012 -2.359 
164 1 3.277 -10.145 -19.361 
165 1 -0.067 4.939 -10.103 
166 1 4.220 -6.058 17.262 
167 1 -13.157 3.210 9.077 
168 1 14.862 0.601 -12.874 
169 1 -8.391 -11.275 10.026 
170 1 14.474 -12.947 10.871 
171 1 7.007 -8.210 18.353 
172 1 8.541 3.377 -2.574 
173 1 1.471 2.576 -18.332 
174 1 5.964 -12.275 -3.265 
175 1 16.333 -13.888 -13.951 
176 1 2.506 18.131 -13.395 
177 1 5.433 -0.925 14.059 
178 1 -2.202 19.194 -17.663 
179 1 11.419 -12.138 -9.466 
180 1 -12.568 6.070 13.537 
181 1 1.551 -4.481 15.509 
182 1 -8.063 8.680 11.576 
183 1 9.978 10.786 16.988 
184 1 12.157 -4.180 0.344 
185 1 -0.129 1.396 -7.126 
186 1 17.021 -18.821 -18.859 
187 1 3.165 0.171 -14.430 
188 1 -6.355 2.830 -17.760 
189 1 -0.675 -6.865 -17.540 
190 1 8.535 17.796 -0.791 
191 1 18.557 -0.997 8.475 
192 1 19.056 10.171 10.131 
193 1 -13.177 -13.589 10.918 
194 1 -8.036 17.295 17.248 
195 1 9.558 6.616 5.420 
196 1 7.274 0.402 -11.264 
197 1 -5.452 7.319 5.644 
198 1 3.414 -2.873 -15.942 
199 1 -9.629 -16.763 -19.529 
200 1 6.365 14.382 -9.237 
ITEM: TIMESTEP
9000
ITEM: NUMBER OF ATOMS
200
ITEM: BOX BOUNDS pp pp pp
-19.592236299174868 19.592236299174868
-19.592236299174868 19.592236299174868
-19.592236299174868 19.592236299174868
ITEM: ATOMS id type x y z
1 1 11.911 16.775 -16.093 
2 1 7.312 7.313 0.372 
3 1 -5.759 12.203 12.025 
4 1 -8.542 18.344 -13.620 
5 1 -9.108 -6.667 17.533 
6 1 12.728 -8.756 5.841 
7 1 -4.830 -7.477 -0.312 
8 1 1.450 3.139 0.350 
9 1 11.266 -7.624 10.575 
10 1 18.990 -15.195 -13.064 
11 1 1.419 -2.877 19.267 
12 1 -3.351 -6.120 19.182 
13 1 13.628 5.844 -11.506 
14 1 9.534 -10.394 5.874 
15 1 1.548 4.782 -14.201 
16 1 -11.858 18.665 -8.206 
17 1 -5.807 12.066 7.800 
18 1 18.225 -6.239 4.272 
19 1 -18.728 2.781 11.422 
20 1 6.336 7.065 -13.206 
21 1 17.173 7.017 -12.007 
22 1 -12.882 -18.831 16.032 
23 1 -7.980 1.164 -7.670 
24 1 16.497 -2.180 -9.839 
25 1 16.688 -10.869 -12.521 
26 1 -13.350 8.990 11.988 
27 1 -15.909 8.298 0.940 
28 1 5.796 -18.445 -18.671 
29 1 -16.544 14.533 17.769 
30 1 -2.725 -13.820 13.609 
31 1 -5.372 -16.952 -11.409 
32 1 -4.997 -18.170 10.422 
33 1 -10.964 -9.213 8.161 
34 1 3.802 -15.615 14.780 
35 1 10.482 1.666 2.251 
36 1 -4.809 -0.551 -14.915 
37 1 -19.433 -2.871 2.976 
38 1 -9.425 3.230 17.008 
39 1 15.740 -4.707 8.588 
40 1 11.553 -11.644 -17.373 
41 1 7.397 -11.104 -18.735 
42 1 1.083 13.581 2.842 
43 1 -6.037 -0.755 -17.959 
44 1 12.330 11.646 6.097 
45 1 -12.977 13.351 8.062 
46 1 11.612 -0.636 -6.623 
47 1 6.981 -12.198 -10.723 
48 1 18.002 17.378 5.165 
49 1 -19.509 -1.711 -11.425 
50 1 -2.817 18.653 -12.446 
51 1 1.336 -9.542 2.183 
52 1 -17.619 -6.238 8.680 
53 1 3.751 -16.034 18.770 
54 1 13.015 -17.349 -4.254 
55 1 6.038 -2.120 18.110 
56 1 -3.925 15.441 8.126 
57 1 -0.779 1.077 -15.830 
58 1 7.387 -4.042 -13.729 
59 1 14.537 -9.890 14.016 
60 1 -10.567 -5.568 9.615 
61 1 15.998 1.066 14.116 
62 1 14.348 -0.861 3.036 
63 1 -4.031 -17.138 -18.959 
64 1 -1.237 -11.502 -17.648 
65 1 -17.971 4.122 6.629 
66 1 -8.827 3.980 -5.073 
67 1 2.580 -4.350 -10.852 
68 1 -12.052 -9.617 12.089 
69 1 3.470 -7.963 -0.328 
70 1 -10.811 11.655 -4.627 
71 1 -11.288 -18.099 -4.436 
72 1 17.863 11.214 -10.272 
73 1 -4.508 -13.021 17.748 
74 1 -6.628 17.735 -5.888 
75 1 15.952 3.120 -15.310 
76 1 18.602 12.223 -3.580 
77 1 -19.319 1.916 16.641 
78 1 -0.886 16.040 14.439 
79 1 -17.521 -15.336 4.020 
80 1 -18.737 4.612 -10.749 
81 1 -7.229 -9.964 13.240 
82 1 1.328 1.446 13.062 
83 1 3.522 -13.090 8.781 
84 1 -4.024 9.216 17.759 
85 1 -1.889 12.025 -2.927 
86 1 -4.614 8.629 11.239 
87 1 -7.149 -5.206 3.457 
88 1 7.216 -19.231 -3.749 
89 1 8.203 18.019 5.010 
90 1 6.682 -6.147 -10.293 
91 1 7.523 6.413 -4.828 
92 1 13.193 6.736 16.322 
93 1 7.197 -0.029 2.507 
94 1 -15.391 14.268 -14.258 
95 1 -8.492 11.250 -14.109 
96 1 18.934 -13.062 -9.714 
97 1 -0.495 -10.861 12.058 
98 1 2.429 -2.128 -6.117 
99 1 -7.467 6.112 3.726 
100 1 -18.992 10.575 -13.220 
101 1 4.583 8.875 6.324 
102 1 -8.514 -18.186 -8.615 
103 1 0.028 -15.654 12.545 
104 1 19.491 -19.394 11.337 
105 1 9.587 -17.523 13.485 
106 1 -2.094 -14.971 -8.890 
107 1 16.351 11.037 2.286 
108 1 2.190 -18.759 12.458 
109 1 3.277 -6.343 -16.904 
110 1 13.003 -0.007 6.818 
111 1 18.955 -19.097 -9.554 
112 1 18.408 -12.741 11.206 
113 1 -14.049 8.457 5.277 
114 1 -2.780 -10.086 15.284 
115 1 15.102 3.087 6.593 
116 1 -4.925 -18.028 6.045 
117 1 14.627 18.581 -11.837 
118 1 -10.357 6.056 -2.058 
119 1 -14.387 -0.657 9.330 
120 1 -2.748 4.142 0.655 
121 1 2.200 3.212 -6.287 
122 1 4.117 9.421 1.636 
123 1 -16.764 -11.108 -5.978 
124 1 0.017 15.456 10.819 
125 1 -13.772 -11.386 15.371 
126 1 -5.489 -9.468 17.899 
127 1 -18.405 8.763 17.235 
128 1 12.949 2.229 -11.128 
129 1 -13.275 7.748 15.715 
130 1 -1.155 -2.072 15.120 
131 1 11.445 7.660 13.028 
132 1 -3.870 17.061 12.890 
133 1 -1.635 -16.818 15.922 
134 1 -2.898 -8.161 2.441 
135 1 -4.764 0.457 -1.314 
136 1 -15.810 5.832 7.930 
137 1 18.144 9.313 5.025 
138 1 -12.949 4.953 5.235 
139 1 -6.430 -2.926 0.528 
140 1 0.131 11.659 14.775 
141 1 -7.059 -7.767 -3.887 
142 1 -15.347 -2.973 -1.289 
143 1 -1.971 12.972 10.095 
144 1 5.935 7.572 -16.765 
145 1 3.536 17.923 15.016 
146 1 -0.567 -12.632 16.446 
147 1 -18.998 11.210 2.243 
148 1 4.384 18.777 -6.778 
149 1 -2.926 9.995 7.756 
150 1 -5.243 -17.153 -1.624 
151 1 7.938 1.665 -6.162 
152 1 -18.609 -2.282 18.291 
153 1 -4.449 -12.589 -0.518 
154 1 -5.177 18.327 -2.796 
155 1 5.350 -8.684 -6.280 
156 1 9.647 -14.590 15.543 
157 1 -11.656 14.077 19.440 
158 1 -7.857 4.802 13.141 
159 1 11.720 -11.114 2.626 
160 1 16.573 -9.628 8.947 
161 1 -0.732 -6.733 -9.027 
162 1 11.570 -3.823 -10.079 
163 1 15.206 -1.584 -1.107 
164 1 3.578 -10.291 -18.273 
165 1 0.880 4.861 -10.840 
166 1 4.174 -6.043 17.765 
167 1 -13.242 3.368 9.525 
168 1 14.412 -0.401 -12.632 
169 1 -7.173 -10.277 8.910 
170 1 13.981 -12.943 11.844 
171 1 6.748 -7.967 17.616 
172 1 8.973 2.251 -2.516 
173 1 0.945 3.071 -18.327 
174 1 5.220 -12.432 -2.908 
175 1 15.118 -13.909 -15.044 
176 1 1.780 19.188 -12.908 
177 1 5.983 -2.299 13.954 
178 1 -2.864 18.630 -17.290 
179 1 11.654 -12.233 -8.791 
180 1 -11.732 5.143 13.811 
181 1 0.971 -4.865 15.126 
182 1 -7.717 9.350 11.211 
183 1 10.877 9.975 17.977 
184 1 11.680 -3.578 0.278 
185 1 0.302 2.051 -9.072 
186 1 15.961 -17.933 -19.524 
187 1 2.691 0.192 -14.066 
188 1 -5.677 2.260 -16.722 
189 1 -1.138 -7.934 -18.609 
190 1 9.033 18.545 -0.932 
191 1 18.484 -1.008 8.489 
192 1 18.548 10.384 9.361 
193 1 -12.985 -13.581 12.130 
194 1 -8.650 18.104 18.577 
195 1 7.784 5.434 7.129 
196 1 6.644 0.259 -10.530 
197 1 -5.711 9.020 6.291 
198 1 3.192 -2.312 -17.039 
199 1 -9.276 -14.958 -18.015 
200 1 6.919 14.083 -7.964 
ITEM: TIMESTEP
10000
ITEM: NUMBER OF ATOMS
200
ITEM: BOX BOUNDS pp pp pp
-19.592236299174868 19.592236299174868
-19.592236299174868 19.592236299174868
-19.592236299174868 19.592236299174868
ITEM: ATOMS id type x y z
1 1 12.323 17.142 -16.664 
2 1 8.682 9.142 -0.977 
3 1 -6.271 12.201 11.770 
4 1 -9.433 18.899 -12.140 
5 1 -10.277 -6.679 17.244 
6 1 13.328 -8.430 5.390 
7 1 -4.691 -7.149 -0.325 
8 1 1.849 2.965 1.257 
9 1 11.541 -8.437 10.394 
10 1 19.592 -14.466 -12.607 
11 1 1.090 -4.942 18.367 
12 1 -3.739 -5.570 -19.151 
13 1 13.179 5.125 -11.163 
14 1 10.508 -11.030 6.153 
15 1 2.685 5.299 -14.079 
16 1 -13.292 18.809 -9.418 
17 1 -6.232 11.579 8.017 
18 1 17.275 -6.770 4.288 
19 1 -17.493 2.538 9.580 
20 1 4.767 8.105 -11.562 
21 1 17.484 6.262 -11.586 
22 1 -12.765 -18.928 15.277 
23 1 -7.492 1.189 -8.753 
24 1 16.744 -2.590 -9.429 
25 1 16.730 -9.865 -11.443 
26 1 -12.013 9.081 12.956 
27 1 -16.674 8.807 -0.750 
28 1 6.018 -18.716 -18.825 
29 1 -16.007 15.432 16.334 
30 1 -2.840 -13.694 11.925 
31 1 -4.777 -16.731 -10.451 
32 1 -5.727 -18.326 10.364 
33 1 -10.962 -9.942 8.127 
34 1 5.080 -15.315 14.595 
35 1 8.503 3.318 2.849 
36 1 -4.840 0.838 -14.526 
37 1 -19.226 -3.538 3.357 
38 1 -10.400 4.014 17.115 
39 1 16.288 -4.986 8.539 
40 1 11.990 -10.925 -17.204 
41 1 7.572 -12.071 -18.649 
42 1 0.438 13.364 3.078 
43 1 -6.328 -1.224 -17.830 
44 1 12.070 9.500 5.666 
45 1 -13.194 11.584 9.354 
46 1 11.605 -0.316 -7.007 
47 1 8.307 -12.627 -10.042 
48 1 19.143 16.632 3.782 
49 1 19.386 -2.208 -12.914 
50 1 -0.968 -18.828 -10.497 
51 1 1.472 -9.576 2.768 
52 1 -17.151 -6.630 7.660 
53 1 3.888 -15.793 18.639 
54 1 13.306 -16.770 -3.335 
55 1 5.475 -0.924 18.176 
56 1 -4.838 15.573 8.197 
57 1 -1.117 1.826 -15.692 
58 1 7.615 -4.070 -12.910 
59 1 14.445 -9.168 14.190 
60 1 -9.563 -4.316 9.272 
61 1 14.630 1.648 14.193 
62 1 14.058 -1.972 2.801 
63 1 -3.750 -16.516 -19.176 
64 1 -1.130 -11.739 -17.354 
65 1 -18.402 4.213 6.065 
66 1 -10.168 3.459 -5.525 
67 1 3.510 -2.989 -10.058 
68 1 -11.337 -9.499 11.582 
69 1 3.318 -7.754 -0.573 
70 1 -11.699 11.266 -5.138 
71 1 -11.440 -19.044 -3.452 
72 1 16.437 11.053 -9.857 
73 1 -3.219 -13.301 19.236 
74 1 -7.130 17.725 -6.940 
75 1 17.531 3.659 -14.493 
76 1 18.425 10.615 -3.341 
77 1 -19.469 2.762 16.992 
78 1 -0.276 16.410 15.409 
79 1 -17.139 -14.196 5.078 
80 1 -18.671 4.359 -9.229 
81 1 -6.926 -9.666 12.300 
82 1 1.383 1.133 13.227 
83 1 4.411 -13.167 9.191 
84 1 -3.495 9.413 16.681 
85 1 -2.058 11.849 -3.586 
86 1 -4.818 8.831 11.515 
87 1 -5.512 -4.778 3.816 
88 1 6.519 -19.251 -3.982 
89 1 8.943 18.740 5.514 
90 1 7.235 -4.902 -9.620 
91 1 6.584 5.972 -5.803 
92 1 14.464 7.622 17.342 
93 1 6.405 -0.596 2.511 
94 1 -15.715 13.486 -14.917 
95 1 -8.951 11.771 -14.590 
96 1 -18.972 -13.375 -9.410 
97 1 -0.591 -10.978 11.813 
98 1 1.995 -2.556 -6.097 
99 1 -6.808 6.970 3.158 
100 1 -19.105 11.664 -13.934 
101 1 4.379 7.431 5.620 
102 1 -8.094 -18.276 -9.748 
103 1 0.655 -15.098 11.490 
104 1 -18.706 19.159 9.924 
105 1 9.049 -17.298 13.825 
106 1 -2.808 -14.779 -8.299 
107 1 16.624 12.002 2.996 
108 1 2.968 19.491 11.825 
109 1 2.194 -6.740 -17.281 
110 1 13.443 -1.116 6.051 
111 1 19.228 -18.609 -9.410 
112 1 18.148 -12.651 10.350 
113 1 -13.900 9.304 6.234 
114 1 -3.241 -10.049 14.669 
115 1 14.779 3.255 6.911 
116 1 -5.831 -17.630 5.794 
117 1 15.367 18.866 -11.055 
118 1 -10.909 6.850 -2.568 
119 1 -14.087 -1.112 8.956 
120 1 -3.063 4.843 1.371 
121 1 2.157 3.682 -6.461 
122 1 4.674 9.930 1.511 
123 1 -17.088 -11.168 -5.673 
124 1 -0.426 15.727 11.058 
125 1 -14.292 -11.681 14.061 
126 1 -5.213 -10.037 18.392 
127 1 -17.349 7.535 16.637 
128 1 12.310 1.570 -10.887 
129 1 -14.463 8.023 14.967 
130 1 -1.006 -2.392 14.739 
131 1 12.443 8.235 14.629 
132 1 -3.168 17.846 11.612 
133 1 -2.034 -16.957 16.100 
134 1 -3.942 -8.919 2.961 
135 1 -4.433 0.777 -2.235 
136 1 -15.835 6.355 7.768 
137 1 18.086 8.841 4.810 
138 1 -12.825 4.016 5.781 
139 1 -6.906 -4.374 0.226 
140 1 0.791 11.017 13.570 
141 1 -6.471 -8.209 -4.786 
142 1 -15.105 -1.915 -0.752 
143 1 -3.365 12.489 9.794 
144 1 5.626 8.325 -16.791 
145 1 4.113 16.874 15.167 
146 1 -0.371 -13.428 16.687 
147 1 -19.016 11.210 1.468 
148 1 4.550 19.270 -6.983 
149 1 -2.550 8.943 8.000 
150 1 -4.358 -17.119 -0.343 
151 1 7.952 0.511 -5.432 
152 1 -17.986 -2.200 17.877 
153 1 -5.458 -12.588 -0.580 
154 1 -5.497 18.556 -2.740 
155 1 5.870 -8.764 -6.321 
156 1 8.052 -13.837 15.846 
157 1 -11.727 13.808 -19.487 
158 1 -7.181 4.146 12.241 
159 1 11.794 -10.957 2.849 
160 1 16.409 -10.267 6.936 
161 1 -0.897 -5.675 -8.907 
162 1 11.319 -3.998 -9.354 
163 1 14.221 -1.540 -2.300 
164 1 3.054 -9.689 -19.547 
165 1 0.121 5.191 -11.496 
166 1 5.167 -5.631 18.162 
167 1 -12.712 3.465 10.122 
168 1 14.602 -0.332 -12.676 
169 1 -7.500 -10.570 9.341 
170 1 14.140 -12.147 10.452 
171 1 7.642 -7.451 17.079 
172 1 9.630 2.749 -1.132 
173 1 1.347 3.586 -17.877 
174 1 5.588 -12.141 -2.845 
175 1 15.482 -13.818 -14.164 
176 1 1.558 18.520 -12.066 
177 1 5.902 -1.855 14.281 
178 1 -2.216 19.355 -16.472 
179 1 11.849 -10.825 -7.621 
180 1 -10.731 5.348 12.969 
181 1 0.151 -5.939 15.323 
182 1 -9.185 9.641 10.646 
183 1 10.233 9.799 17.980 
184 1 11.377 -3.430 0.600 
185 1 0.610 1.198 -8.391 
186 1 17.074 -17.723 18.808 
187 1 4.259 1.732 -14.126 
188 1 -5.388 3.006 -17.210 
189 1 -1.737 -8.238 -18.818 
190 1 10.166 18.582 0.123 
191 1 17.397 -0.193 7.344 
192 1 18.923 10.105 8.578 
193 1 -12.168 -14.239 12.175 
194 1 -9.347 18.180 18.094 
195 1 7.240 4.775 6.093 
196 1 6.368 0.116 -9.749 
197 1 -6.198 8.537 6.562 
198 1 3.647 -2.372 -17.571 
199 1 -9.023 -14.369 -18.641 
200 1 6.661 13.697 -6.700 
ITEM: TIMESTEP
11000
ITEM: NUMBER OF ATOMS
200
ITEM: BOX BOUNDS pp pp pp
-19.592236299174868 19.592236299174868
-19.592236299174868 19.592236299174868
-19.592236299174868 19.592236299174868
ITEM: ATOMS id type x y z
1 1 10.807 18.264 -17.052 
2 1 7.551 9.237 -2.088 
3 1 -6.063 13.572 10.949 
4 1 -9.519 18.715 -12.845 
5 1 -8.899 -6.610 17.630 
6 1 12.157 -7.945 6.409 
7 1 -3.800 -6.934 -1.486 
8 1 1.846 2.678 1.137 
9 1 11.189 -7.913 10.638 
10 1 -19.208 -15.693 -12.570 
11 1 1.018 -5.198 17.713 
12 1 -3.767 -4.925 -19.119 
13 1 12.133 5.257 -10.970 
14 1 9.305 -12.287 5.252 
15 1 1.721 6.212 -14.560 
16 1 -12.044 19.080 -10.628 
17 1 -6.044 11.339 8.120 
18 1 18.182 -5.972 3.549 
19 1 -17.206 1.962 10.206 
20 1 3.528 8.368 -12.252 
21 1 17.583 6.856 -11.213 
22 1 -13.281 -18.416 13.993 
23 1 -7.124 0.529 -8.962 
24 1 17.499 -4.478 -10.078 
25 1 16.513 -10.379 -11.123 
26 1 -11.963 10.203 13.919 
27 1 -16.502 8.757 -1.023 
28 1 5.698 -17.061 -17.601 
29 1 -16.143 14.956 16.717 
30 1 -3.168 -14.439 12.770 
31 1 -4.393 -17.029 -9.443 
32 1 -4.614 -17.673 11.498 
33 1 -11.222 -10.447 8.043 
34 1 4.160 -15.492 14.382 
35 1 8.075 2.267 3.193 
36 1 -4.979 -0.040 -13.808 
37 1 -19.277 -1.845 1.749 
38 1 -10.177 3.161 16.852 
39 1 17.619 -4.969 8.942 
40 1 11.094 -11.761 -18.245 
41 1 7.184 -12.085 -18.097 
42 1 1.582 12.813 3.866 
43 1 -6.356 -0.765 -17.476 
44 1 11.559 8.282 5.718 
45 1 -12.546 11.790 9.682 
46 1 12.027 -0.345 -7.060 
47 1 9.032 -12.056 -9.494 
48 1 -19.046 16.432 5.430 
49 1 -18.404 -3.784 -13.848 
50 1 -2.279 -18.920 -11.207 
51 1 0.303 -10.626 2.452 
52 1 -16.809 -6.670 6.989 
53 1 4.184 -14.983 19.392 
54 1 13.013 -16.015 -2.247 
55 1 5.322 -0.116 18.820 
56 1 -5.027 16.713 7.975 
57 1 -0.197 1.925 -15.068 
58 1 8.250 -4.309 -12.905 
59 1 14.709 -8.048 13.488 
60 1 -9.327 -2.800 9.965 
61 1 15.842 0.753 12.986 
62 1 13.655 -2.026 1.654 
63 1 -2.728 -16.514 -18.649 
64 1 -1.228 -11.842 -17.949 
65 1 -18.550 4.025 7.195 
66 1 -9.901 3.551 -7.004 
67 1 4.124 -2.405 -10.909 
68 1 -10.374 -9.446 11.585 
69 1 3.085 -8.085 -1.284 
70 1 -11.773 11.278 -5.114 
71 1 -11.383 19.269 -2.197 
72 1 17.039 9.808 -9.987 
73 1 -3.167 -12.675 18.781 
74 1 -8.050 17.009 -7.005 
75 1 17.944 5.150 -16.528 
76 1 18.130 10.384 -3.380 
77 1 -18.586 1.660 17.920 
78 1 -0.854 16.795 15.969 
79 1 -15.965 -13.208 5.234 
80 1 -17.619 4.836 -8.156 
81 1 -6.855 -9.580 12.936 
82 1 1.188 0.576 12.188 
83 1 4.120 -12.959 9.126 
84 1 -2.610 11.108 16.522 
85 1 -1.925 11.781 -2.057 
86 1 -3.507 8.634 13.313 
87 1 -5.517 -5.605 4.738 
88 1 7.376 -19.168 -3.675 
89 1 8.016 18.629 5.269 
90 1 7.226 -5.178 -9.946 
91 1 6.644 6.589 -4.998 
92 1 14.332 7.815 18.943 
93 1 6.485 -0.650 2.712 
94 1 -16.091 13.180 -14.276 
95 1 -10.443 10.746 -14.724 
96 1 -18.915 -13.720 -8.503 
97 1 -0.704 -11.646 11.869 
98 1 1.036 -2.863 -4.973 
99 1 -7.621 6.221 1.284 
100 1 19.523 12.908 -14.309 
101 1 5.695 6.958 5.131 
102 1 -7.252 -18.548 -11.300 
103 1 1.666 -14.975 10.463 
104 1 -18.871 19.456 9.061 
105 1 7.563 -17.576 13.781 
106 1 -1.981 -14.602 -9.508 
107 1 17.330 12.500 3.334 
108 1 3.664 -19.209 12.282 
109 1 2.035 -6.007 -17.758 
110 1 13.786 -0.178 7.230 
111 1 18.852 -19.432 -9.788 
112 1 17.705 -13.550 9.752 
113 1 -14.397 8.835 5.254 
114 1 -2.704 -9.984 13.738 
115 1 14.798 2.956 7.993 
116 1 -7.726 -16.271 6.259 
117 1 14.653 18.873 -11.012 
118 1 -11.064 6.184 -1.998 
119 1 -14.425 -1.294 9.264 
120 1 -3.130 5.904 0.711 
121 1 2.663 4.439 -7.295 
122 1 5.615 11.538 1.568 
123 1 -17.865 -11.709 -5.437 
124 1 -0.007 15.757 10.376 
125 1 -14.413 -11.227 14.789 
126 1 -5.208 -10.123 17.611 
127 1 -17.563 6.487 16.082 
128 1 12.407 1.986 -11.254 
129 1 -14.956 8.542 14.707 
130 1 -1.080 -1.794 14.409 
131 1 11.910 8.499 15.665 
132 1 -3.086 18.171 11.270 
133 1 -2.246 -17.116 16.479 
134 1 -4.433 -9.447 3.937 
135 1 -4.306 0.632 -2.020 
136 1 -16.219 7.036 8.215 
137 1 18.019 8.581 4.378 
138 1 -12.104 4.710 5.990 
139 1 -6.642 -3.528 1.420 
140 1 0.636 10.701 12.953 
141 1 -7.165 -8.939 -5.456 
142 1 -15.711 -2.377 -0.161 
143 1 -2.690 12.923 10.272 
144 1 4.510 8.241 -18.190 
145 1 2.920 16.789 15.335 
146 1 -0.369 -12.992 15.566 
147 1 -18.373 10.477 1.776 
148 1 4.781 19.056 -7.135 
149 1 -3.011 8.568 8.608 
150 1 -4.355 -16.906 0.186 
151 1 8.739 0.091 -5.425 
152 1 -17.871 -2.742 17.589 
153 1 -5.254 -12.962 -1.682 
154 1 -6.379 18.280 -2.889 
155 1 6.049 -8.129 -7.379 
156 1 8.172 -14.011 14.920 
157 1 -11.824 13.421 18.073 
158 1 -7.886 3.420 12.744 
159 1 13.758 -11.197 3.586 
160 1 16.322 -11.202 7.372 
161 1 -1.514 -6.214 -7.690 
162 1 11.552 -3.473 -9.721 
163 1 14.737 -1.293 -2.305 
164 1 3.163 -10.185 -18.846 
165 1 -0.109 4.506 -10.638 
166 1 4.384 -6.483 18.505 
167 1 -13.119 3.366 9.483 
168 1 15.094 0.097 -13.086 
169 1 -7.577 -9.773 9.223 
170 1 14.127 -10.692 10.337 
171 1 7.143 -7.928 16.398 
172 1 10.423 2.029 -2.712 
173 1 1.568 3.479 -17.623 
174 1 4.684 -11.245 -3.268 
175 1 15.021 -12.459 -13.378 
176 1 1.635 18.957 -12.750 
177 1 5.363 -2.254 12.954 
178 1 -2.956 -19.281 -15.426 
179 1 11.423 -9.830 -6.700 
180 1 -11.184 5.946 13.540 
181 1 -0.627 -5.651 14.569 
182 1 -9.464 9.443 10.955 
183 1 10.438 9.178 19.030 
184 1 11.067 -3.234 -0.071 
185 1 1.015 0.957 -8.437 
186 1 18.085 -17.244 -19.125 
187 1 3.331 1.767 -14.528 
188 1 -4.161 3.830 -17.436 
189 1 -1.958 -8.160 -19.112 
190 1 9.739 -19.406 -0.461 
191 1 17.335 -0.974 7.427 
192 1 17.863 9.826 8.874 
193 1 -10.868 -13.449 12.806 
194 1 -9.444 17.447 18.092 
195 1 6.204 4.872 8.139 
196 1 7.160 0.372 -8.484 
197 1 -5.597 7.011 6.791 
198 1 4.429 -2.818 -17.875 
199 1 -9.534 -14.812 19.148 
200 1 6.381 13.299 -7.557 
ITEM: TIMESTEP
12000
ITEM: NUMBER OF ATOMS
200
ITEM: BOX BOUNDS pp pp pp
-19.592236299174868 19.592236299174868
-19.592236299174868 19.592236299174868
-19.592236299174868 19.592236299174868
ITEM: ATOMS id type x y z
1 1 10.800 18.545 -17.428 
2 1 8.222 9.052 -1.572 
3 1 -6.116 13.703 11.660 
4 1 -9.956 17.932 -12.946 
5 1 -9.610 -6.456 16.958 
6 1 12.358 -7.289 6.371 
7 1 -3.336 -5.479 -1.046 
8 1 1.333 2.407 1.592 
9 1 9.705 -6.738 10.731 
10 1 19.466 -15.037 -13.222 
11 1 1.015 -5.985 15.870 
12 1 -3.402 -5.738 -18.237 
13 1 12.693 5.329 -10.195 
14 1 9.819 -13.079 6.686 
15 1 2.272 5.610 -15.614 
16 1 -12.434 18.387 -9.737 
17 1 -5.694 11.905 7.080 
18 1 16.783 -5.774 3.240 
19 1 -17.561 1.047 10.692 
20 1 3.440 7.757 -12.383 
21 1 17.886 6.774 -10.822 
22 1 -11.985 -18.654 14.229 
23 1 -7.613 0.591 -8.885 
24 1 17.432 -4.881 -9.462 
25 1 16.757 -9.843 -10.587 
26 1 -11.942 10.525 13.825 
27 1 -17.051 8.288 -0.167 
28 1 5.888 -17.265 -16.884 
29 1 -15.587 14.002 16.539 
30 1 -2.579 -14.468 12.310 
31 1 -3.237 -16.972 -8.105 
32 1 -5.113 -17.413 11.944 
33 1 -9.967 -8.867 7.739 
34 1 3.382 -17.147 15.109 
35 1 7.620 3.479 3.644 
36 1 -4.834 -0.558 -13.250 
37 1 -18.903 -3.054 1.925 
38 1 -10.670 2.441 17.444 
39 1 17.543 -4.425 9.153 
40 1 11.287 -10.668 -16.608 
41 1 6.660 -13.121 -18.948 
42 1 1.060 13.051 4.899 
43 1 -5.779 -1.697 -18.138 
44 1 10.778 7.432 5.807 
45 1 -13.050 11.603 9.175 
46 1 12.226 -0.442 -6.881 
47 1 8.976 -12.225 -9.706 
48 1 -18.039 16.268 4.699 
49 1 -17.624 -4.360 -12.914 
50 1 -1.840 -18.197 -11.374 
51 1 -0.171 -10.681 2.984 
52 1 -16.893 -6.632 7.111 
53 1 3.053 -15.143 -19.368 
54 1 12.373 -15.419 -0.322 
55 1 5.980 -0.334 -19.539 
56 1 -6.453 17.484 8.044 
57 1 -0.626 1.371 -15.552 
58 1 10.383 -4.055 -13.930 
59 1 13.505 -8.988 13.789 
60 1 -8.876 -2.899 10.767 
61 1 15.914 0.885 11.924 
62 1 14.160 -1.116 1.329 
63 1 -3.834 -17.639 -18.491 
64 1 -0.473 -11.258 -17.702 
65 1 -18.862 2.724 5.990 
66 1 -9.138 4.143 -7.866 
67 1 4.512 -2.224 -11.694 
68 1 -10.138 -9.018 12.106 
69 1 3.850 -7.242 -0.678 
70 1 -11.832 11.838 -5.820 
71 1 -11.391 18.270 -2.503 
72 1 16.560 10.345 -9.596 
73 1 -3.699 -12.786 18.643 
74 1 -8.578 17.318 -6.684 
75 1 18.312 5.601 -15.664 
76 1 16.463 11.012 -3.658 
77 1 -18.783 1.653 19.285 
78 1 -1.049 15.637 15.541 
79 1 -14.814 -13.613 6.630 
80 1 -18.157 3.693 -8.216 
81 1 -7.133 -10.059 13.045 
82 1 1.656 -0.339 12.046 
83 1 5.290 -13.696 10.189 
84 1 -2.307 11.319 17.334 
85 1 -1.959 11.572 -2.756 
86 1 -3.343 8.150 13.194 
87 1 -5.488 -6.576 3.928 
88 1 8.057 -19.023 -3.861 
89 1 6.809 16.953 6.058 
90 1 6.696 -5.675 -10.223 
91 1 7.818 6.812 -5.156 
92 1 13.672 7.620 19.241 
93 1 6.281 -0.721 2.283 
94 1 -15.241 12.926 -13.548 
95 1 -10.478 11.677 -15.705 
96 1 19.316 -15.301 -8.896 
97 1 -0.303 -11.759 11.919 
98 1 -0.198 -2.338 -5.265 
99 1 -6.741 6.083 1.398 
100 1 19.354 13.691 -14.709 
101 1 6.720 7.798 3.857 
102 1 -6.616 -18.416 -11.975 
103 1 1.123 -15.196 10.838 
104 1 18.902 18.543 9.179 
105 1 8.644 -17.949 13.891 
106 1 -2.572 -13.493 -10.459 
107 1 16.610 12.579 4.460 
108 1 3.655 18.850 12.081 
109 1 0.510 -6.452 -17.386 
110 1 14.515 0.261 7.556 
111 1 18.317 -18.573 -10.623 
112 1 17.711 -13.754 9.511 
113 1 -13.900 8.437 4.744 
114 1 -3.606 -10.090 14.355 
115 1 14.503 4.454 8.364 
116 1 -7.974 -16.114 5.692 
117 1 13.713 19.030 -10.716 
118 1 -11.068 6.144 -2.488 
119 1 -14.865 -0.661 8.907 
120 1 -2.989 5.643 0.457 
121 1 3.329 3.259 -7.301 
122 1 6.832 11.375 2.118 
123 1 -19.025 -12.668 -6.054 
124 1 -0.815 15.471 10.923 
125 1 -14.258 -10.946 15.310 
126 1 -7.187 -9.929 17.483 
127 1 -17.560 6.127 15.181 
128 1 12.308 2.153 -11.892 
129 1 -15.439 9.443 15.472 
130 1 -0.917 -1.881 14.013 
131 1 10.750 8.898 15.318 
132 1 -4.026 18.236 10.768 
133 1 -3.491 -16.700 17.126 
134 1 -5.512 -10.305 4.077 
135 1 -4.112 0.421 -1.935 
136 1 -16.238 6.441 7.505 
137 1 18.402 9.002 3.908 
138 1 -11.878 4.902 5.728 
139 1 -5.616 -4.403 1.308 
140 1 2.449 9.799 13.470 
141 1 -7.147 -9.041 -6.446 
142 1 -17.134 -2.875 -0.919 
143 1 -3.261 11.353 10.275 
144 1 6.168 7.849 -17.991 
145 1 2.706 16.484 16.440 
146 1 -0.557 -13.677 15.092 
147 1 -18.021 10.948 2.092 
148 1 5.317 -19.287 -7.541 
149 1 -2.877 8.537 7.391 
150 1 -4.841 -17.948 0.329 
151 1 9.218 0.711 -5.114 
152 1 -18.855 -1.462 17.065 
153 1 -4.747 -13.225 -1.174 
154 1 -5.487 19.124 -2.658 
155 1 5.604 -9.860 -8.301 
156 1 7.725 -14.872 14.032 
157 1 -11.328 13.140 18.723 
158 1 -8.418 4.012 11.820 
159 1 14.418 -11.024 3.703 
160 1 15.363 -10.537 7.200 
161 1 -0.986 -6.049 -6.139 
162 1 11.169 -4.432 -10.529 
163 1 15.075 -1.637 -3.447 
164 1 3.616 -9.030 -18.440 
165 1 -0.305 5.047 -11.515 
166 1 3.717 -6.291 18.623 
167 1 -12.868 3.762 10.705 
168 1 14.132 0.115 -13.848 
169 1 -7.065 -8.886 9.949 
170 1 15.052 -11.278 10.470 
171 1 6.721 -6.731 16.357 
172 1 10.132 2.695 -2.908 
173 1 1.108 3.686 -18.142 
174 1 4.746 -10.432 -4.411 
175 1 15.670 -13.183 -13.793 
176 1 2.158 18.042 -12.025 
177 1 4.542 -2.950 13.972 
178 1 -2.248 -19.487 -15.508 
179 1 9.911 -9.513 -6.826 
180 1 -11.315 6.030 13.499 
181 1 -1.954 -5.046 14.655 
182 1 -9.985 8.838 11.012 
183 1 9.091 9.129 19.099 
184 1 10.255 -2.565 -0.095 
185 1 0.317 0.881 -8.604 
186 1 19.156 -16.891 19.551 
187 1 3.833 1.842 -13.836 
188 1 -2.726 3.698 -17.880 
189 1 -1.751 -9.202 18.996 
190 1 10.335 19.226 -1.168 
191 1 18.248 -1.977 7.360 
192 1 18.293 9.248 9.442 
193 1 -11.255 -13.716 13.554 
194 1 -9.354 17.356 19.565 
195 1 5.256 4.257 7.619 
196 1 7.512 0.078 -10.264 
197 1 -6.498 7.726 7.132 
198 1 3.094 -3.310 -18.031 
199 1 -9.174 -14.313 -19.488 
200 1 6.852 14.264 -8.153 
ITEM: TIMESTEP
13000
ITEM: NUMBER OF ATOMS
200
ITEM: BOX BOUNDS pp pp pp
-19.592236299174868 19.592236299174868
-19.592236299174868 19.592236299174868
-19.592236299174868 19.592236299174868
ITEM: ATOMS id type x y z
1 1 9.420 -19.365 -17.101 
2 1 8.828 9.824 -1.450 
3 1 -6.035 14.649 11.586 
4 1 -9.287 19.425 -12.619 
5 1 -10.021 -6.088 17.591 
6 1 12.343 -7.676 5.323 
7 1 -0.560 -5.074 -0.629 
8 1 1.314 2.358 2.313 
9 1 10.260 -5.680 11.585 
10 1 19.528 -16.241 -13.049 
11 1 1.752 -4.693 15.607 
12 1 -3.112 -6.345 -17.929 
13 1 13.120 5.374 -10.602 
14 1 10.014 -12.428 6.524 
15 1 2.947 6.069 -15.238 
16 1 -13.099 16.701 -10.453 
17 1 -6.096 11.261 7.646 
18 1 15.991 -5.744 2.224 
19 1 -18.007 1.663 10.267 
20 1 2.897 7.554 -12.376 
21 1 19.458 6.206 -10.797 
22 1 -12.836 -18.722 13.385 
23 1 -7.258 1.026 -9.031 
24 1 17.522 -6.313 -8.312 
25 1 16.600 -9.338 -10.267 
26 1 -10.998 10.394 14.045 
27 1 -15.369 9.779 -1.560 
28 1 5.456 -16.782 -17.223 
29 1 -15.762 14.305 16.750 
30 1 -3.003 -14.575 12.512 
31 1 -3.441 -16.338 -8.637 
32 1 -5.970 -17.891 11.334 
33 1 -10.397 -8.532 7.183 
34 1 4.399 -16.624 15.507 
35 1 8.143 4.102 3.275 
36 1 -4.371 -0.451 -13.315 
37 1 19.278 -2.932 2.556 
38 1 -9.652 2.134 17.828 
39 1 17.897 -3.737 9.783 
40 1 11.024 -9.803 -16.147 
41 1 6.800 -12.606 -19.412 
42 1 0.360 12.419 5.327 
43 1 -6.054 -1.123 -18.321 
44 1 11.900 6.418 4.738 
45 1 -12.532 11.328 9.106 
46 1 13.344 -1.390 -6.702 
47 1 8.287 -12.012 -9.205 
48 1 -18.748 16.525 5.239 
49 1 -18.215 -2.883 -12.485 
50 1 -1.579 -18.090 -11.536 
51 1 -1.538 -9.906 2.019 
52 1 -16.269 -6.490 6.461 
53 1 3.777 -15.324 19.350 
54 1 12.257 -14.881 -0.333 
55 1 5.509 -0.789 -19.112 
56 1 -7.689 16.002 9.129 
57 1 -2.197 1.498 -14.535 
58 1 10.154 -4.528 -14.597 
59 1 12.811 -9.472 12.740 
60 1 -9.691 -3.543 10.356 
61 1 16.431 1.454 11.929 
62 1 13.920 -1.734 1.191 
63 1 -4.643 -17.190 -18.697 
64 1 -1.306 -10.848 -17.136 
65 1 -18.108 2.770 6.654 
66 1 -7.582 4.816 -7.575 
67 1 4.247 -2.002 -11.520 
68 1 -12.146 -7.517 11.780 
69 1 4.108 -6.853 0.095 
70 1 -11.823 12.620 -4.209 
71 1 -9.989 19.563 -2.049 
72 1 17.232 10.182 -10.325 
73 1 -4.749 -12.106 18.674 
74 1 -8.037 17.125 -6.019 
75 1 17.280 5.977 -16.267 
76 1 15.465 10.746 -3.974 
77 1 -18.883 1.452 18.030 
78 1 -1.273 15.344 14.254 
79 1 -14.269 -13.394 7.385 
80 1 -18.204 3.525 -9.182 
81 1 -6.576 -10.698 13.169 
82 1 0.960 -0.173 12.366 
83 1 5.754 -13.552 10.140 
84 1 -2.216 11.881 17.026 
85 1 -0.520 11.117 -2.010 
86 1 -4.597 8.990 13.830 
87 1 -6.113 -7.163 3.084 
88 1 8.770 -17.930 -4.560 
89 1 6.885 16.876 5.762 
90 1 8.491 -6.056 -11.817 
91 1 8.009 6.755 -5.339 
92 1 13.552 7.734 19.249 
93 1 6.592 -0.125 2.521 
94 1 -15.148 13.421 -13.158 
95 1 -10.125 11.008 -16.091 
96 1 -18.771 -14.549 -9.900 
97 1 -0.790 -11.581 10.346 
98 1 -0.145 -1.529 -5.023 
99 1 -6.006 6.517 2.084 
100 1 -19.581 13.478 -15.041 
101 1 6.824 7.392 4.300 
102 1 -6.637 -17.383 -13.657 
103 1 0.208 -15.416 10.726 
104 1 17.465 19.000 9.308 
105 1 7.847 -18.348 13.422 
106 1 -2.781 -13.569 -10.485 
107 1 16.447 12.866 4.341 
108 1 4.138 -19.341 10.620 
109 1 0.374 -5.631 -18.626 
110 1 14.580 -1.207 7.345 
111 1 17.590 -18.275 -10.436 
112 1 17.675 -14.069 9.456 
113 1 -12.988 9.211 4.342 
114 1 -2.813 -9.579 14.580 
115 1 14.805 4.938 9.338 
116 1 -8.180 -15.832 5.704 
117 1 14.494 19.065 -11.150 
118 1 -10.264 6.051 -2.494 
119 1 -14.888 -1.110 8.317 
120 1 -2.573 5.559 1.862 
121 1 3.484 3.453 -7.114 
122 1 6.892 11.884 2.915 
123 1 19.189 -11.845 -6.726 
124 1 -1.260 14.458 10.561 
125 1 -14.391 -11.244 15.113 
126 1 -6.525 -9.206 16.813 
127 1 -15.750 6.379 15.704 
128 1 11.996 2.075 -11.996 
129 1 -15.329 10.202 15.262 
130 1 -1.230 -2.351 14.186 
131 1 11.222 7.858 15.185 
132 1 -4.020 17.568 10.103 
133 1 -2.883 -15.680 17.393 
134 1 -6.411 -11.055 4.540 
135 1 -3.559 0.906 -1.312 
136 1 -16.067 6.145 8.636 
137 1 19.051 7.815 5.003 
138 1 -12.215 5.321 6.499 
139 1 -5.116 -4.015 0.712 
140 1 2.521 9.109 13.497 
141 1 -8.025 -10.860 -7.271 
142 1 -16.064 -2.455 -0.940 
143 1 -3.168 10.928 9.913 
144 1 6.258 7.073 -19.521 
145 1 1.576 17.959 14.172 
146 1 -0.813 -13.414 14.852 
147 1 -17.215 10.844 1.846 
148 1 5.542 19.506 -8.772 
149 1 -3.212 9.288 6.978 
150 1 -6.822 -17.562 0.377 
151 1 8.902 -0.143 -5.040 
152 1 -18.436 -2.427 16.267 
153 1 -4.923 -13.382 -0.862 
154 1 -6.973 -19.515 -3.347 
155 1 6.489 -8.406 -6.721 
156 1 7.626 -14.327 13.516 
157 1 -12.250 11.990 18.459 
158 1 -6.958 3.874 12.800 
159 1 15.925 -11.369 3.079 
160 1 14.233 -10.279 7.089 
161 1 -2.147 -6.270 -6.938 
162 1 10.971 -4.132 -9.592 
163 1 15.167 -2.288 -4.054 
164 1 4.041 -9.633 -18.326 
165 1 -0.051 4.364 -11.034 
166 1 3.703 -6.252 18.896 
167 1 -13.195 4.396 9.764 
168 1 13.406 0.579 -14.534 
169 1 -7.875 -8.505 9.307 
170 1 15.381 -10.881 10.327 
171 1 7.429 -8.566 15.699 
172 1 10.722 2.099 -2.749 
173 1 1.119 4.292 -18.620 
174 1 4.445 -10.474 -4.099 
175 1 14.163 -12.813 -14.415 
176 1 1.867 18.027 -12.148 
177 1 4.409 -2.960 13.898 
178 1 -2.142 18.719 -14.516 
179 1 9.643 -9.926 -4.344 
180 1 -11.948 6.169 14.596 
181 1 -1.765 -6.737 15.504 
182 1 -9.790 7.961 10.659 
183 1 9.155 9.760 19.416 
184 1 10.638 -3.805 0.148 
185 1 0.326 1.136 -9.220 
186 1 -19.268 -16.283 19.271 
187 1 3.910 1.834 -14.268 
188 1 -2.925 3.733 -17.056 
189 1 -1.210 -10.540 17.666 
190 1 10.624 -19.404 -1.197 
191 1 17.967 -1.030 6.305 
192 1 17.681 10.798 8.329 
193 1 -12.204 -13.271 13.293 
194 1 -9.410 17.684 -18.679 
195 1 4.548 4.493 7.901 
196 1 6.825 0.172 -9.018 
197 1 -5.664 6.727 7.414 
198 1 2.394 -2.806 -18.663 
199 1 -9.021 -12.899 -19.535 
200 1 6.320 14.243 -8.625 
ITEM: TIMESTEP
14000
ITEM: NUMBER OF ATOMS
200
ITEM: BOX BOUNDS pp pp pp
-19.592236299174868 19.592236299174868
-19.592236299174868 19.592236299174868
-19.592236299174868 19.592236299174868
ITEM: ATOMS id type x y z
1 1 9.692 -18.368 -16.722 
2 1 7.798 9.372 -1.440 
3 1 -5.931 15.382 12.901 
4 1 -9.852 -18.119 -12.646 
5 1 -10.159 -5.987 18.162 
6 1 12.949 -7.415 4.484 
7 1 -1.405 -4.933 -0.749 
8 1 1.995 1.925 2.600 
9 1 10.883 -6.577 11.947 
10 1 -19.439 -16.516 -12.938 
11 1 2.583 -5.645 14.759 
12 1 -4.355 -6.573 -18.149 
13 1 14.137 5.254 -11.301 
14 1 11.631 -11.704 4.855 
15 1 4.301 5.918 -15.409 
16 1 -13.809 16.329 -9.936 
17 1 -5.873 10.858 7.936 
18 1 16.108 -6.158 1.857 
19 1 -17.871 1.509 10.792 
20 1 3.299 7.988 -12.694 
21 1 18.515 6.064 -11.955 
22 1 -11.951 -18.342 12.467 
23 1 -8.622 2.363 -8.165 
24 1 18.965 -6.809 -8.443 
25 1 16.648 -8.707 -10.994 
26 1 -10.800 10.959 13.418 
27 1 -14.839 8.457 -2.121 
28 1 4.563 -16.599 -16.304 
29 1 -15.505 13.843 17.032 
30 1 -3.811 -14.607 13.587 
31 1 -3.325 -17.274 -8.538 
32 1 -5.903 -18.337 10.807 
33 1 -11.235 -8.357 7.967 
34 1 3.665 -17.687 14.597 
35 1 7.902 3.516 3.286 
36 1 -4.918 -1.325 -14.015 
37 1 -18.639 -2.473 3.150 
38 1 -7.886 3.398 18.703 
39 1 17.657 -5.381 9.468 
40 1 10.795 -9.541 -15.968 
41 1 6.199 -13.063 -18.345 
42 1 0.377 12.077 5.020 
43 1 -6.824 -0.680 -18.309 
44 1 11.041 6.145 5.782 
45 1 -12.884 10.677 9.186 
46 1 12.956 -0.633 -7.183 
47 1 8.376 -12.531 -10.189 
48 1 -18.185 16.571 4.879 
49 1 -17.760 -2.748 -12.125 
50 1 -1.074 -18.159 -12.197 
51 1 -1.385 -9.970 2.609 
52 1 -15.426 -6.628 7.043 
53 1 2.727 -16.399 -19.129 
54 1 11.864 -13.455 -0.726 
55 1 5.816 -2.094 -19.179 
56 1 -7.023 16.751 8.419 
57 1 -1.747 1.211 -13.988 
58 1 9.925 -5.999 -14.427 
59 1 13.182 -9.696 12.252 
60 1 -10.178 -4.446 9.304 
61 1 16.418 1.569 11.712 
62 1 13.514 -1.175 1.348 
63 1 -4.197 -18.113 -19.278 
64 1 -1.620 -10.712 -17.058 
65 1 -17.413 2.481 6.581 
66 1 -6.404 4.894 -7.794 
67 1 2.370 -2.817 -11.215 
68 1 -13.012 -7.664 13.061 
69 1 4.556 -6.140 0.777 
70 1 -12.612 12.977 -3.533 
71 1 -10.197 -19.586 -3.040 
72 1 17.950 9.708 -10.667 
73 1 -4.454 -10.850 18.230 
74 1 -7.524 17.889 -6.150 
75 1 17.505 6.813 -18.099 
76 1 16.413 10.690 -3.256 
77 1 -18.990 0.045 17.173 
78 1 -1.913 15.750 14.424 
79 1 -15.395 -14.198 7.748 
80 1 -17.312 2.957 -9.877 
81 1 -7.472 -11.824 12.671 
82 1 -0.484 0.966 12.194 
83 1 6.827 -13.529 9.815 
84 1 -1.654 11.943 15.379 
85 1 0.393 11.776 -0.696 
86 1 -3.796 7.874 15.230 
87 1 -6.575 -5.954 2.442 
88 1 8.844 -18.363 -4.011 
89 1 6.883 18.931 5.646 
90 1 8.322 -6.512 -11.279 
91 1 7.833 5.773 -7.030 
92 1 14.324 6.962 18.852 
93 1 4.321 -0.397 1.729 
94 1 -15.786 12.981 -14.105 
95 1 -9.310 12.141 -16.948 
96 1 -19.170 -14.129 -9.470 
97 1 -0.374 -11.701 12.348 
98 1 1.367 -0.990 -4.515 
99 1 -6.127 5.506 1.589 
100 1 19.414 13.750 -14.092 
101 1 6.386 7.699 3.315 
102 1 -7.014 -17.351 -14.506 
103 1 0.103 -15.306 10.343 
104 1 17.601 18.811 7.740 
105 1 8.444 -17.516 13.457 
106 1 -2.032 -13.967 -9.589 
107 1 16.139 12.444 5.141 
108 1 3.834 19.466 10.784 
109 1 0.008 -5.967 19.580 
110 1 14.252 -0.863 7.182 
111 1 17.318 -17.963 -11.040 
112 1 17.236 -13.523 11.020 
113 1 -13.481 9.325 4.902 
114 1 -3.002 -11.080 14.616 
115 1 16.499 4.987 9.773 
116 1 -7.111 -15.527 6.549 
117 1 14.157 18.072 -10.920 
118 1 -9.405 5.494 -1.950 
119 1 -15.235 -2.188 9.026 
120 1 -2.696 4.579 1.158 
121 1 2.578 3.305 -6.462 
122 1 6.101 11.521 3.310 
123 1 18.991 -12.163 -6.536 
124 1 -0.691 14.608 10.463 
125 1 -14.577 -10.577 14.699 
126 1 -6.086 -7.856 16.196 
127 1 -16.488 6.735 14.830 
128 1 11.257 2.727 -10.868 
129 1 -15.832 9.984 16.146 
130 1 -1.712 -2.412 13.653 
131 1 11.573 7.860 14.759 
132 1 -2.853 17.675 10.145 
133 1 -3.876 -15.786 17.465 
134 1 -6.950 -11.543 3.837 
135 1 -3.807 1.252 0.139 
136 1 -16.568 5.803 8.492 
137 1 19.525 6.988 5.258 
138 1 -12.665 5.515 7.005 
139 1 -4.256 -2.803 1.817 
140 1 3.646 8.263 14.494 
141 1 -8.063 -11.226 -5.733 
142 1 -15.588 -2.320 -1.691 
143 1 -3.365 9.943 10.915 
144 1 5.826 6.410 -19.459 
145 1 1.677 17.559 14.311 
146 1 -0.686 -14.289 15.296 
147 1 -16.359 12.605 0.785 
148 1 5.971 -19.244 -8.178 
149 1 -1.668 9.833 7.343 
150 1 -6.409 -17.048 -0.299 
151 1 8.752 -0.574 -5.390 
152 1 -18.238 -2.719 14.812 
153 1 -4.299 -14.160 -0.457 
154 1 -6.252 -19.083 -3.576 
155 1 6.933 -9.285 -8.174 
156 1 7.826 -14.195 13.690 
157 1 -12.504 12.957 18.524 
158 1 -6.475 4.607 13.146 
159 1 14.351 -12.289 1.764 
160 1 14.006 -10.208 6.526 
161 1 -2.547 -5.725 -8.507 
162 1 10.730 -2.871 -9.950 
163 1 14.981 -0.871 -2.366 
164 1 2.839 -8.726 -16.524 
165 1 -0.343 5.577 -11.599 
166 1 3.623 -5.946 -18.995 
167 1 -12.827 3.507 10.029 
168 1 14.036 0.328 -15.319 
169 1 -7.790 -7.341 8.910 
170 1 16.310 -9.967 10.189 
171 1 8.251 -9.175 16.461 
172 1 11.513 2.273 -1.875 
173 1 0.882 4.349 -18.552 
174 1 4.079 -11.137 -4.328 
175 1 14.895 -13.118 -15.065 
176 1 1.884 18.483 -10.906 
177 1 4.002 -2.977 13.290 
178 1 -1.704 18.668 -14.258 
179 1 9.060 -9.673 -3.909 
180 1 -11.907 6.762 15.144 
181 1 -1.930 -6.346 15.048 
182 1 -10.490 8.246 10.194 
183 1 9.018 9.981 -19.159 
184 1 11.199 -4.605 0.776 
185 1 -0.066 1.125 -9.866 
186 1 -19.571 -16.070 18.836 
187 1 2.365 1.258 -15.008 
188 1 -3.082 3.828 -17.123 
189 1 -1.334 -9.593 17.427 
190 1 10.003 18.609 -1.864 
191 1 17.468 -0.096 6.890 
192 1 19.269 11.512 6.849 
193 1 -11.495 -13.573 14.340 
194 1 -9.026 17.776 -19.204 
195 1 3.899 4.460 8.065 
196 1 7.790 1.013 -8.728 
197 1 -6.204 6.989 6.757 
198 1 2.600 -1.971 -18.197 
199 1 -8.059 -12.039 -19.017 
200 1 7.136 15.503 -9.046 
ITEM: TIMESTEP
15000
ITEM: NUMBER OF ATOMS
200
ITEM: BOX BOUNDS pp pp pp
-19.592236299174868 19.592236299174868
-19.592236299174868 19.592236299174868
-19.592236299174868 19.592236299174868
ITEM: ATOMS id type x y z
1 1 9.526 -17.334 -16.706 
2 1 8.208 8.995 -1.706 
3 1 -5.948 15.018 11.754 
4 1 -10.120 -18.610 -13.283 
5 1 -8.946 -4.895 18.071 
6 1 11.588 -7.872 5.075 
7 1 -1.996 -4.372 -0.461 
8 1 1.458 0.744 3.357 
9 1 9.998 -6.341 12.338 
10 1 18.812 -16.478 -13.780 
11 1 3.354 -5.712 15.326 
12 1 -5.080 -7.671 -17.614 
13 1 13.735 7.529 -11.523 
14 1 11.110 -12.402 4.889 
15 1 3.808 5.246 -15.279 
16 1 -12.870 16.493 -10.888 
17 1 -4.815 11.441 8.348 
18 1 15.289 -5.250 1.604 
19 1 -17.433 2.621 10.526 
20 1 2.474 8.350 -13.480 
21 1 19.170 5.969 -11.877 
22 1 -10.870 -18.404 12.056 
23 1 -7.414 1.291 -9.446 
24 1 17.730 -7.566 -8.803 
25 1 17.757 -8.781 -12.310 
26 1 -9.865 11.234 12.654 
27 1 -15.288 8.130 -0.623 
28 1 5.122 -16.413 -16.254 
29 1 -16.938 13.513 17.200 
30 1 -4.090 -15.281 14.006 
31 1 -3.128 -17.062 -10.027 
32 1 -5.035 -17.955 11.432 
33 1 -10.626 -7.314 7.908 
34 1 4.372 -18.064 14.491 
35 1 8.057 3.228 3.609 
36 1 -5.601 -1.911 -13.989 
37 1 -18.586 -2.808 3.351 
38 1 -8.381 4.776 17.484 
39 1 18.462 -4.276 9.602 
40 1 10.322 -8.723 -14.156 
41 1 7.662 -13.397 -18.160 
42 1 -1.257 12.657 5.007 
43 1 -6.828 -0.091 -18.332 
44 1 10.312 5.851 5.855 
45 1 -13.568 10.004 10.519 
46 1 13.088 0.015 -8.117 
47 1 10.233 -13.190 -11.191 
48 1 -17.831 17.827 5.644 
49 1 -17.539 -2.606 -11.896 
50 1 -0.296 -17.931 -12.287 
51 1 -1.870 -9.270 1.663 
52 1 -15.673 -6.161 7.475 
53 1 3.295 -16.060 19.515 
54 1 11.861 -14.792 -0.640 
55 1 6.536 -1.851 -19.013 
56 1 -8.174 16.219 8.198 
57 1 -2.149 1.174 -15.073 
58 1 9.700 -4.768 -14.646 
59 1 12.480 -9.736 11.695 
60 1 -10.361 -3.661 9.273 
61 1 14.188 1.391 11.327 
62 1 13.324 -0.523 0.893 
63 1 -4.684 -17.988 -18.860 
64 1 -1.479 -10.711 -17.787 
65 1 -16.848 2.639 6.439 
66 1 -7.242 4.156 -7.173 
67 1 3.181 -3.943 -9.736 
68 1 -12.740 -7.931 13.271 
69 1 4.473 -5.411 0.450 
70 1 -13.011 13.515 -4.906 
71 1 -10.489 -19.383 -2.335 
72 1 17.896 9.211 -11.015 
73 1 -4.107 -10.910 18.662 
74 1 -8.071 17.985 -5.816 
75 1 16.340 5.507 -18.666 
76 1 17.886 10.533 -4.149 
77 1 19.311 -0.146 17.397 
78 1 -2.225 16.018 14.351 
79 1 -14.722 -13.518 8.268 
80 1 -15.593 2.739 -10.144 
81 1 -7.182 -12.009 12.676 
82 1 -1.642 1.084 12.596 
83 1 6.264 -12.937 10.317 
84 1 -1.254 12.551 14.640 
85 1 0.881 11.763 -1.277 
86 1 -3.855 7.002 14.488 
87 1 -7.549 -6.047 2.703 
88 1 8.826 -18.101 -4.305 
89 1 7.021 18.855 5.451 
90 1 9.572 -6.980 -11.261 
91 1 7.293 6.318 -6.799 
92 1 13.028 7.643 18.325 
93 1 4.267 -0.429 1.921 
94 1 -14.562 12.324 -13.934 
95 1 -8.623 10.961 -15.768 
96 1 19.253 -14.658 -8.557 
97 1 -0.778 -11.493 12.399 
98 1 0.003 -0.419 -4.858 
99 1 -5.455 5.192 2.162 
100 1 19.143 13.627 -14.521 
101 1 7.347 6.976 2.639 
102 1 -6.798 -17.726 -16.018 
103 1 2.055 -14.472 10.820 
104 1 18.007 19.405 6.997 
105 1 9.457 -17.483 13.287 
106 1 -2.534 -13.523 -10.339 
107 1 16.065 13.268 5.252 
108 1 2.322 19.150 10.576 
109 1 0.871 -6.271 -18.508 
110 1 14.454 -0.611 7.648 
111 1 17.182 -17.720 -11.021 
112 1 17.788 -14.091 11.802 
113 1 -12.934 10.026 4.357 
114 1 -3.014 -9.517 14.853 
115 1 17.557 5.523 10.089 
116 1 -7.796 -16.404 7.637 
117 1 14.760 18.907 -9.849 
118 1 -9.405 5.154 -0.758 
119 1 -14.611 -2.717 10.620 
120 1 -1.804 3.391 0.919 
121 1 3.178 4.241 -7.316 
122 1 4.886 11.186 1.713 
123 1 17.923 -11.499 -5.974 
124 1 0.402 14.781 10.690 
125 1 -14.501 -11.528 14.914 
126 1 -5.642 -8.146 16.726 
127 1 -18.665 6.429 14.987 
128 1 12.035 3.220 -10.569 
129 1 -15.969 9.514 16.127 
130 1 -1.546 -2.998 14.366 
131 1 11.226 7.898 15.011 
132 1 -2.519 19.130 11.155 
133 1 -3.380 -15.134 17.805 
134 1 -7.913 -11.275 5.061 
135 1 -4.567 1.982 -1.158 
136 1 -17.636 5.622 7.893 
137 1 19.158 7.695 7.367 
138 1 -12.784 5.976 7.604 
139 1 -3.176 -1.719 1.562 
140 1 3.519 7.144 14.758 
141 1 -8.353 -10.850 -7.556 
142 1 -16.046 -1.697 -1.881 
143 1 -3.642 9.319 11.263 
144 1 6.283 6.300 -18.625 
145 1 2.690 17.646 14.674 
146 1 0.170 -13.127 15.406 
147 1 -15.362 12.353 0.506 
148 1 5.587 -19.532 -9.020 
149 1 -1.765 10.153 7.043 
150 1 -7.666 -16.973 -0.146 
151 1 9.652 -0.468 -6.005 
152 1 -18.260 -3.367 14.787 
153 1 -4.195 -14.263 -0.495 
154 1 -6.063 -19.114 -3.835 
155 1 5.982 -9.921 -8.237 
156 1 7.046 -13.919 14.042 
157 1 -13.254 13.451 -19.439 
158 1 -6.206 4.286 12.634 
159 1 13.700 -11.773 0.974 
160 1 14.179 -9.331 7.256 
161 1 -3.075 -6.072 -8.583 
162 1 11.405 -4.017 -10.260 
163 1 15.367 -1.275 -2.322 
164 1 2.959 -8.830 -16.306 
165 1 -1.428 5.021 -12.603 
166 1 4.332 -6.180 -18.746 
167 1 -13.569 3.849 10.805 
168 1 12.844 0.594 -15.085 
169 1 -7.378 -6.887 8.712 
170 1 16.824 -9.852 11.088 
171 1 9.060 -9.998 16.661 
172 1 10.601 1.715 -2.179 
173 1 1.993 5.466 -18.428 
174 1 5.034 -11.030 -4.198 
175 1 15.540 -11.981 -15.375 
176 1 1.637 19.105 -10.132 
177 1 4.390 -2.335 11.927 
178 1 -1.237 18.350 -13.930 
179 1 10.298 -8.168 -3.635 
180 1 -11.868 5.409 15.166 
181 1 -2.248 -6.445 16.006 
182 1 -10.823 7.692 9.277 
183 1 8.721 10.149 -19.283 
184 1 11.124 -4.880 -0.336 
185 1 -0.225 -0.993 -10.001 
186 1 -19.506 -17.285 -19.089 
187 1 2.245 1.775 -15.749 
188 1 -2.945 4.210 -16.863 
189 1 -0.113 -9.097 18.277 
190 1 11.765 18.474 -1.556 
191 1 17.407 -1.306 7.151 
192 1 19.127 10.831 6.007 
193 1 -10.694 -13.301 15.278 
194 1 -9.046 18.918 19.393 
195 1 3.245 5.259 8.584 
196 1 7.382 0.323 -8.942 
197 1 -6.517 6.546 6.929 
198 1 3.399 -2.344 -18.549 
199 1 -8.042 -12.677 -18.135 
200 1 7.356 16.183 -8.849 
ITEM: TIMESTEP
16000
ITEM: NUMBER OF ATOMS
200
ITEM: BOX BOUNDS pp pp pp
-19.592236299174868 19.592236299174868
-19.592236299174868 19.592236299174868
-19.592236299174868 19.592236299174868
ITEM: ATOMS id type x y z
1 1 9.419 -16.479 -16.103 
2 1 9.262 9.499 -1.484 
3 1 -5.873 15.244 12.328 
4 1 -9.491 -19.453 -14.028 
5 1 -9.195 -2.917 18.317 
6 1 10.888 -8.589 5.813 
7 1 -2.766 -4.496 -0.967 
8 1 0.540 1.698 3.564 
9 1 9.735 -7.079 11.673 
10 1 18.851 -16.232 -14.702 
11 1 2.738 -5.002 13.798 
12 1 -5.188 -7.425 -18.042 
13 1 13.949 6.600 -11.211 
14 1 10.586 -11.735 4.274 
15 1 3.892 5.032 -15.459 
16 1 -12.093 17.754 -11.138 
17 1 -5.101 11.630 8.448 
18 1 16.939 -4.674 1.504 
19 1 -18.299 2.637 10.647 
20 1 1.513 8.538 -13.364 
21 1 -19.150 5.181 -12.522 
22 1 -10.386 -18.667 13.143 
23 1 -7.522 0.887 -10.057 
24 1 17.192 -9.673 -8.685 
25 1 18.389 -8.429 -12.161 
26 1 -11.543 11.132 12.409 
27 1 -15.670 8.549 -0.654 
28 1 4.080 -16.284 -16.502 
29 1 -16.731 14.623 16.134 
30 1 -4.156 -14.436 14.478 
31 1 -2.860 -16.760 -10.171 
32 1 -5.157 -18.062 11.130 
33 1 -10.626 -8.243 7.452 
34 1 5.093 -18.240 14.625 
35 1 8.352 3.846 3.304 
36 1 -5.111 -2.368 -14.687 
37 1 -18.595 -3.083 3.338 
38 1 -10.094 4.100 16.238 
39 1 17.601 -4.028 10.386 
40 1 10.379 -10.174 -13.891 
41 1 6.835 -13.068 -19.251 
42 1 -1.078 11.602 5.345 
43 1 -7.411 0.931 -17.755 
44 1 9.899 6.362 6.203 
45 1 -14.045 9.607 10.326 
46 1 13.033 -0.114 -8.788 
47 1 10.575 -12.656 -12.228 
48 1 -18.573 17.788 4.822 
49 1 -19.247 -1.705 -11.806 
50 1 0.127 -17.887 -12.347 
51 1 -2.887 -8.254 1.548 
52 1 -14.953 -6.269 9.102 
53 1 3.563 -15.785 18.755 
54 1 11.772 -14.519 -0.509 
55 1 7.182 -1.183 -19.259 
56 1 -7.567 16.218 8.810 
57 1 -1.935 1.039 -15.847 
58 1 8.611 -4.963 -14.791 
59 1 13.181 -7.912 11.508 
60 1 -10.225 -4.144 9.094 
61 1 13.495 1.404 10.942 
62 1 14.040 0.761 0.864 
63 1 -5.140 -16.440 -18.180 
64 1 -1.488 -10.328 -17.022 
65 1 -16.913 3.833 5.431 
66 1 -7.661 4.783 -7.669 
67 1 2.216 -3.173 -9.785 
68 1 -12.959 -8.298 12.842 
69 1 4.819 -6.101 1.067 
70 1 -13.058 13.689 -4.814 
71 1 -9.932 19.109 -0.992 
72 1 18.278 8.777 -11.391 
73 1 -3.754 -10.965 18.620 
74 1 -8.912 18.169 -4.812 
75 1 16.125 4.345 -18.395 
76 1 17.905 10.194 -2.061 
77 1 18.628 -0.922 18.174 
78 1 -1.722 16.609 13.565 
79 1 -15.348 -13.322 8.163 
80 1 -15.879 1.342 -9.998 
81 1 -6.926 -12.162 11.666 
82 1 -0.578 1.616 11.786 
83 1 5.526 -13.043 9.696 
84 1 -1.639 12.002 13.899 
85 1 0.984 13.144 -2.236 
86 1 -5.393 5.802 15.571 
87 1 -8.963 -5.641 3.356 
88 1 8.695 -18.554 -3.732 
89 1 6.784 17.547 5.226 
90 1 8.961 -6.269 -11.086 
91 1 7.144 5.393 -6.805 
92 1 13.339 6.933 -19.049 
93 1 3.947 -0.975 -0.274 
94 1 -14.266 12.705 -13.654 
95 1 -9.738 11.649 -15.532 
96 1 -18.859 -14.084 -9.458 
97 1 -1.264 -12.617 12.258 
98 1 -0.831 0.093 -4.649 
99 1 -6.498 4.455 1.877 
100 1 19.277 11.743 -12.888 
101 1 6.452 7.475 1.964 
102 1 -6.952 -17.542 -14.708 
103 1 2.151 -13.433 11.610 
104 1 16.624 18.126 6.054 
105 1 10.144 -17.343 13.260 
106 1 -1.891 -12.401 -10.174 
107 1 16.544 14.817 3.974 
108 1 2.050 -19.236 10.185 
109 1 0.972 -6.441 -18.607 
110 1 14.449 -1.289 8.435 
111 1 17.881 -16.254 -10.482 
112 1 17.426 -13.241 11.899 
113 1 -13.589 11.245 4.793 
114 1 -3.209 -9.568 13.986 
115 1 17.695 4.080 10.730 
116 1 -8.294 -17.232 7.061 
117 1 13.887 19.160 -9.339 
118 1 -9.380 4.255 -1.130 
119 1 -14.379 -3.034 10.975 
120 1 -1.230 3.904 1.261 
121 1 4.067 4.069 -7.521 
122 1 5.288 11.627 0.808 
123 1 18.069 -12.421 -6.987 
124 1 -0.476 14.671 11.139 
125 1 -14.782 -10.975 14.287 
126 1 -5.549 -7.641 16.973 
127 1 -18.558 6.849 15.810 
128 1 11.458 2.807 -10.387 
129 1 -15.473 8.324 17.852 
130 1 -1.125 -1.942 14.415 
131 1 10.753 7.394 15.714 
132 1 -1.972 18.365 9.967 
133 1 -2.787 -14.883 18.158 
134 1 -6.769 -12.520 6.010 
135 1 -4.774 2.297 -1.285 
136 1 -16.768 5.417 9.226 
137 1 17.852 7.722 6.503 
138 1 -13.621 6.773 7.176 
139 1 -3.054 -1.891 2.513 
140 1 2.317 6.009 15.850 
141 1 -9.185 -10.527 -7.004 
142 1 -15.601 -1.351 -2.150 
143 1 -3.676 8.831 10.642 
144 1 6.212 7.302 -18.627 
145 1 3.033 17.083 14.934 
146 1 0.633 -13.582 15.494 
147 1 -14.974 11.424 1.268 
148 1 5.377 -19.178 -8.570 
149 1 -2.030 8.355 7.178 
150 1 -7.886 -17.192 -0.650 
151 1 9.663 -0.188 -6.094 
152 1 -18.927 -4.378 14.308 
153 1 -4.289 -13.670 0.667 
154 1 -6.218 -18.310 -4.035 
155 1 4.733 -9.908 -8.693 
156 1 5.884 -14.886 15.601 
157 1 -13.683 13.460 -18.875 
158 1 -7.498 5.112 12.328 
159 1 14.807 -11.023 1.488 
160 1 16.727 -10.254 6.367 
161 1 -3.083 -5.567 -9.848 
162 1 11.520 -2.990 -10.739 
163 1 15.095 -0.997 -2.643 
164 1 2.733 -8.275 -16.131 
165 1 -0.652 4.423 -13.597 
166 1 4.288 -6.106 -19.041 
167 1 -13.026 3.251 10.289 
168 1 11.892 0.586 -14.064 
169 1 -7.647 -6.944 9.656 
170 1 17.183 -9.806 10.809 
171 1 9.000 -10.180 17.059 
172 1 9.339 1.009 -1.632 
173 1 0.618 5.563 -18.877 
174 1 5.457 -10.563 -5.278 
175 1 15.653 -11.943 -16.180 
176 1 2.384 19.311 -9.913 
177 1 4.510 -1.993 10.766 
178 1 -1.421 18.731 -13.776 
179 1 10.722 -7.205 -3.789 
180 1 -12.714 6.356 15.386 
181 1 -1.979 -6.692 15.605 
182 1 -11.211 7.780 9.718 
183 1 8.161 9.959 -18.943 
184 1 10.212 -6.269 -0.269 
185 1 -0.972 -1.901 -11.201 
186 1 18.971 -16.846 -19.081 
187 1 1.922 0.773 -15.510 
188 1 -2.614 4.904 -16.757 
189 1 0.112 -9.228 17.417 
190 1 13.287 19.176 -1.740 
191 1 18.797 -1.687 6.755 
192 1 19.522 10.680 6.028 
193 1 -11.961 -12.639 15.426 
194 1 -8.216 17.410 19.371 
195 1 4.029 4.446 7.889 
196 1 7.023 0.246 -9.228 
197 1 -5.970 6.960 6.575 
198 1 3.000 -2.854 -17.370 
199 1 -8.780 -12.422 -17.569 
200 1 7.156 16.063 -8.719 
ITEM: TIMESTEP
17000
ITEM: NUMBER OF ATOMS
200
ITEM: BOX BOUNDS pp pp pp
-19.592236299174868 19.592236299174868
-19.592236299174868 19.592236299174868
-19.592236299174868 19.592236299174868
ITEM: ATOMS id type x y z
1 1 9.616 -15.357 -16.674 
2 1 8.101 10.344 -1.374 
3 1 -6.831 14.164 11.912 
4 1 -9.001 19.093 -14.016 
5 1 -10.798 -3.647 18.260 
6 1 11.853 -9.231 7.266 
7 1 -3.782 -4.586 -0.104 
8 1 0.435 2.888 4.443 
9 1 10.490 -6.228 11.900 
10 1 19.442 -14.853 -15.038 
11 1 3.282 -6.384 14.040 
12 1 -5.148 -7.325 -18.070 
13 1 14.686 6.703 -9.923 
14 1 10.003 -11.380 3.604 
15 1 3.858 3.830 -15.704 
16 1 -12.004 17.956 -11.031 
17 1 -4.904 12.246 8.954 
18 1 17.818 -4.629 1.659 
19 1 -18.267 2.730 11.116 
20 1 2.253 9.017 -13.255 
21 1 -18.593 5.673 -13.157 
22 1 -10.853 -17.318 12.947 
23 1 -7.258 0.811 -9.691 
24 1 17.428 -9.042 -9.470 
25 1 18.302 -7.814 -12.151 
26 1 -11.567 11.661 11.691 
27 1 -15.675 8.983 -1.636 
28 1 4.135 -16.181 -15.420 
29 1 -17.305 13.392 16.660 
30 1 -2.970 -14.893 14.733 
31 1 -2.768 -15.576 -9.600 
32 1 -4.637 -18.347 12.532 
33 1 -12.592 -8.518 6.895 
34 1 3.806 -19.020 14.258 
35 1 7.918 4.543 3.590 
36 1 -4.997 -2.118 -14.848 
37 1 -17.498 -1.509 3.176 
38 1 -9.577 4.104 16.092 
39 1 18.278 -4.392 10.421 
40 1 11.020 -10.132 -14.569 
41 1 7.187 -12.445 -19.020 
42 1 0.033 11.723 4.068 
43 1 -6.535 0.465 -17.675 
44 1 10.456 4.798 6.541 
45 1 -14.604 10.030 10.777 
46 1 13.077 0.155 -9.305 
47 1 10.641 -12.759 -12.134 
48 1 -19.349 17.779 4.343 
49 1 19.035 -2.276 -11.724 
50 1 -1.093 -17.187 -12.158 
51 1 -4.162 -7.792 1.231 
52 1 -14.455 -5.935 9.442 
53 1 3.436 -15.598 17.080 
54 1 13.128 -13.846 -1.666 
55 1 6.201 -0.951 -19.586 
56 1 -7.476 18.200 10.019 
57 1 -2.588 1.069 -15.687 
58 1 8.893 -5.908 -14.966 
59 1 13.395 -8.233 11.955 
60 1 -10.144 -3.840 9.283 
61 1 12.952 1.569 11.910 
62 1 13.392 0.708 0.685 
63 1 -4.145 -17.836 -18.685 
64 1 -3.250 -10.772 -17.127 
65 1 -16.758 3.388 4.807 
66 1 -8.891 4.218 -7.967 
67 1 2.528 -3.271 -10.984 
68 1 -15.621 -7.587 12.431 
69 1 4.690 -6.966 0.910 
70 1 -12.802 13.747 -4.137 
71 1 -10.143 19.506 -0.488 
72 1 17.695 8.080 -11.736 
73 1 -4.683 -11.142 19.064 
74 1 -10.599 17.107 -4.872 
75 1 16.270 3.976 -18.092 
76 1 18.096 9.796 -1.653 
77 1 17.762 -1.561 -18.552 
78 1 -0.342 16.292 14.261 
79 1 -14.837 -13.040 8.817 
80 1 -15.101 1.003 -9.350 
81 1 -7.227 -10.992 11.896 
82 1 -0.446 1.751 11.557 
83 1 5.160 -12.937 9.197 
84 1 -1.007 12.298 14.607 
85 1 -0.490 13.701 -2.764 
86 1 -6.163 6.172 14.774 
87 1 -9.634 -4.562 3.281 
88 1 8.159 -18.834 -3.383 
89 1 7.689 16.467 3.533 
90 1 10.530 -7.361 -10.809 
91 1 7.133 5.016 -6.525 
92 1 12.990 8.153 -17.720 
93 1 3.598 -1.119 0.192 
94 1 -13.943 13.099 -14.802 
95 1 -9.659 11.885 -15.810 
96 1 -18.728 -14.089 -8.241 
97 1 -0.999 -12.628 11.187 
98 1 0.360 0.374 -5.182 
99 1 -6.195 5.802 1.154 
100 1 19.061 12.435 -11.022 
101 1 6.986 7.821 1.661 
102 1 -6.602 -16.999 -15.567 
103 1 3.179 -14.043 13.112 
104 1 16.267 18.214 6.287 
105 1 9.749 -17.493 14.111 
106 1 -1.601 -12.376 -9.967 
107 1 15.497 14.891 3.664 
108 1 1.275 -18.540 9.955 
109 1 0.587 -7.195 -18.254 
110 1 15.150 -0.881 8.081 
111 1 17.748 -16.574 -10.732 
112 1 18.512 -12.627 12.372 
113 1 -13.123 11.466 3.638 
114 1 -3.219 -9.398 13.433 
115 1 17.535 4.104 10.376 
116 1 -9.244 -16.447 5.781 
117 1 14.577 18.648 -9.582 
118 1 -9.259 3.878 -1.939 
119 1 -13.840 -2.002 11.261 
120 1 -1.017 5.425 -0.293 
121 1 3.809 3.433 -7.298 
122 1 4.728 12.222 0.184 
123 1 17.359 -12.369 -6.959 
124 1 -1.020 13.774 10.644 
125 1 -14.926 -11.041 13.896 
126 1 -6.143 -7.345 16.683 
127 1 -18.528 6.829 14.047 
128 1 11.822 2.963 -10.863 
129 1 -16.664 7.839 17.879 
130 1 -1.830 -1.377 13.789 
131 1 10.820 7.518 15.294 
132 1 -1.469 19.240 11.761 
133 1 -2.420 -16.640 17.825 
134 1 -6.254 -12.531 7.026 
135 1 -3.982 3.546 -3.064 
136 1 -17.129 6.494 9.545 
137 1 16.503 7.942 6.478 
138 1 -13.605 6.179 6.248 
139 1 -3.322 -1.044 1.458 
140 1 1.697 5.517 16.492 
141 1 -9.999 -10.205 -7.493 
142 1 -16.169 -0.347 -2.381 
143 1 -4.090 8.477 10.744 
144 1 5.849 7.727 -18.192 
145 1 3.269 16.081 14.066 
146 1 0.849 -13.819 15.600 
147 1 -15.622 11.936 0.863 
148 1 6.313 -19.336 -7.514 
149 1 -2.697 9.058 7.313 
150 1 -7.380 -17.159 -0.433 
151 1 10.088 0.506 -6.097 
152 1 -19.280 -4.565 15.301 
153 1 -3.281 -13.593 1.112 
154 1 -6.585 -19.100 -3.624 
155 1 5.115 -11.215 -8.543 
156 1 5.823 -13.725 15.633 
157 1 -14.054 11.524 -18.044 
158 1 -8.046 3.844 11.236 
159 1 16.170 -10.568 1.267 
160 1 16.778 -9.943 6.028 
161 1 -3.570 -6.533 -9.374 
162 1 11.687 -2.819 -9.957 
163 1 15.209 0.361 -2.860 
164 1 2.665 -8.473 -15.944 
165 1 -0.601 4.131 -14.101 
166 1 4.408 -6.419 19.571 
167 1 -12.178 3.572 10.137 
168 1 11.058 0.186 -13.513 
169 1 -7.866 -7.270 9.631 
170 1 16.728 -10.008 10.055 
171 1 8.762 -11.927 17.051 
172 1 9.054 1.104 -1.324 
173 1 1.796 5.541 -19.141 
174 1 5.473 -10.809 -4.249 
175 1 15.068 -11.551 -15.336 
176 1 3.042 -19.204 -10.381 
177 1 5.775 -1.954 12.065 
178 1 -1.351 18.753 -14.093 
179 1 11.857 -8.296 -4.080 
180 1 -12.817 6.869 16.186 
181 1 -1.983 -6.575 15.868 
182 1 -10.694 6.648 8.685 
183 1 8.964 9.497 -18.934 
184 1 10.410 -5.609 -0.224 
185 1 -1.564 -2.639 -11.242 
186 1 19.237 -17.510 -18.234 
187 1 0.736 0.593 -16.114 
188 1 -3.261 5.791 -16.049 
189 1 -0.020 -9.515 18.127 
190 1 14.094 19.004 -1.597 
191 1 19.087 -2.328 7.822 
192 1 -19.108 9.270 6.328 
193 1 -12.200 -12.951 15.947 
194 1 -8.631 18.370 18.560 
195 1 3.342 4.267 7.802 
196 1 4.752 0.051 -8.717 
197 1 -4.412 6.239 4.981 
198 1 3.433 -3.306 -17.055 
199 1 -8.768 -12.548 -17.588 
200 1 7.199 16.398 -8.105 
ITEM: TIMESTEP
18000
ITEM: NUMBER OF ATOMS
200
ITEM: BOX BOUNDS pp pp pp
-19.592236299174868 19.592236299174868
-19.592236299174868 19.592236299174868
-19.592236299174868 19.592236299174868
ITEM: ATOMS id type x y z
1 1 10.872 -15.648 -16.184 
2 1 7.802 11.898 -1.453 
3 1 -6.379 14.493 12.761 
4 1 -9.155 19.083 -12.196 
5 1 -10.567 -4.476 18.752 
6 1 12.370 -9.077 7.384 
7 1 -4.103 -4.272 0.794 
8 1 0.299 1.843 3.837 
9 1 10.738 -6.462 11.863 
10 1 -19.502 -15.449 -15.793 
11 1 3.414 -4.675 12.872 
12 1 -6.076 -8.531 -18.719 
13 1 15.023 6.172 -9.478 
14 1 9.201 -11.526 3.550 
15 1 3.981 3.471 -15.423 
16 1 -11.094 18.476 -9.249 
17 1 -5.347 13.004 8.432 
18 1 16.810 -4.522 1.569 
19 1 -18.113 2.189 11.109 
20 1 2.002 10.997 -13.580 
21 1 -19.221 5.947 -11.104 
22 1 -10.204 -17.194 12.633 
23 1 -6.745 2.047 -9.664 
24 1 17.131 -8.914 -9.651 
25 1 16.835 -8.023 -13.286 
26 1 -11.890 12.542 12.138 
27 1 -16.101 9.383 -0.878 
28 1 5.258 -15.508 -13.997 
29 1 -18.117 13.222 17.332 
30 1 -2.985 -15.371 15.049 
31 1 -2.045 -15.432 -8.892 
32 1 -5.499 -18.408 13.470 
33 1 -12.366 -9.216 8.607 
34 1 1.970 -17.855 13.025 
35 1 6.944 3.443 3.703 
36 1 -4.540 -2.882 -16.527 
37 1 -17.544 -1.540 3.682 
38 1 -8.624 4.546 16.317 
39 1 18.241 -5.891 11.592 
40 1 11.224 -10.187 -14.601 
41 1 7.718 -12.108 19.445 
42 1 0.679 10.366 3.761 
43 1 -5.849 0.650 -17.003 
44 1 10.674 4.939 8.423 
45 1 -14.586 9.190 11.133 
46 1 13.182 0.442 -9.606 
47 1 10.709 -13.811 -11.964 
48 1 -19.552 18.823 4.500 
49 1 19.034 -2.448 -12.648 
50 1 -0.027 -17.183 -11.292 
51 1 -5.166 -7.857 1.117 
52 1 -13.916 -5.444 9.262 
53 1 2.830 -14.747 17.604 
54 1 13.893 -14.035 -1.470 
55 1 5.876 -1.046 19.516 
56 1 -6.862 17.913 8.483 
57 1 -2.890 0.593 -15.438 
58 1 8.060 -6.465 -15.705 
59 1 13.062 -8.558 11.516 
60 1 -9.953 -3.833 9.428 
61 1 12.441 1.060 13.382 
62 1 13.531 1.095 0.110 
63 1 -4.732 -17.846 -18.055 
64 1 -2.476 -10.380 -15.135 
65 1 -16.062 2.176 3.613 
66 1 -9.089 4.708 -7.736 
67 1 2.486 -2.267 -11.747 
68 1 -16.391 -8.681 11.862 
69 1 3.910 -5.011 1.174 
70 1 -12.949 14.471 -4.897 
71 1 -9.977 18.516 -1.100 
72 1 17.630 8.859 -10.955 
73 1 -4.047 -11.396 18.979 
74 1 -10.038 18.042 -5.314 
75 1 15.595 3.347 -17.979 
76 1 18.438 9.731 -1.231 
77 1 17.421 -1.522 -17.968 
78 1 0.094 16.646 13.941 
79 1 -15.829 -12.022 9.394 
80 1 -14.288 1.279 -9.556 
81 1 -6.845 -10.396 12.071 
82 1 -0.496 1.669 10.748 
83 1 5.327 -12.325 9.350 
84 1 0.257 13.189 14.812 
85 1 -1.654 14.576 -2.818 
86 1 -5.762 6.548 14.362 
87 1 -10.638 -4.594 2.065 
88 1 8.594 -18.199 -1.955 
89 1 8.769 16.184 4.393 
90 1 10.706 -6.924 -10.015 
91 1 7.403 5.491 -6.479 
92 1 12.497 7.537 -18.322 
93 1 4.117 -1.057 0.713 
94 1 -13.494 13.181 -15.367 
95 1 -9.394 11.052 -15.829 
96 1 -18.995 -14.488 -7.151 
97 1 -0.892 -12.244 10.956 
98 1 0.556 -0.501 -4.255 
99 1 -6.596 6.016 0.207 
100 1 18.683 13.113 -9.318 
101 1 7.250 7.375 2.203 
102 1 -6.583 -16.276 -15.268 
103 1 3.545 -13.495 13.286 
104 1 16.108 17.279 5.191 
105 1 10.021 -17.110 13.725 
106 1 -0.728 -12.553 -9.769 
107 1 14.841 14.701 3.445 
108 1 0.046 -18.446 9.624 
109 1 -1.137 -7.764 -18.525 
110 1 16.007 -2.189 8.518 
111 1 17.150 -16.876 -9.857 
112 1 17.689 -12.660 12.210 
113 1 -12.807 10.868 4.377 
114 1 -3.392 -9.779 11.798 
115 1 18.103 3.602 11.584 
116 1 -9.091 -16.246 7.186 
117 1 12.997 18.633 -9.761 
118 1 -9.178 3.862 -1.477 
119 1 -12.891 -2.928 11.291 
120 1 -0.884 5.721 0.680 
121 1 3.350 3.735 -7.347 
122 1 4.675 11.936 0.622 
123 1 17.497 -11.675 -6.455 
124 1 -1.560 13.529 11.077 
125 1 -14.377 -10.679 13.841 
126 1 -6.219 -5.870 17.491 
127 1 -18.751 5.955 13.980 
128 1 13.229 3.409 -11.268 
129 1 -16.680 6.296 17.480 
130 1 -2.204 0.322 14.539 
131 1 10.550 6.134 15.653 
132 1 -1.123 -19.545 12.364 
133 1 -2.705 -17.177 18.088 
134 1 -6.457 -12.629 8.166 
135 1 -3.721 5.111 -4.169 
136 1 -17.182 6.375 10.380 
137 1 17.069 8.167 6.373 
138 1 -13.098 6.540 6.040 
139 1 -3.191 -1.062 2.667 
140 1 1.468 5.192 17.149 
141 1 -8.862 -9.800 -8.319 
142 1 -16.289 -0.015 -3.278 
143 1 -4.058 9.373 11.703 
144 1 7.137 7.384 -18.254 
145 1 3.391 16.825 15.381 
146 1 0.029 -13.962 16.076 
147 1 -15.954 11.379 1.594 
148 1 5.949 19.328 -7.482 
149 1 -2.022 8.848 7.680 
150 1 -7.897 -17.743 -0.734 
151 1 10.166 0.828 -6.670 
152 1 18.950 -5.503 15.060 
153 1 -4.044 -13.191 0.543 
154 1 -5.869 19.277 -3.706 
155 1 5.385 -11.267 -8.753 
156 1 5.773 -14.374 15.948 
157 1 -14.255 11.504 -18.889 
158 1 -9.028 3.672 12.167 
159 1 14.650 -9.980 1.201 
160 1 16.491 -9.716 5.903 
161 1 -4.074 -6.615 -9.274 
162 1 12.078 -2.933 -10.635 
163 1 15.166 -1.331 -2.358 
164 1 3.391 -7.535 -16.623 
165 1 0.405 3.582 -14.114 
166 1 3.614 -5.115 19.560 
167 1 -12.546 3.820 9.404 
168 1 11.518 0.396 -14.070 
169 1 -7.416 -6.911 8.775 
170 1 17.814 -9.622 9.953 
171 1 8.773 -11.567 15.524 
172 1 7.909 2.360 -3.263 
173 1 1.956 6.341 -17.862 
174 1 6.359 -10.208 -4.832 
175 1 13.517 -13.619 -14.698 
176 1 3.825 19.367 -11.465 
177 1 6.626 -2.212 10.616 
178 1 0.301 19.588 -14.831 
179 1 10.197 -9.020 -4.199 
180 1 -11.768 7.080 17.587 
181 1 -0.773 -6.766 15.824 
182 1 -9.876 7.182 9.506 
183 1 9.618 9.411 -19.098 
184 1 10.592 -6.646 0.073 
185 1 -2.952 -2.849 -10.516 
186 1 19.074 -17.005 19.008 
187 1 1.059 1.365 -17.025 
188 1 -2.805 7.567 -15.763 
189 1 0.629 -9.268 18.119 
190 1 14.396 18.691 -0.802 
191 1 -19.079 -2.603 7.951 
192 1 -19.073 9.759 6.019 
193 1 -12.145 -12.655 15.453 
194 1 -8.174 19.435 18.493 
195 1 3.992 3.269 7.735 
196 1 5.180 -0.435 -8.042 
197 1 -4.080 6.067 4.562 
198 1 3.759 -2.641 -16.651 
199 1 -8.086 -12.564 -17.888 
200 1 9.010 15.715 -7.709 
ITEM: TIMESTEP
19000
ITEM: NUMBER OF ATOMS
200
ITEM: BOX BOUNDS pp pp pp
-19.592236299174868 19.592236299174868
-19.592236299174868 19.592236299174868
-19.592236299174868 19.592236299174868
ITEM: ATOMS id type x y z
1 1 10.594 -16.131 -16.225 
2 1 7.996 12.302 -1.855 
3 1 -4.675 14.726 13.630 
4 1 -10.939 18.592 -11.768 
5 1 -9.515 -4.220 17.268 
6 1 13.466 -8.916 7.172 
7 1 -3.352 -3.262 0.250 
8 1 0.917 2.372 3.091 
9 1 10.055 -6.345 12.117 
10 1 19.580 -16.259 -16.382 
11 1 3.127 -3.501 12.963 
12 1 -5.914 -8.659 -18.860 
13 1 13.552 6.626 -10.213 
14 1 9.362 -11.107 3.873 
15 1 3.915 3.600 -14.193 
16 1 -11.426 18.297 -8.066 
17 1 -5.285 13.345 8.281 
18 1 18.196 -5.502 0.257 
19 1 -17.692 1.934 10.055 
20 1 1.141 11.805 -13.392 
21 1 -18.491 5.497 -10.646 
22 1 -10.189 -17.339 12.030 
23 1 -6.813 2.486 -8.847 
24 1 16.235 -9.087 -9.426 
25 1 17.977 -9.031 -13.075 
26 1 -11.732 12.042 11.724 
27 1 -16.331 9.542 -1.128 
28 1 4.088 -15.610 -12.841 
29 1 -18.171 13.251 16.983 
30 1 -4.879 -14.438 15.719 
31 1 -1.781 -16.325 -8.112 
32 1 -5.287 -19.264 13.467 
33 1 -11.169 -8.544 7.929 
34 1 2.106 -17.138 13.251 
35 1 7.469 3.214 2.402 
36 1 -3.947 -3.332 -16.869 
37 1 -17.161 -1.611 3.989 
38 1 -8.799 3.490 15.910 
39 1 16.846 -6.450 10.060 
40 1 10.647 -12.236 -14.968 
41 1 8.922 -13.370 18.959 
42 1 1.763 9.796 3.047 
43 1 -5.974 0.414 -15.813 
44 1 11.360 4.175 9.007 
45 1 -13.553 9.027 10.846 
46 1 14.305 -0.799 -9.095 
47 1 10.073 -15.667 -10.980 
48 1 -17.714 17.760 4.176 
49 1 18.346 -2.124 -12.145 
50 1 0.634 -17.324 -10.584 
51 1 -4.139 -6.238 1.625 
52 1 -14.495 -5.836 8.939 
53 1 3.228 -13.549 18.921 
54 1 13.206 -13.451 -1.850 
55 1 6.393 -2.198 19.496 
56 1 -6.265 16.501 8.304 
57 1 -1.723 -1.157 -15.531 
58 1 9.437 -5.319 -15.289 
59 1 14.180 -8.503 10.809 
60 1 -10.146 -2.718 10.066 
61 1 12.777 0.801 13.722 
62 1 13.982 2.346 -0.672 
63 1 -4.881 -18.112 -18.043 
64 1 -1.129 -11.266 -14.826 
65 1 -15.769 1.995 2.785 
66 1 -9.049 5.750 -8.806 
67 1 4.136 -2.864 -12.990 
68 1 -16.878 -8.142 11.773 
69 1 3.865 -5.728 0.998 
70 1 -12.909 14.179 -4.933 
71 1 -9.592 18.736 -1.523 
72 1 18.556 8.107 -9.565 
73 1 -3.602 -11.080 18.990 
74 1 -9.086 19.472 -5.012 
75 1 15.578 2.932 -17.281 
76 1 18.792 9.596 -1.353 
77 1 16.743 -1.942 -17.490 
78 1 0.232 17.110 14.197 
79 1 -15.148 -11.621 8.781 
80 1 -13.803 1.220 -9.799 
81 1 -6.870 -10.605 12.441 
82 1 -0.350 1.479 9.157 
83 1 5.602 -12.955 8.144 
84 1 0.208 13.587 15.866 
85 1 -2.075 15.431 -2.951 
86 1 -5.472 6.440 14.094 
87 1 -11.223 -4.890 1.608 
88 1 8.358 -17.823 -2.190 
89 1 8.183 14.435 6.245 
90 1 10.993 -6.584 -9.632 
91 1 6.825 6.081 -6.936 
92 1 12.316 8.468 -18.350 
93 1 3.864 -1.931 -0.088 
94 1 -12.280 13.283 -14.556 
95 1 -9.869 11.193 -16.413 
96 1 -17.700 -13.335 -6.589 
97 1 -1.259 -13.566 9.537 
98 1 0.227 -2.052 -3.505 
99 1 -6.216 5.239 -0.134 
100 1 18.383 12.432 -8.021 
101 1 7.407 6.564 2.706 
102 1 -6.220 -16.623 -15.138 
103 1 1.450 -14.028 13.464 
104 1 16.305 17.689 4.846 
105 1 9.662 -16.485 12.725 
106 1 0.053 -13.257 -9.690 
107 1 13.672 14.718 3.441 
108 1 -0.503 -17.717 8.960 
109 1 0.025 -5.661 -18.255 
110 1 16.017 -3.317 8.443 
111 1 17.162 -17.277 -9.309 
112 1 17.836 -12.533 11.972 
113 1 -13.801 10.717 4.306 
114 1 -3.017 -9.425 12.184 
115 1 17.114 3.580 10.551 
116 1 -9.884 -16.093 6.875 
117 1 12.665 16.916 -9.388 
118 1 -9.766 3.879 -2.058 
119 1 -13.107 -3.667 11.193 
120 1 0.779 4.667 0.408 
121 1 4.021 3.839 -7.944 
122 1 3.396 11.803 0.482 
123 1 17.340 -12.184 -6.348 
124 1 -0.421 14.657 12.034 
125 1 -14.092 -11.227 13.489 
126 1 -6.231 -6.145 17.915 
127 1 -18.986 6.675 13.953 
128 1 12.017 2.756 -11.492 
129 1 -16.496 6.408 18.060 
130 1 -2.646 0.408 15.173 
131 1 9.695 6.300 17.104 
132 1 -1.846 -19.248 12.469 
133 1 -3.083 -16.136 18.448 
134 1 -6.692 -11.986 9.393 
135 1 -3.685 4.120 -2.203 
136 1 -16.368 6.018 9.635 
137 1 16.310 7.920 5.616 
138 1 -14.333 5.263 6.711 
139 1 -3.912 -1.325 3.757 
140 1 1.346 4.804 16.444 
141 1 -8.966 -9.255 -8.183 
142 1 -16.235 -0.433 -3.085 
143 1 -4.097 9.360 12.041 
144 1 5.832 7.948 -18.297 
145 1 3.670 18.551 13.121 
146 1 0.514 -13.077 16.882 
147 1 -15.557 11.870 1.612 
148 1 6.937 -19.454 -8.336 
149 1 -3.300 9.176 7.095 
150 1 -7.866 -16.185 -0.408 
151 1 8.929 0.091 -7.314 
152 1 18.794 -4.958 15.561 
153 1 -4.402 -11.622 -0.929 
154 1 -5.809 19.050 -3.836 
155 1 4.879 -12.685 -6.505 
156 1 6.267 -13.372 15.354 
157 1 -14.369 12.438 -18.984 
158 1 -9.877 3.630 12.703 
159 1 15.649 -11.099 0.033 
160 1 16.812 -9.597 5.250 
161 1 -3.670 -6.431 -9.171 
162 1 12.897 -3.743 -10.415 
163 1 16.451 -1.910 -2.909 
164 1 3.312 -7.657 -16.544 
165 1 0.169 4.080 -13.754 
166 1 3.794 -5.312 19.251 
167 1 -13.790 3.905 10.106 
168 1 12.512 1.869 -14.653 
169 1 -7.099 -7.428 8.820 
170 1 18.203 -9.966 9.625 
171 1 10.017 -11.809 14.119 
172 1 7.173 3.211 -3.196 
173 1 1.882 5.102 -18.544 
174 1 6.020 -10.715 -3.759 
175 1 14.146 -14.745 -14.365 
176 1 3.301 -19.382 -11.971 
177 1 6.950 -1.423 9.662 
178 1 0.038 -19.580 -15.924 
179 1 9.713 -8.990 -4.334 
180 1 -10.392 7.675 16.706 
181 1 -0.198 -7.680 14.535 
182 1 -9.561 6.707 7.930 
183 1 9.105 9.330 -18.502 
184 1 9.041 -7.512 0.439 
185 1 -1.873 -3.405 -10.744 
186 1 -18.913 -16.065 18.914 
187 1 1.346 1.524 -17.369 
188 1 -2.389 8.294 -15.059 
189 1 0.986 -8.248 17.948 
190 1 14.129 18.171 -0.547 
191 1 19.442 -1.599 8.369 
192 1 -18.321 9.796 6.239 
193 1 -11.412 -13.091 15.121 
194 1 -8.469 19.443 19.474 
195 1 5.215 2.991 7.805 
196 1 5.141 0.481 -7.465 
197 1 -4.941 5.588 5.087 
198 1 3.263 -1.748 -16.453 
199 1 -8.345 -12.549 -18.309 
200 1 7.791 14.972 -8.401 
ITEM: TIMESTEP
20000
ITEM: NUMBER OF ATOMS
200
ITEM: BOX BOUNDS pp pp pp
-19.592236299174868 19.592236299174868
-19.592236299174868 19.592236299174868
-19.592236299174868 19.592236299174868
ITEM: ATOMS id type x y z
1 1 10.492 -15.921 -16.390 
2 1 8.763 10.872 -1.942 
3 1 -4.038 14.948 13.879 
4 1 -10.491 18.034 -11.188 
5 1 -9.297 -4.173 18.172 
6 1 13.636 -8.598 8.024 
7 1 -3.103 -1.921 -0.617 
8 1 1.302 2.400 3.775 
9 1 8.639 -7.025 13.182 
10 1 -19.158 -17.256 -17.495 
11 1 3.224 -3.401 12.847 
12 1 -7.522 -6.784 -18.812 
13 1 14.153 6.145 -11.276 
14 1 8.118 -10.998 4.834 
15 1 4.642 4.210 -14.950 
16 1 -11.128 17.445 -7.474 
17 1 -5.296 13.806 8.628 
18 1 17.079 -4.762 0.101 
19 1 -17.821 1.955 10.150 
20 1 2.025 12.804 -12.745 
21 1 -17.676 7.158 -10.237 
22 1 -10.196 -18.268 10.986 
23 1 -7.174 4.173 -9.713 
24 1 16.400 -8.618 -8.727 
25 1 18.062 -9.524 -13.389 
26 1 -12.117 11.989 12.509 
27 1 -16.170 9.455 -1.850 
28 1 4.851 -16.072 -12.334 
29 1 -17.681 13.090 17.249 
30 1 -5.116 -15.048 15.445 
31 1 -2.215 -16.354 -8.133 
32 1 -5.034 -18.433 14.953 
33 1 -11.610 -8.834 8.328 
34 1 3.681 -17.045 13.962 
35 1 7.891 1.806 2.314 
36 1 -3.957 -1.861 -17.180 
37 1 -17.298 -1.786 4.381 
38 1 -8.607 3.638 16.290 
39 1 16.708 -7.263 10.704 
40 1 11.481 -12.620 -14.435 
41 1 10.383 -14.168 19.469 
42 1 2.051 9.539 2.647 
43 1 -5.938 0.625 -15.755 
44 1 12.241 4.819 9.589 
45 1 -13.015 9.096 9.309 
46 1 13.146 -0.526 -8.934 
47 1 10.006 -15.176 -11.411 
48 1 -17.553 18.195 4.885 
49 1 18.535 -2.441 -11.856 
50 1 0.082 -18.360 -9.776 
51 1 -3.707 -6.105 2.382 
52 1 -13.549 -6.257 8.944 
53 1 4.044 -14.001 18.140 
54 1 12.005 -14.376 -1.506 
55 1 6.421 -2.149 18.858 
56 1 -6.549 17.116 8.883 
57 1 -1.874 -0.980 -14.861 
58 1 8.780 -4.844 -14.584 
59 1 14.377 -9.782 11.088 
60 1 -9.767 -3.057 9.663 
61 1 12.521 0.200 13.378 
62 1 13.286 2.621 -0.852 
63 1 -4.944 -17.997 19.483 
64 1 -0.643 -11.329 -14.685 
65 1 -15.308 2.241 1.949 
66 1 -8.199 6.973 -8.123 
67 1 3.934 -2.643 -14.110 
68 1 -17.420 -7.794 11.454 
69 1 3.440 -5.381 1.643 
70 1 -13.373 13.797 -4.848 
71 1 -9.779 17.828 -0.799 
72 1 17.532 8.313 -8.834 
73 1 -2.524 -10.981 18.855 
74 1 -8.834 19.011 -4.344 
75 1 16.019 2.356 -18.606 
76 1 19.094 9.685 -1.775 
77 1 16.563 -0.843 -16.623 
78 1 0.470 16.906 13.955 
79 1 -15.264 -10.495 9.653 
80 1 -14.395 2.072 -10.569 
81 1 -6.001 -11.027 13.555 
82 1 -1.445 1.587 9.804 
83 1 6.504 -12.726 8.363 
84 1 -0.094 13.112 15.517 
85 1 -1.345 16.431 -3.059 
86 1 -4.661 7.593 14.746 
87 1 -11.009 -5.028 2.310 
88 1 9.221 -18.772 -2.354 
89 1 5.940 13.685 6.057 
90 1 11.077 -6.957 -8.653 
91 1 6.840 5.693 -7.815 
92 1 13.239 8.503 -18.489 
93 1 4.383 -2.196 -0.303 
94 1 -12.810 12.934 -14.426 
95 1 -9.912 11.215 -16.361 
96 1 -18.278 -12.367 -6.782 
97 1 -1.462 -13.955 8.641 
98 1 -0.517 -1.951 -4.550 
99 1 -6.010 5.518 -1.334 
100 1 19.416 11.309 -7.416 
101 1 6.503 5.993 2.222 
102 1 -5.639 -17.032 -14.087 
103 1 0.288 -13.304 13.006 
104 1 16.934 17.856 5.344 
105 1 10.020 -15.413 12.268 
106 1 0.299 -13.460 -11.315 
107 1 15.043 15.215 3.144 
108 1 -1.783 -17.489 8.365 
109 1 -1.161 -5.913 -18.794 
110 1 17.112 -4.820 6.698 
111 1 17.668 -18.125 -9.575 
112 1 17.833 -12.807 12.368 
113 1 -14.472 10.834 4.209 
114 1 -2.940 -9.253 11.270 
115 1 17.538 2.565 10.299 
116 1 -10.903 -15.415 7.023 
117 1 13.095 16.290 -8.808 
118 1 -10.646 2.618 -1.997 
119 1 -14.503 -2.803 10.982 
120 1 -0.217 4.099 0.617 
121 1 3.898 3.012 -8.955 
122 1 4.605 11.456 0.842 
123 1 16.306 -12.222 -7.153 
124 1 0.566 14.522 11.322 
125 1 -14.046 -11.170 13.627 
126 1 -6.479 -6.043 17.064 
127 1 -18.446 7.677 13.183 
128 1 12.117 2.457 -11.819 
129 1 -17.386 5.765 18.759 
130 1 -3.309 0.967 15.314 
131 1 9.603 5.615 17.234 
132 1 -1.900 -19.351 13.614 
133 1 -1.448 -16.791 19.256 
134 1 -6.232 -11.626 9.406 
135 1 -3.051 3.183 -1.456 
136 1 -16.165 5.850 9.332 
137 1 17.300 8.587 6.492 
138 1 -13.437 4.525 6.679 
139 1 -3.140 -0.114 3.126 
140 1 1.919 4.685 16.672 
141 1 -9.375 -9.380 -8.345 
142 1 -15.376 0.520 -3.850 
143 1 -4.277 9.640 11.634 
144 1 6.714 6.802 -18.010 
145 1 5.229 18.783 12.748 
146 1 0.512 -13.438 16.428 
147 1 -15.483 12.162 0.518 
148 1 7.684 -18.309 -9.055 
149 1 -3.371 10.097 6.257 
150 1 -7.717 -17.020 -0.498 
151 1 8.924 -0.664 -7.992 
152 1 18.385 -4.938 16.391 
153 1 -4.218 -11.238 -0.133 
154 1 -5.654 18.790 -3.885 
155 1 4.253 -12.472 -7.646 
156 1 6.684 -12.267 16.357 
157 1 -14.232 12.103 -18.580 
158 1 -10.316 4.070 11.924 
159 1 13.711 -11.299 0.066 
160 1 16.390 -9.510 5.386 
161 1 -3.377 -6.033 -10.192 
162 1 13.694 -3.520 -10.788 
163 1 16.726 -2.016 -2.789 
164 1 2.474 -7.508 -16.193 
165 1 -0.210 3.892 -14.648 
166 1 3.372 -4.349 18.502 
167 1 -14.623 2.616 11.815 
168 1 12.769 1.865 -15.102 
169 1 -5.726 -7.641 8.266 
170 1 18.524 -10.594 8.433 
171 1 9.946 -11.065 13.328 
172 1 6.621 2.874 -3.470 
173 1 1.856 5.394 -18.237 
174 1 5.594 -10.738 -4.723 
175 1 15.363 -15.372 -14.567 
176 1 3.974 -19.340 -11.591 
177 1 6.518 -0.881 8.790 
178 1 0.428 -19.473 -16.262 
179 1 9.738 -8.950 -4.054 
180 1 -10.833 8.046 16.055 
181 1 -1.332 -8.185 14.954 
182 1 -9.745 5.711 8.218 
183 1 10.114 9.308 -16.807 
184 1 9.655 -7.432 -0.898 
185 1 -2.267 -2.457 -10.452 
186 1 -16.458 -17.071 18.723 
187 1 1.310 1.621 -17.894 
188 1 -2.294 7.274 -15.505 
189 1 2.111 -8.890 18.685 
190 1 14.486 18.203 -0.981 
191 1 -19.444 -1.194 8.250 
192 1 -18.603 7.848 7.540 
193 1 -10.608 -12.871 15.335 
194 1 -8.390 18.900 18.914 
195 1 5.214 2.948 8.031 
196 1 4.628 0.591 -6.593 
197 1 -4.586 6.289 4.742 
198 1 3.315 -1.809 -17.448 
199 1 -8.079 -13.267 -18.462 
200 1 8.456 15.807 -8.278 
