ITEM: TIMESTEP
0
ITEM: NUMBER OF ATOMS
200
ITEM: BOX BOUNDS pp pp pp
-15.145370694641318 15.145370694641318
-15.145370694641318 15.145370694641318
-15.145370694641318 15.145370694641318
ITEM: ATOMS id type x y z
1 1 4.215 3.983 3.114 
2 1 4.565 12.483 1.407 
3 1 3.310 1.789 -11.472 
4 1 -2.244 7.245 8.239 
5 1 -10.504 -3.446 3.924 
6 1 3.717 13.489 9.457 
7 1 4.668 -3.352 5.541 
8 1 1.968 11.505 12.074 
9 1 4.747 13.115 4.095 
10 1 -7.577 7.641 -1.832 
11 1 -1.119 -11.716 4.965 
12 1 11.559 13.173 7.885 
13 1 -8.239 -6.754 -2.118 
14 1 -14.833 -9.019 6.767 
15 1 7.301 1.720 12.047 
16 1 -0.222 14.418 -9.881 
17 1 -3.300 -10.674 1.222 
18 1 -0.085 -11.337 -4.959 
19 1 -7.042 2.057 5.890 
20 1 -1.317 1.118 -4.656 
21 1 0.829 -4.407 -13.765 
22 1 -2.044 -8.299 -9.416 
23 1 9.523 9.487 -10.222 
24 1 13.213 10.249 -7.755 
25 1 -10.178 11.138 10.938 
26 1 6.239 -12.234 -13.619 
27 1 -14.868 1.614 4.113 
28 1 -12.736 11.451 -7.585 
29 1 -0.538 5.424 -5.833 
30 1 -10.008 -3.990 7.152 
31 1 -8.028 2.133 4.301 
32 1 0.468 11.787 6.304 
33 1 0.551 -0.926 -9.858 
34 1 -13.178 7.635 12.083 
35 1 -3.830 -11.760 7.846 
36 1 -11.764 2.268 12.455 
37 1 4.202 -8.524 14.231 
38 1 -3.135 -10.979 3.672 
39 1 -8.302 4.789 7.406 
40 1 0.089 4.435 -13.036 
41 1 -1.140 -8.071 -4.079 
42 1 14.953 -14.851 -10.491 
43 1 -14.948 -3.125 2.377 
44 1 2.552 -1.999 -10.181 
45 1 5.490 -14.204 -4.209 
46 1 -6.599 14.559 8.088 
47 1 -10.195 -8.729 8.212 
48 1 2.780 -14.373 3.003 
49 1 5.699 1.311 10.756 
50 1 5.101 9.658 -10.989 
51 1 -6.381 10.858 5.621 
52 1 2.398 6.798 10.074 
53 1 6.440 -11.729 -9.737 
54 1 11.432 12.882 1.280 
55 1 3.974 -4.803 -11.901 
56 1 -10.282 1.008 13.615 
57 1 6.062 9.655 6.653 
58 1 14.361 -2.462 -8.802 
59 1 5.484 -11.100 -11.402 
60 1 -0.123 2.504 -0.850 
61 1 13.161 11.572 3.945 
62 1 -11.560 -6.055 -11.238 
63 1 6.135 14.311 9.060 
64 1 -8.717 -10.404 2.971 
65 1 -7.654 6.385 9.442 
66 1 -9.493 12.994 -3.901 
67 1 11.662 2.775 5.715 
68 1 12.642 4.580 -6.704 
69 1 1.963 -7.549 -15.015 
70 1 -7.001 10.504 7.230 
71 1 14.918 1.266 4.080 
72 1 9.638 -13.439 2.237 
73 1 -8.854 -14.518 1.523 
74 1 -10.097 1.022 -13.027 
75 1 0.646 -10.825 0.782 
76 1 9.985 14.060 13.490 
77 1 -3.781 -8.234 1.461 
78 1 2.864 -9.821 -10.734 
79 1 5.649 -10.720 -14.814 
80 1 -14.639 -2.542 4.722 
81 1 -1.824 -5.083 -9.654 
82 1 -6.991 13.327 6.563 
83 1 -4.925 -12.135 -3.554 
84 1 -5.923 1.420 8.990 
85 1 -14.219 10.455 -12.904 
86 1 -3.287 -9.792 -7.034 
87 1 -5.248 10.156 -8.721 
88 1 -0.389 3.596 -4.876 
89 1 -2.966 -2.637 -6.085 
90 1 4.322 3.817 -2.046 
91 1 13.444 -11.032 2.696 
92 1 0.074 13.396 6.141 
93 1 -8.307 4.300 -8.294 
94 1 12.472 5.868 -7.577 
95 1 0.996 14.218 4.820 
96 1 -9.602 5.833 -4.333 
97 1 -4.420 5.326 7.704 
98 1 -12.818 2.820 -8.360 
99 1 -5.885 10.502 -2.690 
100 1 3.511 -2.126 -5.395 
101 1 -0.671 12.207 6.425 
102 1 -10.685 -8.584 3.318 
103 1 15.058 -4.435 -8.890 
104 1 -9.493 10.688 -12.469 
105 1 -5.889 -12.264 9.785 
106 1 7.491 -6.192 -11.438 
107 1 -0.678 -2.255 1.275 
108 1 8.541 11.475 -12.842 
109 1 -7.791 8.658 4.841 
110 1 -1.519 5.089 10.369 
111 1 1.435 -4.453 10.707 
112 1 9.447 14.156 9.805 
113 1 -13.167 4.338 -11.738 
114 1 8.738 5.505 9.224 
115 1 -9.107 -9.528 -12.507 
116 1 0.776 -3.040 -1.036 
117 1 9.823 -4.293 4.702 
118 1 -7.914 -4.129 -3.064 
119 1 10.825 -11.182 -11.121 
120 1 -3.987 -2.258 8.802 
121 1 5.159 3.201 -14.556 
122 1 -7.757 9.620 -5.803 
123 1 -5.748 11.113 3.185 
124 1 4.051 3.095 6.274 
125 1 0.796 -3.042 -9.777 
126 1 -10.320 -7.975 8.542 
127 1 -4.739 2.524 8.490 
128 1 14.038 12.611 -4.306 
129 1 0.693 11.661 14.254 
130 1 10.594 -3.913 -11.097 
131 1 -4.875 0.157 4.438 
132 1 -10.967 11.519 7.002 
133 1 8.097 -1.906 -10.693 
134 1 13.193 -14.759 12.766 
135 1 12.556 -5.302 4.747 
136 1 -2.932 -1.959 11.019 
137 1 1.276 5.997 1.439 
138 1 -1.279 13.722 -3.125 
139 1 -5.466 -11.661 -11.832 
140 1 -2.354 14.725 10.107 
141 1 -6.033 0.234 -5.280 
142 1 -10.509 1.379 6.797 
143 1 -5.890 -6.936 -2.925 
144 1 -2.978 14.653 9.259 
145 1 -7.812 8.822 6.398 
146 1 -6.887 -4.440 -8.413 
147 1 -13.198 -4.969 -6.596 
148 1 0.164 8.078 7.086 
149 1 -6.618 -3.580 -12.351 
150 1 -4.284 -11.387 6.388 
151 1 5.815 1.972 -0.424 
152 1 -8.249 3.454 5.719 
153 1 2.910 -2.705 8.563 
154 1 -3.830 -12.408 -14.940 
155 1 -5.165 8.451 14.239 
156 1 -1.022 7.497 -1.348 
157 1 12.409 9.466 -14.354 
158 1 -3.397 -2.803 12.745 
159 1 -13.294 7.987 -11.560 
160 1 -8.198 -4.000 11.615 
161 1 -6.258 -12.808 -14.992 
162 1 5.021 -9.983 5.872 
163 1 -0.663 -6.325 -6.795 
164 1 5.544 12.767 9.376 
165 1 -5.588 10.682 -6.728 
166 1 -5.531 -4.822 -11.850 
167 1 -3.636 3.792 4.285 
168 1 -0.799 7.236 0.185 
169 1 -5.102 -0.304 4.031 
170 1 -7.545 9.828 5.577 
171 1 4.004 1.523 -1.509 
172 1 3.736 11.056 6.598 
173 1 -3.223 8.055 -1.069 
174 1 -14.861 -4.498 -13.273 
175 1 10.792 -3.993 12.281 
176 1 4.684 2.269 13.346 
177 1 11.607 13.780 -10.159 
178 1 3.484 2.913 5.002 
179 1 -6.408 -13.753 7.721 
180 1 -4.053 -6.052 -3.036 
181 1 11.370 -11.788 9.456 
182 1 -7.425 -5.276 3.990 
183 1 5.447 2.977 3.632 
184 1 -2.806 9.518 -8.976 
185 1 12.958 0.247 -0.457 
186 1 -1.568 13.821 -8.472 
187 1 -4.098 -13.525 12.804 
188 1 7.911 6.578 6.756 
189 1 12.212 9.532 9.847 
190 1 4.396 -11.721 5.726 
191 1 -3.141 -14.360 4.578 
192 1 -5.719 -4.547 -11.062 
193 1 -8.114 -11.456 -11.058 
194 1 5.057 11.423 -4.687 
195 1 -12.904 1.950 9.086 
196 1 -5.459 9.211 12.991 
197 1 -5.151 2.026 11.325 
198 1 -1.535 0.941 14.161 
199 1 9.885 0.357 0.463 
200 1 6.511 -12.576 -7.814 
ITEM: TIMESTEP
10
ITEM: NUMBER OF ATOMS
200
ITEM: BOX BOUNDS pp pp pp
-15.145370694641318 15.145370694641318
-15.145370694641318 15.145370694641318
-15.145370694641318 15.145370694641318
ITEM: ATOMS id type x y z
1 1 4.064 4.122 3.032 
2 1 4.565 12.483 1.406 
3 1 3.310 1.789 -11.472 
4 1 -2.245 7.245 8.240 
5 1 -10.504 -3.446 3.924 
6 1 3.652 13.517 9.459 
7 1 4.668 -3.352 5.541 
8 1 1.970 11.505 12.071 
9 1 4.747 13.116 4.096 
10 1 -7.577 7.641 -1.832 
11 1 -1.116 -11.717 4.967 
12 1 11.559 13.173 7.885 
13 1 -8.243 -6.754 -2.116 
14 1 -14.833 -9.019 6.767 
15 1 7.328 1.727 12.068 
16 1 -0.190 14.432 -9.914 
17 1 -3.300 -10.677 1.217 
18 1 -0.085 -11.337 -4.959 
19 1 -6.920 1.971 5.984 
20 1 -1.317 1.116 -4.656 
21 1 0.829 -4.407 -13.765 
22 1 -2.044 -8.299 -9.416 
23 1 9.523 9.487 -10.222 
24 1 13.213 10.249 -7.755 
25 1 -10.178 11.138 10.938 
26 1 6.256 -12.276 -13.589 
27 1 -14.255 2.036 4.153 
28 1 -12.736 11.451 -7.585 
29 1 -0.541 5.461 -5.852 
30 1 -10.008 -3.990 7.152 
31 1 -8.073 2.092 4.170 
32 1 0.864 11.579 6.269 
33 1 0.538 -0.893 -9.858 
34 1 -13.178 7.635 12.083 
35 1 -3.753 -11.823 8.093 
36 1 -11.773 2.276 12.448 
37 1 4.203 -8.524 14.230 
38 1 -3.137 -10.978 3.673 
39 1 -8.303 4.808 7.430 
40 1 0.089 4.435 -13.036 
41 1 -1.140 -8.071 -4.079 
42 1 14.953 -14.851 -10.491 
43 1 -14.948 -3.127 2.372 
44 1 2.593 -1.986 -10.190 
45 1 5.490 -14.204 -4.209 
46 1 -6.592 14.543 8.146 
47 1 -10.099 -9.305 7.960 
48 1 2.780 -14.373 3.003 
49 1 5.673 1.304 10.734 
50 1 5.101 9.658 -10.989 
51 1 -5.922 11.162 5.563 
52 1 2.398 6.798 10.074 
53 1 6.466 -11.732 -9.725 
54 1 11.432 12.882 1.280 
55 1 3.974 -4.803 -11.901 
56 1 -10.274 1.000 13.622 
57 1 6.063 9.655 6.653 
58 1 14.349 -2.429 -8.800 
59 1 5.457 -11.082 -11.446 
60 1 -0.123 2.504 -0.850 
61 1 13.161 11.572 3.945 
62 1 -11.560 -6.055 -11.238 
63 1 6.209 14.504 9.020 
64 1 -8.716 -10.405 2.971 
65 1 -7.654 6.386 9.443 
66 1 -9.493 12.994 -3.901 
67 1 11.662 2.775 5.715 
68 1 12.671 4.358 -6.554 
69 1 1.961 -7.548 -15.014 
70 1 -7.004 10.518 7.413 
71 1 14.306 0.843 4.039 
72 1 9.638 -13.439 2.237 
73 1 -8.854 -14.518 1.523 
74 1 -10.097 1.022 -13.027 
75 1 0.646 -10.825 0.782 
76 1 9.985 14.060 13.490 
77 1 -3.781 -8.230 1.461 
78 1 2.863 -9.821 -10.734 
79 1 5.634 -10.680 -14.847 
80 1 -14.638 -2.541 4.727 
81 1 -1.824 -5.083 -9.654 
82 1 -7.004 13.291 6.516 
83 1 -4.925 -12.135 -3.554 
84 1 -6.068 1.286 9.048 
85 1 -14.220 10.455 -12.904 
86 1 -3.288 -9.793 -7.034 
87 1 -5.245 10.147 -8.756 
88 1 -0.386 3.561 -4.857 
89 1 -2.966 -2.637 -6.085 
90 1 4.323 3.824 -2.048 
91 1 13.444 -11.032 2.696 
92 1 0.115 13.623 6.272 
93 1 -8.307 4.300 -8.294 
94 1 12.443 6.090 -7.727 
95 1 1.123 14.320 4.624 
96 1 -9.602 5.833 -4.333 
97 1 -4.420 5.326 7.703 
98 1 -12.818 2.820 -8.360 
99 1 -5.885 10.502 -2.690 
100 1 3.511 -2.126 -5.395 
101 1 -1.234 12.086 6.526 
102 1 -10.686 -8.583 3.318 
103 1 15.070 -4.469 -8.891 
104 1 -9.493 10.688 -12.469 
105 1 -5.890 -12.262 9.787 
106 1 7.491 -6.192 -11.438 
107 1 -0.679 -2.255 1.276 
108 1 8.541 11.475 -12.842 
109 1 -7.834 8.329 4.550 
110 1 -1.519 5.089 10.369 
111 1 1.435 -4.453 10.707 
112 1 9.447 14.156 9.805 
113 1 -13.167 4.338 -11.738 
114 1 8.738 5.504 9.225 
115 1 -9.108 -9.526 -12.508 
116 1 0.777 -3.040 -1.037 
117 1 9.823 -4.293 4.702 
118 1 -7.914 -4.128 -3.064 
119 1 10.825 -11.182 -11.121 
120 1 -3.989 -2.259 8.798 
121 1 5.159 3.202 -14.554 
122 1 -7.759 9.619 -5.802 
123 1 -5.747 11.113 3.180 
124 1 4.193 3.141 6.592 
125 1 0.768 -3.089 -9.769 
126 1 -10.415 -7.399 8.794 
127 1 -4.596 2.657 8.430 
128 1 14.038 12.611 -4.306 
129 1 0.692 11.661 14.257 
130 1 10.594 -3.913 -11.097 
131 1 -4.625 0.666 4.888 
132 1 -10.967 11.519 7.002 
133 1 8.097 -1.906 -10.693 
134 1 13.193 -14.759 12.766 
135 1 12.556 -5.302 4.747 
136 1 -2.914 -1.929 10.964 
137 1 1.278 5.996 1.439 
138 1 -1.279 13.722 -3.125 
139 1 -5.465 -11.661 -11.833 
140 1 -2.044 14.760 10.528 
141 1 -6.033 0.234 -5.280 
142 1 -10.509 1.379 6.797 
143 1 -5.929 -6.957 -2.923 
144 1 -3.288 14.617 8.838 
145 1 -7.881 8.522 6.737 
146 1 -6.890 -4.440 -8.408 
147 1 -13.198 -4.970 -6.596 
148 1 0.165 8.079 7.086 
149 1 -6.709 -3.477 -12.384 
150 1 -4.361 -11.324 6.142 
151 1 5.836 1.977 -0.412 
152 1 -8.327 3.561 5.732 
153 1 2.910 -2.705 8.563 
154 1 -3.826 -12.407 -14.939 
155 1 -5.104 8.295 14.496 
156 1 -1.048 7.539 -1.611 
157 1 12.409 9.466 -14.354 
158 1 -3.413 -2.832 12.804 
159 1 -13.294 7.987 -11.560 
160 1 -8.198 -4.000 11.615 
161 1 -6.262 -12.809 -14.992 
162 1 5.062 -9.868 5.881 
163 1 -0.663 -6.325 -6.795 
164 1 5.536 12.545 9.413 
165 1 -5.592 10.692 -6.694 
166 1 -5.318 -5.110 -12.406 
167 1 -3.636 3.792 4.285 
168 1 -0.763 7.192 0.445 
169 1 -5.352 -0.814 3.581 
170 1 -7.888 10.138 5.407 
171 1 3.982 1.511 -1.520 
172 1 3.735 11.056 6.598 
173 1 -3.235 8.058 -1.067 
174 1 -14.861 -4.498 -13.273 
175 1 10.792 -3.993 12.281 
176 1 4.683 2.269 13.345 
177 1 11.607 13.780 -10.159 
178 1 3.330 2.857 4.702 
179 1 -6.404 -13.700 7.708 
180 1 -4.010 -6.032 -3.038 
181 1 11.370 -11.788 9.456 
182 1 -7.425 -5.276 3.990 
183 1 5.610 2.848 3.695 
184 1 -2.803 9.517 -8.976 
185 1 12.958 0.247 -0.457 
186 1 -1.600 13.807 -8.439 
187 1 -4.098 -13.525 12.803 
188 1 7.911 6.578 6.755 
189 1 12.212 9.532 9.847 
190 1 4.354 -11.835 5.717 
191 1 -3.141 -14.360 4.578 
192 1 -5.839 -4.362 -10.478 
193 1 -8.114 -11.458 -11.057 
194 1 5.057 11.423 -4.687 
195 1 -12.904 1.950 9.086 
196 1 -5.519 9.368 12.734 
197 1 -5.150 2.027 11.328 
198 1 -1.535 0.941 14.161 
199 1 9.885 0.357 0.463 
200 1 6.513 -12.590 -7.781 
ITEM: TIMESTEP
20
ITEM: NUMBER OF ATOMS
200
ITEM: BOX BOUNDS pp pp pp
-15.145370694641318 15.145370694641318
-15.145370694641318 15.145370694641318
-15.145370694641318 15.145370694641318
ITEM: ATOMS id type x y z
1 1 4.397 4.763 2.556 
2 1 4.524 12.390 0.982 
3 1 3.288 1.782 -11.464 
4 1 -2.371 7.677 8.503 
5 1 -10.563 -3.404 3.798 
6 1 3.014 13.879 9.397 
7 1 4.700 -3.361 5.492 
8 1 2.224 11.403 11.640 
9 1 4.851 13.361 4.377 
10 1 -7.597 7.593 -1.807 
11 1 -0.461 -11.956 5.387 
12 1 11.774 13.063 7.686 
13 1 -9.129 -6.906 -1.653 
14 1 -14.827 -9.015 6.760 
15 1 7.966 1.845 12.433 
16 1 0.300 14.650 -10.427 
17 1 -3.252 -11.145 -0.011 
18 1 -0.084 -11.381 -4.978 
19 1 -6.952 1.940 6.197 
20 1 -1.667 0.372 -4.651 
21 1 0.779 -4.278 -13.710 
22 1 -1.934 -8.475 -9.645 
23 1 9.557 9.447 -10.160 
24 1 13.217 10.266 -7.762 
25 1 -10.159 11.126 10.918 
26 1 6.851 -13.486 -13.388 
27 1 -13.620 2.456 4.211 
28 1 -12.745 11.447 -7.585 
29 1 -0.664 6.321 -6.336 
30 1 -9.969 -3.947 7.235 
31 1 -8.035 1.145 3.004 
32 1 0.837 11.182 5.832 
33 1 0.144 -0.146 -9.830 
34 1 -13.171 7.638 12.081 
35 1 -2.961 -12.035 8.717 
36 1 -12.180 2.695 12.244 
37 1 4.274 -7.966 13.483 
38 1 -3.018 -10.589 3.361 
39 1 -8.684 4.492 8.644 
40 1 0.099 4.421 -13.037 
41 1 -1.142 -8.178 -3.953 
42 1 14.958 -14.854 -10.491 
43 1 -15.032 -3.259 1.815 
44 1 3.520 -1.711 -10.351 
45 1 5.419 -14.299 -4.018 
46 1 -6.771 14.140 9.422 
47 1 -9.978 -9.998 7.641 
48 1 3.263 -13.858 2.557 
49 1 5.272 1.045 9.974 
50 1 5.119 9.663 -10.992 
51 1 -5.142 10.943 5.628 
52 1 2.387 6.801 10.063 
53 1 7.348 -11.642 -9.842 
54 1 11.389 12.920 1.225 
55 1 3.991 -4.879 -11.929 
56 1 -9.811 0.604 13.883 
57 1 6.659 9.435 6.653 
58 1 14.107 -1.727 -8.763 
59 1 4.997 -10.520 -12.085 
60 1 -0.107 2.510 -0.847 
61 1 13.193 11.548 4.014 
62 1 -11.567 -6.053 -11.236 
63 1 6.302 -15.084 8.816 
64 1 -8.369 -10.718 2.921 
65 1 -7.330 7.055 10.414 
66 1 -9.479 12.974 -3.907 
67 1 11.638 2.799 5.732 
68 1 12.759 3.733 -6.134 
69 1 1.444 -7.472 -14.725 
70 1 -6.988 10.878 8.571 
71 1 13.695 0.391 3.959 
72 1 9.647 -13.445 2.238 
73 1 -8.846 -14.512 1.534 
74 1 -10.104 1.032 -12.940 
75 1 0.631 -10.835 0.798 
76 1 9.959 14.043 13.524 
77 1 -3.884 -7.743 1.532 
78 1 2.191 -9.535 -10.389 
79 1 5.893 -10.627 14.972 
80 1 -14.545 -2.417 5.301 
81 1 -2.252 -5.122 -9.744 
82 1 -7.418 13.730 5.828 
83 1 -4.910 -12.118 -3.553 
84 1 -6.827 0.423 9.326 
85 1 -14.327 10.729 -13.050 
86 1 -3.392 -9.917 -6.788 
87 1 -5.783 10.065 -9.521 
88 1 0.091 3.459 -4.355 
89 1 -2.969 -2.660 -6.096 
90 1 4.359 4.376 -2.177 
91 1 13.439 -11.034 2.701 
92 1 -0.061 14.493 7.362 
93 1 -8.318 4.303 -8.285 
94 1 12.359 6.719 -8.157 
95 1 1.121 14.002 3.994 
96 1 -9.602 5.833 -4.359 
97 1 -5.030 5.681 7.346 
98 1 -12.813 2.820 -8.350 
99 1 -5.869 10.582 -2.695 
100 1 3.498 -2.121 -5.398 
101 1 -2.120 11.744 6.805 
102 1 -11.011 -8.265 3.391 
103 1 15.113 -5.172 -9.206 
104 1 -9.501 10.682 -12.464 
105 1 -6.234 -12.057 10.404 
106 1 7.491 -6.191 -11.437 
107 1 -0.881 -2.141 1.589 
108 1 8.527 11.521 -12.899 
109 1 -7.658 7.520 3.627 
110 1 -1.466 4.894 10.524 
111 1 1.323 -4.576 10.869 
112 1 9.388 14.213 10.032 
113 1 -13.161 4.290 -11.754 
114 1 8.853 5.341 9.592 
115 1 -9.279 -9.123 -12.815 
116 1 0.973 -3.138 -1.362 
117 1 9.498 -4.170 4.696 
118 1 -7.819 -3.842 -3.200 
119 1 10.811 -11.189 -11.121 
120 1 -4.404 -2.406 8.164 
121 1 5.300 3.429 -13.996 
122 1 -8.252 9.343 -5.669 
123 1 -5.851 11.088 2.346 
124 1 4.587 3.322 7.295 
125 1 0.777 -3.738 -9.600 
126 1 -10.538 -6.763 9.135 
127 1 -3.860 2.447 8.355 
128 1 14.040 12.603 -4.320 
129 1 0.411 11.699 14.728 
130 1 10.735 -4.017 -11.114 
131 1 -3.798 0.705 5.233 
132 1 -11.073 11.564 7.119 
133 1 7.954 -1.815 -10.675 
134 1 13.209 -14.747 12.750 
135 1 12.900 -5.411 4.747 
136 1 -2.247 -1.318 10.854 
137 1 1.482 5.807 1.385 
138 1 -1.285 13.721 -3.133 
139 1 -5.054 -11.631 -11.882 
140 1 -1.521 14.777 11.140 
141 1 -6.018 0.221 -5.282 
142 1 -10.462 1.299 6.727 
143 1 -6.001 -7.611 -3.247 
144 1 -3.451 14.622 8.120 
145 1 -8.146 7.735 7.256 
146 1 -7.489 -4.512 -7.474 
147 1 -12.993 -4.972 -6.351 
148 1 0.680 8.038 6.876 
149 1 -7.272 -2.923 -12.835 
150 1 -5.103 -10.800 6.071 
151 1 6.399 2.074 -0.037 
152 1 -9.172 4.088 3.998 
153 1 2.990 -2.558 8.461 
154 1 -3.190 -12.182 -14.665 
155 1 -4.957 7.907 15.125 
156 1 -0.561 7.501 -2.547 
157 1 12.409 9.476 -14.342 
158 1 -3.684 -3.246 13.552 
159 1 -13.190 7.767 -11.402 
160 1 -8.195 -3.996 11.603 
161 1 -6.808 -12.900 -15.028 
162 1 5.318 -9.152 5.940 
163 1 -0.598 -6.248 -6.827 
164 1 5.970 11.605 9.606 
165 1 -5.118 11.180 -6.108 
166 1 -4.846 -5.826 -13.244 
167 1 -3.598 4.101 4.215 
168 1 -1.392 7.507 1.093 
169 1 -5.655 -1.439 3.080 
170 1 -8.601 10.629 4.908 
171 1 3.343 0.866 -1.731 
172 1 3.956 11.363 6.921 
173 1 -3.905 8.212 -0.999 
174 1 -14.858 -4.501 -13.250 
175 1 10.791 -3.993 12.282 
176 1 4.302 2.191 13.161 
177 1 11.595 13.760 -10.161 
178 1 2.488 2.250 4.510 
179 1 -6.776 -13.527 7.136 
180 1 -3.172 -5.455 -3.039 
181 1 11.370 -11.804 9.460 
182 1 -7.404 -5.292 3.994 
183 1 6.349 2.351 3.903 
184 1 -2.240 9.401 -8.930 
185 1 13.132 0.236 -0.491 
186 1 -2.102 13.572 -7.918 
187 1 -4.146 -13.689 12.543 
188 1 7.919 6.451 6.375 
189 1 12.206 9.543 9.843 
190 1 4.100 -12.553 5.696 
191 1 -3.175 -14.417 4.605 
192 1 -5.298 -4.072 -10.122 
193 1 -8.380 -11.850 -10.601 
194 1 5.056 11.432 -4.686 
195 1 -13.024 1.945 9.007 
196 1 -5.353 10.248 12.431 
197 1 -4.932 2.206 11.837 
198 1 -1.545 0.935 14.147 
199 1 9.709 0.368 0.521 
200 1 6.467 -13.006 -6.863 
ITEM: TIMESTEP
30
ITEM: NUMBER OF ATOMS
200
ITEM: BOX BOUNDS pp pp pp
-15.145370694641318 15.145370694641318
-15.145370694641318 15.145370694641318
-15.145370694641318 15.145370694641318
ITEM: ATOMS id type x y z
1 1 4.816 4.913 2.575 
2 1 4.300 12.645 0.973 
3 1 2.960 1.921 -11.522 
4 1 -2.743 7.949 8.594 
5 1 -10.840 -3.265 3.648 
6 1 2.738 14.313 9.535 
7 1 4.959 -3.335 5.370 
8 1 2.307 11.006 11.289 
9 1 4.768 13.908 4.592 
10 1 -7.784 7.684 -1.813 
11 1 -0.031 -12.253 5.484 
12 1 11.882 12.867 7.557 
13 1 -9.068 -6.916 -1.506 
14 1 -14.704 -8.880 6.523 
15 1 7.830 2.079 12.327 
16 1 0.274 14.660 -10.437 
17 1 -3.113 -10.914 -0.476 
18 1 -0.323 -11.622 -5.100 
19 1 -6.598 2.279 6.078 
20 1 -1.682 0.219 -4.512 
21 1 0.487 -4.015 -13.255 
22 1 -1.916 -8.852 -9.777 
23 1 9.943 9.558 -10.044 
24 1 13.278 10.617 -8.000 
25 1 -9.870 10.910 11.025 
26 1 7.010 -13.540 -13.226 
27 1 -13.317 2.234 4.551 
28 1 -13.036 11.357 -7.611 
29 1 -0.818 6.648 -6.306 
30 1 -9.630 -3.617 7.243 
31 1 -8.301 0.915 3.078 
32 1 0.377 10.867 4.785 
33 1 0.286 -0.292 -9.850 
34 1 -12.974 7.633 12.032 
35 1 -2.833 -12.014 8.623 
36 1 -12.088 2.997 12.317 
37 1 4.207 -7.641 13.350 
38 1 -2.729 -10.771 3.276 
39 1 -8.715 4.140 8.549 
40 1 0.284 4.133 -13.073 
41 1 -1.510 -8.348 -3.539 
42 1 14.871 -15.070 -10.489 
43 1 15.064 -3.035 1.867 
44 1 3.896 -1.592 -10.341 
45 1 5.174 -14.774 -3.549 
46 1 -7.157 14.341 9.986 
47 1 -9.687 -10.028 7.246 
48 1 3.436 -13.589 2.152 
49 1 5.281 0.817 9.697 
50 1 5.555 9.779 -11.068 
51 1 -4.831 9.800 5.724 
52 1 2.314 6.800 10.172 
53 1 7.550 -11.559 -10.040 
54 1 11.254 13.186 1.267 
55 1 3.831 -5.217 -11.918 
56 1 -9.484 0.400 13.684 
57 1 7.107 9.616 6.788 
58 1 14.033 -1.750 -8.895 
59 1 4.814 -10.209 -12.278 
60 1 -0.049 2.407 -0.671 
61 1 13.157 11.572 4.195 
62 1 -11.699 -6.018 -11.197 
63 1 6.180 -15.119 8.246 
64 1 -8.025 -10.788 3.334 
65 1 -7.018 7.261 10.403 
66 1 -9.256 12.645 -4.014 
67 1 11.436 2.841 5.686 
68 1 12.885 3.682 -6.194 
69 1 1.552 -7.626 -14.158 
70 1 -7.018 10.623 8.779 
71 1 13.690 0.153 3.667 
72 1 9.863 -13.589 2.274 
73 1 -8.635 -14.455 1.822 
74 1 -10.227 1.115 -12.776 
75 1 0.396 -11.087 1.119 
76 1 9.822 13.868 13.980 
77 1 -4.078 -7.693 1.257 
78 1 1.818 -9.025 -10.320 
79 1 6.163 -10.746 14.559 
80 1 -14.245 -2.396 5.436 
81 1 -2.320 -5.079 -10.179 
82 1 -7.185 13.060 5.671 
83 1 -4.738 -11.813 -3.694 
84 1 -7.050 0.483 9.357 
85 1 -14.469 10.942 -13.010 
86 1 -3.389 -9.692 -6.454 
87 1 -6.051 10.018 -9.598 
88 1 0.462 3.636 -4.161 
89 1 -3.104 -3.050 -6.429 
90 1 3.796 4.405 -1.868 
91 1 13.304 -11.079 2.840 
92 1 -0.243 14.782 7.285 
93 1 -8.627 4.364 -8.118 
94 1 12.300 6.898 -8.360 
95 1 0.995 14.494 3.864 
96 1 -9.541 5.849 -4.702 
97 1 -5.401 5.652 7.368 
98 1 -12.664 2.895 -8.275 
99 1 -6.152 11.004 -2.579 
100 1 3.131 -2.017 -5.373 
101 1 -1.839 11.473 7.810 
102 1 -10.812 -8.020 3.734 
103 1 15.114 -5.333 -9.428 
104 1 -9.647 10.508 -12.276 
105 1 -6.279 -11.554 11.131 
106 1 7.549 -6.067 -11.410 
107 1 -1.065 -1.947 1.602 
108 1 8.749 11.688 -12.967 
109 1 -6.980 7.346 3.479 
110 1 -1.610 4.763 10.439 
111 1 1.234 -4.587 11.129 
112 1 9.503 14.267 10.150 
113 1 -12.962 4.039 -11.902 
114 1 8.690 5.074 9.739 
115 1 -9.163 -8.920 -12.802 
116 1 0.933 -2.823 -1.715 
117 1 9.417 -4.065 4.687 
118 1 -7.327 -3.985 -3.281 
119 1 11.087 -11.297 -11.318 
120 1 -4.630 -2.038 7.903 
121 1 5.452 3.538 -13.931 
122 1 -8.125 9.312 -5.487 
123 1 -6.102 10.824 1.655 
124 1 4.792 3.676 7.145 
125 1 1.219 -3.973 -9.409 
126 1 -10.461 -6.807 9.238 
127 1 -3.716 2.306 8.417 
128 1 14.127 12.442 -4.672 
129 1 0.300 11.803 14.638 
130 1 11.039 -4.090 -11.018 
131 1 -3.494 0.395 5.193 
132 1 -10.715 11.636 7.435 
133 1 7.684 -2.112 -10.750 
134 1 12.938 -14.732 12.453 
135 1 13.280 -5.185 4.658 
136 1 -2.422 -0.908 10.793 
137 1 1.471 5.485 0.867 
138 1 -1.465 13.712 -3.399 
139 1 -4.969 -11.316 -11.693 
140 1 -1.163 14.464 10.846 
141 1 -5.666 -0.213 -5.311 
142 1 -10.155 1.123 6.459 
143 1 -5.686 -7.841 -3.377 
144 1 -3.971 14.650 8.157 
145 1 -8.492 7.719 6.904 
146 1 -7.627 -4.611 -6.938 
147 1 -12.832 -4.911 -6.455 
148 1 0.739 7.739 6.866 
149 1 -7.466 -2.806 -13.357 
150 1 -4.668 -9.472 5.793 
151 1 6.139 2.158 0.272 
152 1 -9.320 4.415 4.634 
153 1 3.054 -2.209 8.587 
154 1 -2.930 -12.146 -14.828 
155 1 -5.009 7.897 14.992 
156 1 -0.496 7.054 -2.365 
157 1 12.255 9.743 -14.048 
158 1 -3.795 -3.160 13.769 
159 1 -13.052 7.910 -11.162 
160 1 -8.179 -3.817 11.269 
161 1 -6.668 -12.737 -14.985 
162 1 5.258 -9.234 5.921 
163 1 -0.773 -6.255 -6.812 
164 1 6.320 11.864 10.124 
165 1 -4.866 11.181 -6.156 
166 1 -4.694 -5.641 -13.172 
167 1 -3.825 4.180 4.326 
168 1 -1.526 7.739 1.598 
169 1 -5.691 -1.928 3.193 
170 1 -9.374 10.183 4.202 
171 1 3.079 0.663 -1.852 
172 1 3.700 11.453 7.321 
173 1 -4.055 8.196 -1.165 
174 1 -14.831 -4.496 -13.052 
175 1 10.774 -3.977 12.314 
176 1 4.073 2.199 13.078 
177 1 11.502 13.274 -10.261 
178 1 2.631 2.324 4.228 
179 1 -7.440 -13.746 6.717 
180 1 -3.208 -4.985 -3.132 
181 1 11.347 -12.233 9.598 
182 1 -7.551 -5.271 4.078 
183 1 6.625 2.017 4.173 
184 1 -2.311 9.564 -8.577 
185 1 13.364 0.054 -0.122 
186 1 -2.172 13.340 -7.745 
187 1 -4.234 -14.090 12.296 
188 1 7.832 5.599 6.001 
189 1 12.050 9.756 9.763 
190 1 3.768 -13.026 5.955 
191 1 -3.182 -14.267 4.817 
192 1 -5.671 -3.678 -10.049 
193 1 -8.549 -11.962 -10.590 
194 1 5.033 11.713 -4.597 
195 1 -13.112 1.992 8.668 
196 1 -5.486 10.376 11.997 
197 1 -4.712 2.125 11.984 
198 1 -1.667 0.941 14.018 
199 1 9.616 0.409 0.846 
200 1 6.402 -13.088 -6.774 
ITEM: TIMESTEP
40
ITEM: NUMBER OF ATOMS
200
ITEM: BOX BOUNDS pp pp pp
-15.145370694641318 15.145370694641318
-15.145370694641318 15.145370694641318
-15.145370694641318 15.145370694641318
ITEM: ATOMS id type x y z
1 1 4.962 5.087 2.669 
2 1 3.921 13.106 1.148 
3 1 2.936 1.695 -11.555 
4 1 -3.176 8.060 8.746 
5 1 -10.792 -3.071 3.714 
6 1 2.689 14.383 9.302 
7 1 5.220 -3.138 5.491 
8 1 2.115 10.914 10.804 
9 1 4.576 13.758 4.785 
10 1 -7.782 7.824 -1.838 
11 1 -0.085 -12.255 5.214 
12 1 11.717 13.069 7.596 
13 1 -8.617 -6.926 -1.465 
14 1 -14.463 -8.621 6.126 
15 1 7.645 2.270 12.288 
16 1 0.165 14.641 -10.354 
17 1 -2.796 -10.737 -0.613 
18 1 -0.881 -11.597 -4.999 
19 1 -6.484 2.099 6.055 
20 1 -1.361 -0.125 -4.346 
21 1 0.397 -4.080 -12.746 
22 1 -2.015 -8.754 -9.973 
23 1 10.083 9.556 -10.222 
24 1 13.368 10.678 -8.476 
25 1 -9.524 10.575 11.042 
26 1 7.171 -13.404 -13.234 
27 1 -13.096 1.694 4.743 
28 1 -13.275 11.303 -7.834 
29 1 -0.910 6.728 -5.931 
30 1 -9.244 -3.199 7.152 
31 1 -8.574 0.803 3.182 
32 1 0.451 11.219 4.905 
33 1 0.271 -0.727 -9.913 
34 1 -12.531 7.581 11.913 
35 1 -3.053 -12.412 8.254 
36 1 -11.705 3.111 12.083 
37 1 4.142 -7.551 13.582 
38 1 -3.031 -10.840 3.210 
39 1 -8.726 4.050 8.640 
40 1 0.348 3.855 -13.336 
41 1 -1.710 -8.328 -3.345 
42 1 14.870 14.629 -10.456 
43 1 15.134 -2.840 1.972 
44 1 3.842 -1.859 -10.465 
45 1 5.105 -14.805 -3.470 
46 1 -7.395 14.175 9.887 
47 1 -9.116 -10.012 7.077 
48 1 3.678 -13.477 2.298 
49 1 5.296 0.940 9.565 
50 1 6.192 9.899 -11.097 
51 1 -4.624 9.623 5.450 
52 1 2.193 6.947 10.176 
53 1 7.391 -11.369 -10.044 
54 1 11.228 13.273 1.367 
55 1 3.828 -5.446 -11.727 
56 1 -9.221 0.397 13.483 
57 1 6.873 9.649 7.002 
58 1 13.958 -1.910 -9.167 
59 1 4.730 -9.707 -12.349 
60 1 -0.008 2.266 -0.567 
61 1 13.063 11.624 4.292 
62 1 -11.799 -5.991 -11.077 
63 1 6.207 15.029 7.965 
64 1 -7.772 -10.818 3.635 
65 1 -6.846 7.366 10.350 
66 1 -9.158 12.501 -4.122 
67 1 10.988 2.738 5.429 
68 1 13.060 3.794 -6.408 
69 1 1.627 -7.624 -13.886 
70 1 -6.693 10.698 8.499 
71 1 13.633 0.164 3.881 
72 1 10.071 -13.526 2.421 
73 1 -8.255 -14.443 2.467 
74 1 -10.288 1.173 -12.942 
75 1 0.398 -11.480 1.473 
76 1 9.711 13.754 14.119 
77 1 -4.367 -7.777 1.146 
78 1 1.769 -8.228 -10.178 
79 1 6.180 -10.676 14.553 
80 1 -14.017 -2.094 5.508 
81 1 -2.197 -5.002 -10.152 
82 1 -6.806 13.293 5.618 
83 1 -4.485 -11.615 -3.826 
84 1 -7.294 0.626 9.510 
85 1 -14.640 11.131 -12.442 
86 1 -3.567 -9.202 -6.532 
87 1 -6.223 9.994 -9.258 
88 1 0.548 3.475 -4.081 
89 1 -3.159 -3.281 -6.890 
90 1 3.445 4.266 -1.700 
91 1 13.144 -11.163 3.026 
92 1 -0.414 14.909 7.185 
93 1 -8.953 4.428 -8.229 
94 1 12.414 7.005 -8.474 
95 1 0.966 14.696 3.829 
96 1 -9.535 5.880 -4.723 
97 1 -5.532 5.551 7.242 
98 1 -12.527 3.071 -8.250 
99 1 -6.074 11.123 -2.381 
100 1 2.457 -1.789 -5.305 
101 1 -1.801 11.379 7.935 
102 1 -10.542 -7.844 4.203 
103 1 14.964 -5.533 -9.410 
104 1 -9.924 10.257 -11.940 
105 1 -6.341 -11.803 10.317 
106 1 7.559 -6.158 -11.430 
107 1 -1.160 -1.565 1.389 
108 1 8.762 11.904 -12.998 
109 1 -6.627 6.971 3.737 
110 1 -1.842 4.790 10.356 
111 1 1.362 -4.470 11.250 
112 1 9.305 14.242 10.277 
113 1 -12.683 4.156 -11.896 
114 1 8.222 4.791 9.428 
115 1 -8.950 -8.723 -12.700 
116 1 0.506 -2.389 -2.035 
117 1 9.522 -3.905 4.663 
118 1 -6.725 -4.073 -3.207 
119 1 10.924 -11.547 -11.462 
120 1 -5.065 -1.620 7.583 
121 1 5.354 3.421 -14.048 
122 1 -7.878 9.212 -5.481 
123 1 -5.913 10.283 1.683 
124 1 4.747 3.770 7.070 
125 1 1.294 -4.326 -9.032 
126 1 -10.167 -6.645 8.817 
127 1 -3.753 2.169 8.355 
128 1 14.344 12.307 -5.114 
129 1 0.246 11.959 13.994 
130 1 11.294 -4.134 -10.898 
131 1 -3.302 0.499 4.952 
132 1 -10.162 11.603 7.453 
133 1 7.653 -2.390 -10.823 
134 1 12.580 -14.994 12.190 
135 1 13.446 -4.886 4.713 
136 1 -2.809 -0.768 10.681 
137 1 1.372 5.368 1.188 
138 1 -1.843 13.626 -3.822 
139 1 -4.865 -10.969 -11.876 
140 1 -1.079 13.883 10.812 
141 1 -5.445 -0.868 -5.189 
142 1 -9.929 0.738 6.682 
143 1 -5.415 -7.848 -3.334 
144 1 -4.122 14.308 8.285 
145 1 -8.606 7.663 6.997 
146 1 -7.260 -4.627 -6.846 
147 1 -12.650 -4.861 -6.788 
148 1 0.392 8.124 7.089 
149 1 -7.260 -2.743 -13.515 
150 1 -5.212 -9.998 6.239 
151 1 5.778 2.051 0.468 
152 1 -9.252 4.366 4.905 
153 1 3.107 -2.124 8.626 
154 1 -2.917 -12.245 -15.021 
155 1 -5.097 7.754 14.775 
156 1 -0.509 6.593 -1.992 
157 1 12.095 10.165 -13.396 
158 1 -3.900 -2.782 13.954 
159 1 -12.953 8.014 -10.954 
160 1 -8.102 -3.391 10.781 
161 1 -6.664 -12.551 -15.065 
162 1 5.020 -9.702 5.866 
163 1 -1.060 -6.433 -6.789 
164 1 5.970 11.906 10.017 
165 1 -4.764 11.258 -5.908 
166 1 -4.515 -5.431 -13.170 
167 1 -3.871 4.255 4.209 
168 1 -1.650 7.679 1.824 
169 1 -5.966 -1.926 3.737 
170 1 -8.658 10.223 4.300 
171 1 2.954 0.557 -2.118 
172 1 3.355 11.263 7.301 
173 1 -4.045 8.211 -1.064 
174 1 -14.909 -4.357 -12.919 
175 1 10.752 -3.958 12.361 
176 1 3.889 2.219 12.936 
177 1 11.506 13.026 -10.717 
178 1 2.823 2.325 3.963 
179 1 -6.677 -13.359 6.880 
180 1 -3.025 -4.791 -3.425 
181 1 11.149 -12.697 9.551 
182 1 -7.690 -5.320 4.294 
183 1 6.782 2.090 4.203 
184 1 -2.418 9.545 -8.356 
185 1 13.226 -0.057 0.110 
186 1 -2.113 13.323 -7.601 
187 1 -4.250 -14.448 11.983 
188 1 7.790 5.497 5.696 
189 1 11.793 9.947 9.775 
190 1 3.367 -13.302 6.166 
191 1 -3.353 -14.240 4.988 
192 1 -5.609 -3.488 -10.023 
193 1 -8.393 -11.993 -10.834 
194 1 4.988 11.828 -4.563 
195 1 -12.826 2.132 8.557 
196 1 -5.251 10.612 12.053 
197 1 -4.807 2.216 11.966 
198 1 -1.739 0.908 13.979 
199 1 9.531 0.612 1.347 
200 1 6.334 -13.171 -6.783 
ITEM: TIMESTEP
50
ITEM: NUMBER OF ATOMS
200
ITEM: BOX BOUNDS pp pp pp
-15.145370694641318 15.145370694641318
-15.145370694641318 15.145370694641318
-15.145370694641318 15.145370694641318
ITEM: ATOMS id type x y z
1 1 5.073 5.176 2.824 
2 1 3.451 13.457 1.226 
3 1 2.789 1.415 -11.609 
4 1 -3.483 8.183 8.826 
5 1 -10.519 -2.614 3.877 
6 1 2.610 14.149 9.032 
7 1 5.583 -2.767 5.616 
8 1 1.422 10.841 10.399 
9 1 4.222 13.657 4.904 
10 1 -7.681 7.867 -1.775 
11 1 -0.526 -12.125 5.418 
12 1 11.619 13.572 7.693 
13 1 -8.220 -6.991 -1.069 
14 1 -14.195 -8.252 5.727 
15 1 7.417 2.410 12.424 
16 1 0.157 14.696 -10.372 
17 1 -2.570 -10.675 -0.588 
18 1 -1.076 -11.549 -5.168 
19 1 -6.359 1.814 6.047 
20 1 -1.507 -0.242 -4.540 
21 1 0.722 -3.925 -12.479 
22 1 -2.148 -8.734 -9.953 
23 1 10.063 9.685 -10.183 
24 1 13.471 10.715 -9.020 
25 1 -8.940 10.246 10.872 
26 1 7.524 -13.441 -13.226 
27 1 -12.759 1.415 4.599 
28 1 -13.106 11.237 -8.506 
29 1 -1.020 6.724 -5.440 
30 1 -8.651 -2.813 7.076 
31 1 -9.168 0.914 3.154 
32 1 0.278 11.540 4.877 
33 1 0.053 -1.151 -9.922 
34 1 -11.738 7.364 11.616 
35 1 -2.949 -12.732 8.279 
36 1 -10.961 3.337 11.760 
37 1 4.141 -7.422 14.016 
38 1 -3.428 -11.013 3.167 
39 1 -8.827 4.094 8.805 
40 1 0.480 3.447 -13.814 
41 1 -1.595 -8.272 -3.407 
42 1 15.012 14.082 -9.827 
43 1 -14.875 -2.561 2.114 
44 1 3.759 -2.014 -10.505 
45 1 5.074 -14.734 -3.439 
46 1 -7.482 13.972 9.597 
47 1 -8.682 -10.168 7.268 
48 1 3.876 -13.267 2.738 
49 1 5.393 1.190 9.377 
50 1 6.331 9.827 -10.935 
51 1 -4.275 9.636 5.272 
52 1 2.179 7.058 10.138 
53 1 7.103 -11.102 -10.138 
54 1 11.203 13.317 1.471 
55 1 3.987 -5.507 -11.673 
56 1 -8.720 0.370 13.131 
57 1 6.762 9.617 7.096 
58 1 14.168 -2.082 -9.505 
59 1 4.699 -9.082 -12.329 
60 1 -0.006 2.276 -0.390 
61 1 12.905 11.739 4.517 
62 1 -12.004 -5.890 -10.908 
63 1 6.177 15.050 7.835 
64 1 -7.376 -10.685 3.709 
65 1 -6.695 7.239 10.492 
66 1 -8.877 12.360 -4.213 
67 1 10.443 2.568 5.110 
68 1 13.396 3.892 -6.684 
69 1 1.404 -7.519 -13.681 
70 1 -6.204 10.539 8.230 
71 1 13.558 0.093 4.156 
72 1 10.125 -13.499 2.628 
73 1 -7.627 -14.481 3.224 
74 1 -10.223 1.236 -13.274 
75 1 0.236 -11.995 1.771 
76 1 9.594 13.855 14.168 
77 1 -4.903 -7.981 0.767 
78 1 1.523 -7.861 -9.961 
79 1 6.185 -10.589 14.841 
80 1 -13.822 -2.029 5.701 
81 1 -1.967 -5.031 -10.199 
82 1 -6.445 13.186 5.650 
83 1 -4.547 -11.356 -3.702 
84 1 -7.333 0.816 9.626 
85 1 -14.587 11.056 -12.003 
86 1 -3.744 -8.975 -6.514 
87 1 -6.331 9.984 -8.896 
88 1 0.446 3.189 -4.048 
89 1 -2.838 -3.163 -7.142 
90 1 3.078 4.228 -1.447 
91 1 13.155 -11.141 3.248 
92 1 -0.505 14.722 7.049 
93 1 -9.201 4.707 -8.399 
94 1 12.604 7.097 -8.704 
95 1 0.803 15.003 3.603 
96 1 -9.526 5.898 -4.727 
97 1 -5.560 5.334 7.385 
98 1 -12.760 3.300 -8.146 
99 1 -5.895 11.149 -2.156 
100 1 1.774 -1.772 -5.634 
101 1 -1.777 11.328 7.961 
102 1 -10.474 -7.968 4.645 
103 1 14.698 -5.825 -9.318 
104 1 -10.272 10.237 -11.417 
105 1 -6.304 -11.840 9.923 
106 1 7.623 -6.565 -11.483 
107 1 -1.195 -0.935 1.283 
108 1 8.677 11.939 -13.015 
109 1 -6.515 6.789 3.990 
110 1 -2.297 4.940 10.297 
111 1 1.581 -4.386 11.376 
112 1 8.971 13.897 10.349 
113 1 -12.321 4.321 -11.786 
114 1 7.609 4.327 9.082 
115 1 -8.582 -8.562 -12.594 
116 1 0.230 -2.428 -2.060 
117 1 9.658 -3.533 4.640 
118 1 -6.458 -4.132 -2.895 
119 1 10.555 -11.848 -11.640 
120 1 -5.246 -1.401 7.575 
121 1 5.110 3.199 -14.196 
122 1 -7.606 9.044 -5.402 
123 1 -5.614 9.808 1.601 
124 1 4.626 3.894 6.729 
125 1 1.462 -4.358 -8.690 
126 1 -9.774 -6.453 7.984 
127 1 -3.855 2.115 8.299 
128 1 14.557 12.219 -5.754 
129 1 0.080 12.006 13.754 
130 1 11.371 -4.324 -10.953 
131 1 -3.336 0.456 4.851 
132 1 -9.720 11.727 7.431 
133 1 7.563 -2.777 -10.889 
134 1 12.420 14.860 11.847 
135 1 13.578 -4.514 4.824 
136 1 -3.407 -0.784 10.743 
137 1 1.298 5.169 1.732 
138 1 -2.283 13.485 -3.833 
139 1 -4.788 -10.556 -12.110 
140 1 -1.044 13.838 10.647 
141 1 -5.195 -1.270 -4.982 
142 1 -9.943 0.523 7.064 
143 1 -5.224 -7.650 -3.255 
144 1 -4.090 14.079 8.252 
145 1 -8.524 7.656 7.241 
146 1 -6.392 -4.662 -6.633 
147 1 -12.521 -4.805 -7.295 
148 1 0.213 8.376 7.205 
149 1 -7.015 -2.570 -13.681 
150 1 -4.972 -10.116 6.528 
151 1 5.310 1.975 0.685 
152 1 -9.336 4.331 5.064 
153 1 3.239 -2.002 8.680 
154 1 -3.038 -12.379 15.080 
155 1 -5.251 7.752 13.963 
156 1 -0.454 6.028 -1.577 
157 1 12.184 10.350 -13.209 
158 1 -4.131 -2.405 14.152 
159 1 -13.141 7.901 -10.418 
160 1 -7.666 -2.722 10.729 
161 1 -6.814 -12.322 -14.830 
162 1 4.716 -10.350 5.649 
163 1 -1.002 -6.484 -6.799 
164 1 5.573 11.939 9.939 
165 1 -4.773 11.397 -5.719 
166 1 -4.280 -5.304 -13.226 
167 1 -3.785 4.192 4.291 
168 1 -2.031 7.441 2.096 
169 1 -6.580 -1.683 4.161 
170 1 -8.113 10.142 4.425 
171 1 2.684 0.518 -2.368 
172 1 3.166 10.899 7.161 
173 1 -3.842 8.037 -1.275 
174 1 -15.104 -4.078 -12.582 
175 1 10.721 -3.943 12.428 
176 1 3.633 2.239 12.716 
177 1 11.477 13.272 -10.917 
178 1 2.916 2.227 3.615 
179 1 -6.631 -13.499 6.693 
180 1 -2.759 -4.614 -3.704 
181 1 10.875 -13.237 9.205 
182 1 -7.697 -5.431 4.363 
183 1 6.748 2.006 4.262 
184 1 -2.532 9.434 -8.052 
185 1 12.978 -0.098 0.407 
186 1 -2.148 13.262 -7.680 
187 1 -4.262 -14.548 11.631 
188 1 7.834 5.521 5.465 
189 1 11.362 10.438 9.819 
190 1 2.867 -13.544 6.402 
191 1 -3.496 -14.474 4.888 
192 1 -5.426 -3.393 -10.118 
193 1 -8.173 -12.076 -11.225 
194 1 4.944 11.913 -4.577 
195 1 -12.561 2.469 8.362 
196 1 -5.079 10.791 11.619 
197 1 -4.922 2.452 11.891 
198 1 -1.915 0.892 13.874 
199 1 9.528 0.768 1.919 
200 1 6.287 -13.232 -6.879 
ITEM: TIMESTEP
60
ITEM: NUMBER OF ATOMS
200
ITEM: BOX BOUNDS pp pp pp
-15.145370694641318 15.145370694641318
-15.145370694641318 15.145370694641318
-15.145370694641318 15.145370694641318
ITEM: ATOMS id type x y z
1 1 4.947 5.062 2.859 
2 1 3.272 13.622 1.272 
3 1 2.570 1.348 -11.651 
4 1 -3.453 8.111 8.771 
5 1 -10.495 -2.387 4.076 
6 1 2.473 13.889 8.893 
7 1 5.872 -2.248 5.675 
8 1 1.058 10.693 10.241 
9 1 3.786 13.577 5.047 
10 1 -7.555 7.845 -1.658 
11 1 -0.706 -12.088 5.451 
12 1 11.595 13.720 7.700 
13 1 -8.174 -6.983 -0.867 
14 1 -14.107 -7.984 5.523 
15 1 7.157 2.491 12.420 
16 1 0.103 14.716 -10.312 
17 1 -2.437 -10.611 -0.615 
18 1 -1.204 -11.404 -5.359 
19 1 -6.565 1.971 5.925 
20 1 -1.578 -0.119 -4.552 
21 1 0.896 -3.718 -12.402 
22 1 -2.215 -8.743 -9.868 
23 1 10.060 9.750 -10.110 
24 1 13.605 10.587 -9.282 
25 1 -8.676 10.231 10.716 
26 1 7.584 -13.680 -13.273 
27 1 -12.815 1.365 4.581 
28 1 -13.001 11.118 -8.465 
29 1 -1.200 6.732 -5.080 
30 1 -8.548 -2.855 7.292 
31 1 -9.257 1.134 3.258 
32 1 0.298 11.607 4.951 
33 1 -0.042 -1.176 -9.735 
34 1 -10.865 7.048 11.105 
35 1 -2.904 -12.880 8.412 
36 1 -10.659 3.209 11.779 
37 1 4.267 -7.344 14.507 
38 1 -3.537 -11.187 3.052 
39 1 -8.799 4.228 8.839 
40 1 0.672 3.145 -14.392 
41 1 -1.589 -8.183 -3.456 
42 1 15.071 13.985 -9.669 
43 1 -14.549 -2.317 2.262 
44 1 3.706 -1.961 -10.399 
45 1 5.070 -14.656 -3.500 
46 1 -7.482 13.814 9.612 
47 1 -8.520 -10.229 7.257 
48 1 3.755 -13.297 2.940 
49 1 5.289 1.253 9.225 
50 1 6.347 9.859 -10.907 
51 1 -3.964 9.551 5.150 
52 1 2.278 7.106 9.922 
53 1 7.034 -11.046 -10.348 
54 1 11.184 13.353 1.550 
55 1 4.071 -5.488 -11.551 
56 1 -8.235 0.447 13.081 
57 1 6.792 9.520 7.132 
58 1 14.268 -2.190 -9.417 
59 1 4.458 -9.084 -12.331 
60 1 -0.048 2.282 -0.261 
61 1 12.791 11.811 4.647 
62 1 -12.168 -5.863 -11.006 
63 1 6.002 15.004 7.794 
64 1 -7.238 -10.481 3.687 
65 1 -6.710 7.079 10.444 
66 1 -8.519 12.281 -4.318 
67 1 10.326 2.486 5.228 
68 1 13.717 3.954 -6.894 
69 1 1.229 -7.327 -13.540 
70 1 -6.160 10.500 7.960 
71 1 13.473 -0.103 4.392 
72 1 10.165 -13.493 2.836 
73 1 -7.145 -14.245 3.187 
74 1 -10.092 1.300 -13.553 
75 1 0.181 -11.965 1.796 
76 1 9.527 14.024 14.155 
77 1 -5.035 -8.281 0.801 
78 1 1.441 -7.796 -9.872 
79 1 6.328 -10.593 15.048 
80 1 -13.734 -1.989 5.943 
81 1 -1.801 -5.066 -10.257 
82 1 -6.348 13.182 5.480 
83 1 -4.554 -11.205 -3.636 
84 1 -7.224 0.960 9.482 
85 1 -14.282 11.053 -12.060 
86 1 -3.911 -8.763 -6.480 
87 1 -6.400 9.966 -8.826 
88 1 0.302 3.190 -3.965 
89 1 -2.266 -2.891 -7.242 
90 1 2.975 4.224 -1.329 
91 1 13.183 -11.112 3.407 
92 1 -0.616 14.698 7.017 
93 1 -9.534 5.020 -8.563 
94 1 12.787 7.015 -8.979 
95 1 0.593 15.086 3.580 
96 1 -9.570 5.822 -4.720 
97 1 -5.441 5.187 7.405 
98 1 -13.009 3.628 -8.059 
99 1 -5.684 11.108 -2.053 
100 1 1.421 -1.875 -5.814 
101 1 -1.855 11.321 7.981 
102 1 -10.320 -8.225 4.471 
103 1 14.594 -5.959 -9.333 
104 1 -10.581 10.160 -11.164 
105 1 -6.189 -11.716 10.000 
106 1 7.613 -6.946 -11.536 
107 1 -1.250 -0.891 1.320 
108 1 8.746 11.977 -13.002 
109 1 -6.345 6.648 4.130 
110 1 -2.578 4.985 10.418 
111 1 1.771 -4.308 11.457 
112 1 8.713 13.788 10.285 
113 1 -11.966 4.401 -11.610 
114 1 7.508 4.279 8.972 
115 1 -8.171 -8.569 -12.645 
116 1 0.039 -2.438 -2.129 
117 1 9.799 -2.971 4.553 
118 1 -6.430 -4.077 -2.702 
119 1 10.517 -11.945 -11.619 
120 1 -5.155 -1.381 7.481 
121 1 4.834 3.028 -14.353 
122 1 -7.423 8.826 -5.323 
123 1 -5.494 9.484 1.548 
124 1 4.455 4.001 6.612 
125 1 1.506 -4.357 -8.612 
126 1 -9.565 -6.545 7.736 
127 1 -3.789 2.037 8.208 
128 1 14.633 12.386 -6.122 
129 1 -0.062 11.976 13.616 
130 1 11.398 -4.390 -10.977 
131 1 -3.338 0.379 4.730 
132 1 -9.617 11.666 7.317 
133 1 7.360 -3.154 -10.952 
134 1 12.254 14.384 11.456 
135 1 13.583 -4.156 4.813 
136 1 -3.871 -0.669 10.902 
137 1 1.178 5.159 1.934 
138 1 -2.423 13.459 -3.741 
139 1 -4.783 -10.314 -12.275 
140 1 -1.123 13.931 10.574 
141 1 -5.026 -1.522 -5.048 
142 1 -9.863 0.551 6.816 
143 1 -5.209 -7.529 -3.175 
144 1 -4.108 13.975 8.254 
145 1 -8.555 7.672 7.240 
146 1 -5.432 -5.109 -6.407 
147 1 -12.676 -4.621 -7.448 
148 1 0.070 8.277 7.059 
149 1 -7.021 -2.496 -13.515 
150 1 -4.782 -10.260 6.543 
151 1 5.196 1.898 0.707 
152 1 -9.408 4.324 5.167 
153 1 3.328 -1.967 8.698 
154 1 -3.199 -12.440 14.946 
155 1 -5.083 7.822 13.642 
156 1 -0.513 5.909 -1.378 
157 1 12.345 10.422 -13.014 
158 1 -4.223 -2.316 14.247 
159 1 -13.532 7.737 -10.147 
160 1 -7.110 -2.475 10.822 
161 1 -6.935 -12.101 -14.892 
162 1 4.644 -10.591 5.450 
163 1 -1.045 -6.451 -6.833 
164 1 5.454 11.822 9.893 
165 1 -4.974 11.569 -5.706 
166 1 -4.209 -5.208 -13.219 
167 1 -3.598 4.110 4.425 
168 1 -2.422 7.253 2.258 
169 1 -6.777 -1.550 4.203 
170 1 -7.864 10.020 4.441 
171 1 2.503 0.497 -2.402 
172 1 3.135 10.566 7.174 
173 1 -3.711 7.928 -1.442 
174 1 15.061 -4.113 -12.583 
175 1 10.699 -3.937 12.488 
176 1 3.363 2.246 12.529 
177 1 11.488 13.375 -10.831 
178 1 2.769 2.096 3.607 
179 1 -6.535 -13.597 6.851 
180 1 -2.767 -4.538 -3.907 
181 1 10.532 -13.306 9.194 
182 1 -7.824 -5.326 4.444 
183 1 6.613 1.878 4.347 
184 1 -2.666 9.359 -7.746 
185 1 12.933 -0.183 0.644 
186 1 -2.161 13.193 -7.612 
187 1 -4.371 -14.631 11.612 
188 1 7.773 5.455 5.398 
189 1 11.059 10.827 10.031 
190 1 2.587 -13.546 6.524 
191 1 -3.509 -14.547 4.862 
192 1 -5.188 -3.415 -9.945 
193 1 -8.053 -12.103 -11.241 
194 1 4.918 11.984 -4.610 
195 1 -12.303 2.922 8.224 
196 1 -4.748 10.989 11.294 
197 1 -5.141 2.678 11.949 
198 1 -2.033 1.006 13.789 
199 1 9.443 0.536 2.120 
200 1 6.259 -13.228 -7.006 
ITEM: TIMESTEP
70
ITEM: NUMBER OF ATOMS
200
ITEM: BOX BOUNDS pp pp pp
-15.145370694641318 15.145370694641318
-15.145370694641318 15.145370694641318
-15.145370694641318 15.145370694641318
ITEM: ATOMS id type x y z
1 1 4.890 4.996 2.839 
2 1 3.176 13.607 1.325 
3 1 2.440 1.293 -11.695 
4 1 -3.463 8.137 8.776 
5 1 -10.561 -2.262 4.137 
6 1 2.403 13.765 8.816 
7 1 6.012 -1.837 5.696 
8 1 0.957 10.625 10.218 
9 1 3.602 13.526 5.112 
10 1 -7.506 7.849 -1.606 
11 1 -0.787 -12.060 5.481 
12 1 11.468 13.737 7.670 
13 1 -8.158 -6.935 -0.803 
14 1 -14.033 -7.856 5.440 
15 1 6.994 2.528 12.388 
16 1 0.075 14.727 -10.274 
17 1 -2.389 -10.577 -0.635 
18 1 -1.255 -11.306 -5.494 
19 1 -6.561 2.004 5.844 
20 1 -1.623 -0.044 -4.506 
21 1 0.953 -3.604 -12.402 
22 1 -2.250 -8.737 -9.818 
23 1 10.088 9.773 -10.081 
24 1 13.658 10.554 -9.306 
25 1 -8.524 10.217 10.668 
26 1 7.643 -13.821 -13.302 
27 1 -12.792 1.288 4.552 
28 1 -12.988 11.077 -8.416 
29 1 -1.351 6.769 -4.894 
30 1 -8.581 -2.869 7.362 
31 1 -9.227 1.197 3.160 
32 1 0.294 11.597 4.980 
33 1 0.020 -1.126 -9.708 
34 1 -10.464 6.880 10.758 
35 1 -2.867 -12.943 8.507 
36 1 -10.527 3.053 11.795 
37 1 4.345 -7.252 14.748 
38 1 -3.560 -11.308 2.963 
39 1 -8.658 4.203 8.830 
40 1 0.821 2.997 -14.693 
41 1 -1.577 -8.161 -3.475 
42 1 15.129 13.961 -9.713 
43 1 -14.356 -2.123 2.401 
44 1 3.751 -1.940 -10.349 
45 1 5.075 -14.608 -3.559 
46 1 -7.495 13.774 9.632 
47 1 -8.433 -10.256 7.215 
48 1 3.676 -13.342 2.994 
49 1 5.244 1.270 9.136 
50 1 6.385 9.909 -10.921 
51 1 -3.856 9.464 5.116 
52 1 2.388 7.149 9.700 
53 1 7.018 -11.039 -10.487 
54 1 11.170 13.375 1.581 
55 1 4.049 -5.504 -11.515 
56 1 -8.002 0.425 13.154 
57 1 6.803 9.437 7.157 
58 1 14.343 -2.282 -9.353 
59 1 4.273 -9.132 -12.237 
60 1 -0.066 2.264 -0.190 
61 1 12.756 11.817 4.677 
62 1 -12.237 -5.849 -11.034 
63 1 5.901 14.979 7.757 
64 1 -7.166 -10.332 3.631 
65 1 -6.664 6.988 10.437 
66 1 -8.479 12.217 -4.327 
67 1 10.242 2.398 5.312 
68 1 13.685 3.997 -6.914 
69 1 1.148 -7.224 -13.483 
70 1 -6.084 10.496 7.878 
71 1 13.361 -0.186 4.517 
72 1 10.188 -13.497 2.957 
73 1 -6.862 -14.066 3.183 
74 1 -10.001 1.348 -13.700 
75 1 0.180 -11.909 1.835 
76 1 9.478 14.093 14.126 
77 1 -5.094 -8.410 0.835 
78 1 1.405 -7.814 -9.827 
79 1 6.411 -10.552 -15.012 
80 1 -13.737 -1.973 6.117 
81 1 -1.723 -5.080 -10.288 
82 1 -6.351 13.212 5.398 
83 1 -4.550 -11.168 -3.618 
84 1 -7.254 0.910 9.437 
85 1 -14.195 11.034 -12.054 
86 1 -3.960 -8.765 -6.459 
87 1 -6.455 9.937 -8.797 
88 1 0.264 3.249 -3.895 
89 1 -2.129 -2.911 -7.222 
90 1 2.951 4.208 -1.220 
91 1 13.199 -11.100 3.477 
92 1 -0.633 14.709 6.983 
93 1 -9.577 5.267 -8.581 
94 1 12.865 6.972 -9.150 
95 1 0.452 15.103 3.572 
96 1 -9.585 5.830 -4.732 
97 1 -5.441 5.249 7.446 
98 1 -13.025 3.818 -8.072 
99 1 -5.596 11.098 -2.064 
100 1 1.312 -1.882 -5.816 
101 1 -1.810 11.127 7.934 
102 1 -10.282 -8.261 4.425 
103 1 14.541 -6.051 -9.368 
104 1 -10.603 9.965 -11.094 
105 1 -6.125 -11.670 10.018 
106 1 7.526 -7.156 -11.597 
107 1 -1.295 -0.909 1.347 
108 1 8.816 12.024 -13.004 
109 1 -6.296 6.594 4.111 
110 1 -2.666 4.934 10.419 
111 1 1.854 -4.261 11.499 
112 1 8.590 13.807 10.280 
113 1 -11.871 4.481 -11.614 
114 1 7.467 4.277 8.924 
115 1 -8.062 -8.559 -12.720 
116 1 -0.006 -2.401 -2.112 
117 1 9.924 -2.573 4.509 
118 1 -6.383 -4.058 -2.713 
119 1 10.512 -12.009 -11.621 
120 1 -5.143 -1.410 7.513 
121 1 4.717 2.939 -14.430 
122 1 -7.279 8.745 -5.270 
123 1 -5.475 9.390 1.500 
124 1 4.379 4.044 6.588 
125 1 1.525 -4.357 -8.611 
126 1 -9.514 -6.535 7.679 
127 1 -3.731 2.052 8.230 
128 1 14.572 12.450 -6.191 
129 1 -0.172 11.938 13.577 
130 1 11.393 -4.397 -10.970 
131 1 -3.371 0.321 4.655 
132 1 -9.568 11.630 7.271 
133 1 7.298 -3.354 -10.987 
134 1 12.186 14.301 11.405 
135 1 13.579 -4.016 4.775 
136 1 -3.914 -0.536 10.914 
137 1 1.106 5.141 2.054 
138 1 -2.481 13.405 -3.677 
139 1 -4.689 -10.294 -12.346 
140 1 -1.183 13.909 10.582 
141 1 -4.970 -1.629 -5.163 
142 1 -9.846 0.544 6.775 
143 1 -5.176 -7.507 -3.100 
144 1 -4.298 14.073 8.243 
145 1 -8.533 7.658 7.287 
146 1 -5.185 -5.217 -6.439 
147 1 -12.816 -4.480 -7.539 
148 1 -0.042 8.216 6.958 
149 1 -6.998 -2.459 -13.418 
150 1 -4.682 -10.401 6.478 
151 1 5.158 1.816 0.744 
152 1 -9.425 4.355 5.256 
153 1 3.367 -1.978 8.676 
154 1 -3.283 -12.472 14.862 
155 1 -4.877 7.947 13.475 
156 1 -0.521 5.886 -1.258 
157 1 12.413 10.454 -12.955 
158 1 -4.311 -2.235 14.230 
159 1 -13.665 7.695 -10.059 
160 1 -7.070 -2.528 10.862 
161 1 -6.993 -11.946 -14.920 
162 1 4.630 -10.639 5.458 
163 1 -1.061 -6.472 -6.840 
164 1 5.397 11.763 9.865 
165 1 -5.029 11.646 -5.736 
166 1 -4.205 -5.168 -13.184 
167 1 -3.500 4.094 4.499 
168 1 -2.490 7.112 2.271 
169 1 -6.845 -1.482 4.238 
170 1 -7.778 9.957 4.426 
171 1 2.426 0.502 -2.417 
172 1 3.106 10.386 7.184 
173 1 -3.675 7.889 -1.523 
174 1 14.987 -4.131 -12.592 
175 1 10.689 -3.936 12.523 
176 1 3.205 2.238 12.440 
177 1 11.505 13.390 -10.749 
178 1 2.709 2.040 3.620 
179 1 -6.538 -13.653 6.923 
180 1 -2.667 -4.507 -3.834 
181 1 10.414 -13.315 9.249 
182 1 -7.901 -5.237 4.437 
183 1 6.537 1.816 4.412 
184 1 -2.754 9.316 -7.587 
185 1 12.913 -0.265 0.784 
186 1 -2.139 13.157 -7.565 
187 1 -4.455 -14.715 11.603 
188 1 7.729 5.407 5.348 
189 1 10.969 10.876 10.094 
190 1 2.491 -13.543 6.563 
191 1 -3.502 -14.562 4.894 
192 1 -5.076 -3.414 -9.848 
193 1 -7.957 -12.069 -11.239 
194 1 4.909 12.023 -4.635 
195 1 -12.177 3.075 8.139 
196 1 -4.517 11.191 11.107 
197 1 -5.294 2.833 11.922 
198 1 -2.120 1.112 13.761 
199 1 9.392 0.406 2.238 
200 1 6.249 -13.210 -7.090 
ITEM: TIMESTEP
80
ITEM: NUMBER OF ATOMS
200
ITEM: BOX BOUNDS pp pp pp
-15.145370694641318 15.145370694641318
-15.145370694641318 15.145370694641318
-15.145370694641318 15.145370694641318
ITEM: ATOMS id type x y z
1 1 4.817 4.949 2.790 
2 1 3.055 13.557 1.377 
3 1 2.348 1.209 -11.801 
4 1 -3.447 8.153 8.893 
5 1 -10.628 -2.168 4.192 
6 1 2.341 13.659 8.805 
7 1 6.129 -1.559 5.814 
8 1 0.862 10.522 10.198 
9 1 3.480 13.502 5.144 
10 1 -7.488 7.852 -1.552 
11 1 -0.852 -12.031 5.519 
12 1 11.303 13.743 7.649 
13 1 -8.123 -6.862 -0.750 
14 1 -13.973 -7.698 5.371 
15 1 6.849 2.563 12.328 
16 1 0.050 14.746 -10.233 
17 1 -2.318 -10.546 -0.647 
18 1 -1.262 -11.247 -5.623 
19 1 -6.559 2.069 5.842 
20 1 -1.643 -0.008 -4.471 
21 1 1.002 -3.480 -12.399 
22 1 -2.298 -8.740 -9.787 
23 1 10.118 9.793 -10.071 
24 1 13.704 10.515 -9.303 
25 1 -8.350 10.124 10.622 
26 1 7.703 -13.972 -13.325 
27 1 -12.791 1.208 4.520 
28 1 -12.967 11.043 -8.371 
29 1 -1.518 6.801 -4.702 
30 1 -8.598 -2.836 7.413 
31 1 -9.223 1.272 3.124 
32 1 0.252 11.569 4.937 
33 1 0.071 -1.083 -9.652 
34 1 -10.369 6.786 10.576 
35 1 -2.814 -13.007 8.610 
36 1 -10.295 2.915 11.737 
37 1 4.444 -7.137 15.076 
38 1 -3.576 -11.435 2.860 
39 1 -8.476 4.106 8.767 
40 1 0.856 2.880 -14.895 
41 1 -1.551 -8.161 -3.501 
42 1 -15.099 13.923 -9.768 
43 1 -14.221 -1.891 2.564 
44 1 3.807 -1.932 -10.318 
45 1 5.086 -14.551 -3.645 
46 1 -7.511 13.741 9.642 
47 1 -8.330 -10.249 7.173 
48 1 3.601 -13.399 3.048 
49 1 5.214 1.275 9.004 
50 1 6.431 9.976 -10.944 
51 1 -3.769 9.314 5.103 
52 1 2.537 7.179 9.415 
53 1 6.986 -11.091 -10.668 
54 1 11.153 13.399 1.614 
55 1 3.996 -5.536 -11.491 
56 1 -7.751 0.316 13.219 
57 1 6.766 9.310 7.186 
58 1 14.403 -2.379 -9.301 
59 1 4.040 -9.215 -12.102 
60 1 -0.084 2.238 -0.107 
61 1 12.719 11.825 4.710 
62 1 -12.304 -5.833 -11.055 
63 1 5.811 14.954 7.744 
64 1 -7.097 -10.179 3.601 
65 1 -6.579 6.811 10.504 
66 1 -8.518 12.089 -4.291 
67 1 10.139 2.265 5.418 
68 1 13.655 4.053 -6.940 
69 1 1.048 -7.126 -13.405 
70 1 -5.980 10.544 7.811 
71 1 13.324 -0.157 4.664 
72 1 10.215 -13.511 3.104 
73 1 -6.688 -13.887 3.176 
74 1 -9.895 1.399 -13.859 
75 1 0.188 -11.856 1.891 
76 1 9.420 14.151 14.096 
77 1 -5.099 -8.489 0.800 
78 1 1.340 -7.810 -9.755 
79 1 6.538 -10.462 -14.634 
80 1 -13.752 -1.951 6.301 
81 1 -1.640 -5.105 -10.332 
82 1 -6.393 13.242 5.301 
83 1 -4.512 -11.174 -3.585 
84 1 -7.293 0.769 9.430 
85 1 -14.109 10.967 -12.031 
86 1 -4.008 -8.805 -6.442 
87 1 -6.538 9.881 -8.765 
88 1 0.216 3.308 -3.803 
89 1 -2.045 -2.937 -7.227 
90 1 2.934 4.196 -1.066 
91 1 13.214 -11.089 3.547 
92 1 -0.653 14.674 6.995 
93 1 -9.623 5.608 -8.610 
94 1 12.863 6.931 -9.317 
95 1 0.329 15.114 3.560 
96 1 -9.585 5.891 -4.738 
97 1 -5.319 5.315 7.413 
98 1 -13.049 4.086 -8.103 
99 1 -5.535 11.074 -2.108 
100 1 1.297 -1.866 -5.766 
101 1 -1.832 11.137 7.874 
102 1 -10.261 -8.256 4.394 
103 1 14.487 -6.158 -9.416 
104 1 -10.583 9.717 -10.973 
105 1 -6.059 -11.647 10.022 
106 1 7.373 -7.351 -11.763 
107 1 -1.350 -0.938 1.384 
108 1 8.886 12.096 -12.998 
109 1 -6.249 6.496 4.052 
110 1 -2.675 4.918 10.426 
111 1 1.936 -4.202 11.541 
112 1 8.478 13.815 10.295 
113 1 -11.794 4.582 -11.641 
114 1 7.418 4.288 8.870 
115 1 -7.949 -8.538 -12.801 
116 1 -0.025 -2.348 -2.057 
117 1 10.066 -2.296 4.616 
118 1 -6.325 -4.038 -2.736 
119 1 10.515 -12.089 -11.635 
120 1 -5.099 -1.458 7.517 
121 1 4.678 2.824 -14.541 
122 1 -7.073 8.673 -5.200 
123 1 -5.427 9.322 1.465 
124 1 4.290 4.124 6.570 
125 1 1.546 -4.338 -8.582 
126 1 -9.475 -6.542 7.650 
127 1 -3.736 2.056 8.192 
128 1 14.532 12.515 -6.245 
129 1 -0.334 11.855 13.538 
130 1 11.385 -4.387 -10.947 
131 1 -3.417 0.287 4.620 
132 1 -9.503 11.573 7.251 
133 1 7.280 -3.544 -11.019 
134 1 12.109 14.282 11.371 
135 1 13.643 -3.959 4.718 
136 1 -4.013 -0.414 10.935 
137 1 1.022 5.104 2.203 
138 1 -2.526 13.320 -3.614 
139 1 -4.591 -10.287 -12.426 
140 1 -1.252 13.872 10.555 
141 1 -4.936 -1.666 -5.262 
142 1 -9.828 0.583 6.739 
143 1 -5.137 -7.503 -3.055 
144 1 -4.312 14.060 8.179 
145 1 -8.409 7.636 7.320 
146 1 -5.043 -5.257 -6.460 
147 1 -12.972 -4.333 -7.635 
148 1 -0.152 8.156 6.851 
149 1 -6.983 -2.401 -13.316 
150 1 -4.574 -10.586 6.397 
151 1 5.132 1.710 0.784 
152 1 -9.452 4.395 5.260 
153 1 3.399 -2.003 8.645 
154 1 -3.379 -12.516 14.753 
155 1 -4.571 8.153 13.245 
156 1 -0.530 5.880 -1.118 
157 1 12.470 10.496 -12.920 
158 1 -4.454 -2.135 14.205 
159 1 -13.690 7.643 -9.975 
160 1 -7.011 -2.635 10.896 
161 1 -7.043 -11.783 -14.958 
162 1 4.612 -10.700 5.487 
163 1 -1.088 -6.507 -6.860 
164 1 5.350 11.691 9.822 
165 1 -5.108 11.760 -5.791 
166 1 -4.206 -5.130 -13.158 
167 1 -3.379 4.051 4.544 
168 1 -2.514 6.990 2.227 
169 1 -6.916 -1.419 4.296 
170 1 -7.677 9.891 4.423 
171 1 2.387 0.538 -2.421 
172 1 3.047 10.289 7.151 
173 1 -3.668 7.854 -1.597 
174 1 14.916 -4.150 -12.602 
175 1 10.679 -3.937 12.566 
176 1 3.092 2.201 12.297 
177 1 11.532 13.397 -10.659 
178 1 2.657 1.983 3.642 
179 1 -6.576 -13.692 6.970 
180 1 -2.604 -4.488 -3.812 
181 1 10.309 -13.313 9.292 
182 1 -7.992 -5.146 4.405 
183 1 6.470 1.895 4.423 
184 1 -2.865 9.269 -7.432 
185 1 12.864 -0.379 0.950 
186 1 -2.081 13.103 -7.504 
187 1 -4.544 -14.808 11.583 
188 1 7.686 5.395 5.297 
189 1 10.849 10.882 10.103 
190 1 2.417 -13.555 6.615 
191 1 -3.487 -14.571 4.938 
192 1 -4.963 -3.382 -9.796 
193 1 -7.844 -12.021 -11.239 
194 1 4.898 12.066 -4.665 
195 1 -12.053 3.220 8.067 
196 1 -4.303 11.382 11.000 
197 1 -5.512 3.014 11.772 
198 1 -2.254 1.253 13.741 
199 1 9.278 0.481 2.210 
200 1 6.240 -13.186 -7.197 
ITEM: TIMESTEP
90
ITEM: NUMBER OF ATOMS
200
ITEM: BOX BOUNDS pp pp pp
-15.145370694641318 15.145370694641318
-15.145370694641318 15.145370694641318
-15.145370694641318 15.145370694641318
ITEM: ATOMS id type x y z
1 1 4.747 4.934 2.740 
2 1 2.950 13.509 1.406 
3 1 2.315 1.105 -11.917 
4 1 -3.410 8.254 9.065 
5 1 -10.653 -2.126 4.229 
6 1 2.297 13.596 8.832 
7 1 6.236 -1.424 5.963 
8 1 0.790 10.416 10.154 
9 1 3.382 13.508 5.161 
10 1 -7.507 7.856 -1.513 
11 1 -0.869 -12.027 5.540 
12 1 11.161 13.752 7.626 
13 1 -8.081 -6.797 -0.710 
14 1 -13.934 -7.532 5.324 
15 1 6.768 2.578 12.243 
16 1 0.029 14.766 -10.194 
17 1 -2.230 -10.534 -0.660 
18 1 -1.248 -11.206 -5.717 
19 1 -6.559 2.147 5.824 
20 1 -1.648 0.006 -4.456 
21 1 1.040 -3.383 -12.391 
22 1 -2.352 -8.740 -9.780 
23 1 10.143 9.807 -10.075 
24 1 13.742 10.478 -9.291 
25 1 -8.199 10.008 10.579 
26 1 7.724 -14.067 -13.324 
27 1 -12.805 1.238 4.552 
28 1 -12.934 11.016 -8.332 
29 1 -1.591 6.786 -4.614 
30 1 -8.612 -2.793 7.458 
31 1 -9.240 1.323 3.105 
32 1 0.196 11.540 4.851 
33 1 0.120 -1.039 -9.599 
34 1 -10.309 6.658 10.453 
35 1 -2.746 -13.048 8.682 
36 1 -10.017 2.801 11.683 
37 1 4.538 -7.059 -14.930 
38 1 -3.553 -11.477 2.786 
39 1 -8.309 4.037 8.670 
40 1 0.840 2.809 -15.005 
41 1 -1.538 -8.167 -3.527 
42 1 -15.045 13.875 -9.820 
43 1 -14.178 -1.787 2.630 
44 1 3.857 -1.939 -10.290 
45 1 5.098 -14.501 -3.734 
46 1 -7.480 13.685 9.641 
47 1 -8.252 -10.219 7.154 
48 1 3.552 -13.448 3.092 
49 1 5.207 1.283 8.857 
50 1 6.466 10.039 -10.967 
51 1 -3.716 9.133 5.140 
52 1 2.650 7.144 9.202 
53 1 6.949 -11.166 -10.700 
54 1 11.138 13.417 1.642 
55 1 3.933 -5.571 -11.411 
56 1 -7.523 0.235 13.242 
57 1 6.680 9.135 7.208 
58 1 14.366 -2.411 -9.309 
59 1 3.882 -9.303 -11.996 
60 1 -0.102 2.219 -0.035 
61 1 12.688 11.836 4.741 
62 1 -12.350 -5.820 -11.074 
63 1 5.744 14.936 7.743 
64 1 -7.029 -10.074 3.590 
65 1 -6.538 6.666 10.581 
66 1 -8.581 11.920 -4.261 
67 1 10.045 2.128 5.494 
68 1 13.641 4.108 -6.974 
69 1 0.972 -7.056 -13.318 
70 1 -5.865 10.577 7.767 
71 1 13.418 -0.076 4.801 
72 1 10.243 -13.534 3.245 
73 1 -6.667 -13.788 3.191 
74 1 -9.784 1.427 -14.008 
75 1 0.216 -11.808 1.932 
76 1 9.380 14.172 14.062 
77 1 -5.061 -8.523 0.736 
78 1 1.277 -7.804 -9.675 
79 1 6.639 -10.384 -14.401 
80 1 -13.738 -1.920 6.390 
81 1 -1.580 -5.125 -10.372 
82 1 -6.422 13.273 5.251 
83 1 -4.457 -11.178 -3.561 
84 1 -7.378 0.630 9.418 
85 1 -14.022 10.873 -11.998 
86 1 -4.050 -8.833 -6.437 
87 1 -6.654 9.814 -8.724 
88 1 0.177 3.341 -3.719 
89 1 -1.984 -2.954 -7.233 
90 1 2.916 4.194 -0.921 
91 1 13.223 -11.082 3.599 
92 1 -0.634 14.679 6.930 
93 1 -9.702 6.003 -8.657 
94 1 12.840 6.907 -9.447 
95 1 0.232 15.121 3.545 
96 1 -9.559 5.996 -4.761 
97 1 -5.178 5.398 7.384 
98 1 -13.050 4.282 -8.113 
99 1 -5.510 11.040 -2.162 
100 1 1.309 -1.852 -5.711 
101 1 -1.867 11.086 7.825 
102 1 -10.244 -8.244 4.382 
103 1 14.458 -6.203 -9.444 
104 1 -10.522 9.484 -10.823 
105 1 -6.002 -11.647 10.014 
106 1 7.226 -7.456 -11.951 
107 1 -1.403 -0.960 1.421 
108 1 8.940 12.168 -12.988 
109 1 -6.221 6.397 3.999 
110 1 -2.682 4.864 10.467 
111 1 1.997 -4.142 11.579 
112 1 8.387 13.824 10.310 
113 1 -11.735 4.686 -11.657 
114 1 7.376 4.314 8.814 
115 1 -7.852 -8.490 -12.844 
116 1 -0.036 -2.305 -2.008 
117 1 10.134 -2.065 4.692 
118 1 -6.271 -4.021 -2.763 
119 1 10.504 -12.148 -11.648 
120 1 -5.062 -1.496 7.534 
121 1 4.646 2.723 -14.654 
122 1 -6.825 8.619 -5.130 
123 1 -5.383 9.299 1.454 
124 1 4.217 4.227 6.552 
125 1 1.552 -4.316 -8.548 
126 1 -9.445 -6.526 7.634 
127 1 -3.764 2.067 8.173 
128 1 14.521 12.565 -6.287 
129 1 -0.533 11.741 13.465 
130 1 11.367 -4.378 -10.927 
131 1 -3.459 0.275 4.610 
132 1 -9.441 11.497 7.244 
133 1 7.271 -3.691 -11.050 
134 1 12.047 14.267 11.332 
135 1 13.682 -3.891 4.684 
136 1 -4.106 -0.325 10.961 
137 1 0.931 5.072 2.335 
138 1 -2.551 13.224 -3.586 
139 1 -4.515 -10.287 -12.511 
140 1 -1.253 13.875 10.547 
141 1 -4.909 -1.676 -5.334 
142 1 -9.832 0.630 6.709 
143 1 -5.115 -7.500 -3.046 
144 1 -4.339 14.073 8.136 
145 1 -8.262 7.619 7.348 
146 1 -4.973 -5.272 -6.468 
147 1 -13.030 -4.291 -7.673 
148 1 -0.238 8.119 6.800 
149 1 -6.973 -2.350 -13.229 
150 1 -4.512 -10.736 6.346 
151 1 5.121 1.636 0.816 
152 1 -9.469 4.454 5.231 
153 1 3.416 -2.018 8.636 
154 1 -3.454 -12.555 14.647 
155 1 -4.283 8.283 12.984 
156 1 -0.539 5.883 -1.023 
157 1 12.523 10.541 -12.894 
158 1 -4.549 -2.082 14.203 
159 1 -13.707 7.621 -9.908 
160 1 -6.948 -2.748 10.911 
161 1 -7.075 -11.680 -15.000 
162 1 4.604 -10.754 5.516 
163 1 -1.118 -6.531 -6.876 
164 1 5.321 11.623 9.770 
165 1 -5.206 11.891 -5.855 
166 1 -4.214 -5.105 -13.143 
167 1 -3.275 4.027 4.560 
168 1 -2.533 6.917 2.194 
169 1 -6.961 -1.356 4.355 
170 1 -7.578 9.833 4.427 
171 1 2.372 0.573 -2.402 
172 1 2.981 10.278 7.089 
173 1 -3.698 7.812 -1.602 
174 1 14.862 -4.164 -12.619 
175 1 10.666 -3.937 12.600 
176 1 3.029 2.155 12.159 
177 1 11.557 13.399 -10.581 
178 1 2.622 1.953 3.657 
179 1 -6.628 -13.738 7.000 
180 1 -2.556 -4.476 -3.810 
181 1 10.223 -13.307 9.317 
182 1 -8.054 -5.072 4.389 
183 1 6.400 1.957 4.447 
184 1 -3.007 9.240 -7.282 
185 1 12.773 -0.486 1.132 
186 1 -2.025 13.037 -7.448 
187 1 -4.581 -14.862 11.561 
188 1 7.644 5.426 5.254 
189 1 10.742 10.883 10.091 
190 1 2.369 -13.563 6.673 
191 1 -3.499 -14.550 4.957 
192 1 -4.880 -3.353 -9.772 
193 1 -7.749 -11.969 -11.251 
194 1 4.888 12.100 -4.693 
195 1 -11.946 3.347 8.072 
196 1 -4.233 11.488 10.971 
197 1 -5.716 3.112 11.583 
198 1 -2.407 1.400 13.735 
199 1 9.148 0.554 2.174 
200 1 6.232 -13.167 -7.295 
ITEM: TIMESTEP
100
ITEM: NUMBER OF ATOMS
200
ITEM: BOX BOUNDS pp pp pp
-15.145370694641318 15.145370694641318
-15.145370694641318 15.145370694641318
-15.145370694641318 15.145370694641318
ITEM: ATOMS id type x y z
1 1 4.677 4.925 2.706 
2 1 2.859 13.457 1.430 
3 1 2.295 0.971 -12.052 
4 1 -3.329 8.271 9.160 
5 1 -10.668 -2.083 4.247 
6 1 2.268 13.537 8.865 
7 1 6.378 -1.337 6.086 
8 1 0.744 10.297 10.111 
9 1 3.266 13.524 5.178 
10 1 -7.546 7.880 -1.498 
11 1 -0.861 -12.032 5.547 
12 1 11.013 13.767 7.593 
13 1 -8.026 -6.731 -0.671 
14 1 -13.887 -7.337 5.285 
15 1 6.703 2.580 12.136 
16 1 0.003 14.785 -10.140 
17 1 -2.128 -10.530 -0.672 
18 1 -1.227 -11.157 -5.814 
19 1 -6.538 2.230 5.728 
20 1 -1.650 0.014 -4.449 
21 1 1.087 -3.301 -12.369 
22 1 -2.404 -8.729 -9.789 
23 1 10.171 9.821 -10.085 
24 1 13.785 10.441 -9.277 
25 1 -8.089 9.946 10.550 
26 1 7.711 -14.129 -13.308 
27 1 -12.831 1.299 4.593 
28 1 -12.891 10.993 -8.293 
29 1 -1.627 6.749 -4.562 
30 1 -8.636 -2.746 7.493 
31 1 -9.271 1.367 3.075 
32 1 0.146 11.514 4.723 
33 1 0.180 -0.991 -9.541 
34 1 -10.250 6.527 10.346 
35 1 -2.644 -13.045 8.740 
36 1 -9.773 2.742 11.637 
37 1 4.557 -7.015 -14.774 
38 1 -3.518 -11.490 2.733 
39 1 -8.144 3.994 8.578 
40 1 0.811 2.740 -15.111 
41 1 -1.534 -8.173 -3.551 
42 1 -14.985 13.820 -9.879 
43 1 -14.157 -1.712 2.663 
44 1 3.904 -1.948 -10.242 
45 1 5.109 -14.453 -3.824 
46 1 -7.469 13.620 9.645 
47 1 -8.181 -10.187 7.141 
48 1 3.509 -13.495 3.141 
49 1 5.192 1.324 8.708 
50 1 6.501 10.106 -10.990 
51 1 -3.701 8.925 5.197 
52 1 2.764 7.104 9.024 
53 1 6.918 -11.210 -10.678 
54 1 11.122 13.435 1.669 
55 1 3.882 -5.608 -11.284 
56 1 -7.388 0.170 13.242 
57 1 6.525 8.879 7.234 
58 1 14.316 -2.426 -9.325 
59 1 3.809 -9.358 -11.938 
60 1 -0.123 2.206 0.041 
61 1 12.657 11.852 4.774 
62 1 -12.389 -5.807 -11.096 
63 1 5.683 14.916 7.738 
64 1 -6.956 -9.975 3.582 
65 1 -6.464 6.621 10.606 
66 1 -8.644 11.676 -4.242 
67 1 9.952 1.993 5.557 
68 1 13.653 4.176 -7.024 
69 1 0.920 -7.000 -13.219 
70 1 -5.773 10.592 7.740 
71 1 13.544 0.027 4.941 
72 1 10.271 -13.574 3.406 
73 1 -6.685 -13.704 3.223 
74 1 -9.663 1.439 -14.163 
75 1 0.268 -11.746 1.965 
76 1 9.346 14.184 14.035 
77 1 -5.009 -8.556 0.662 
78 1 1.236 -7.829 -9.592 
79 1 6.645 -10.411 -14.348 
80 1 -13.707 -1.891 6.441 
81 1 -1.532 -5.135 -10.406 
82 1 -6.446 13.276 5.216 
83 1 -4.391 -11.172 -3.539 
84 1 -7.439 0.521 9.403 
85 1 -13.936 10.791 -11.974 
86 1 -4.096 -8.858 -6.446 
87 1 -6.830 9.725 -8.647 
88 1 0.146 3.349 -3.640 
89 1 -1.931 -2.958 -7.237 
90 1 2.895 4.187 -0.785 
91 1 13.226 -11.081 3.647 
92 1 -0.666 14.624 6.893 
93 1 -9.788 6.345 -8.635 
94 1 12.806 6.894 -9.575 
95 1 0.139 15.134 3.466 
96 1 -9.496 6.167 -4.799 
97 1 -5.032 5.494 7.359 
98 1 -13.000 4.380 -8.079 
99 1 -5.488 11.007 -2.208 
100 1 1.328 -1.843 -5.656 
101 1 -1.963 11.250 7.798 
102 1 -10.220 -8.228 4.380 
103 1 14.431 -6.222 -9.463 
104 1 -10.471 9.371 -10.724 
105 1 -5.942 -11.657 9.993 
106 1 7.156 -7.502 -11.956 
107 1 -1.453 -0.978 1.458 
108 1 9.000 12.238 -12.971 
109 1 -6.207 6.289 3.959 
110 1 -2.723 4.834 10.529 
111 1 2.047 -4.079 11.620 
112 1 8.298 13.832 10.325 
113 1 -11.687 4.829 -11.636 
114 1 7.324 4.371 8.753 
115 1 -7.745 -8.419 -12.865 
116 1 -0.048 -2.262 -1.960 
117 1 10.207 -1.845 4.725 
118 1 -6.220 -3.997 -2.790 
119 1 10.476 -12.192 -11.649 
120 1 -5.032 -1.536 7.553 
121 1 4.611 2.622 -14.775 
122 1 -6.518 8.565 -5.054 
123 1 -5.349 9.289 1.441 
124 1 4.146 4.340 6.521 
125 1 1.544 -4.307 -8.506 
126 1 -9.418 -6.497 7.628 
127 1 -3.829 2.077 8.171 
128 1 14.522 12.613 -6.332 
129 1 -0.818 11.567 13.341 
130 1 11.332 -4.382 -10.918 
131 1 -3.482 0.269 4.615 
132 1 -9.380 11.422 7.239 
133 1 7.257 -3.784 -11.075 
134 1 11.986 14.253 11.284 
135 1 13.690 -3.795 4.668 
136 1 -4.154 -0.306 10.982 
137 1 0.838 5.049 2.455 
138 1 -2.568 13.111 -3.588 
139 1 -4.440 -10.284 -12.610 
140 1 -1.258 13.881 10.507 
141 1 -4.886 -1.676 -5.400 
142 1 -9.823 0.697 6.673 
143 1 -5.106 -7.489 -3.063 
144 1 -4.200 13.972 8.095 
145 1 -8.147 7.597 7.352 
146 1 -4.921 -5.279 -6.476 
147 1 -13.070 -4.277 -7.698 
148 1 -0.267 8.070 6.785 
149 1 -6.943 -2.295 -13.168 
150 1 -4.487 -10.881 6.316 
151 1 5.120 1.579 0.857 
152 1 -9.490 4.509 5.205 
153 1 3.439 -2.010 8.635 
154 1 -3.516 -12.579 14.545 
155 1 -4.030 8.314 12.856 
156 1 -0.540 5.887 -0.953 
157 1 12.585 10.594 -12.867 
158 1 -4.525 -2.112 14.231 
159 1 -13.739 7.630 -9.856 
160 1 -6.889 -2.843 10.919 
161 1 -7.098 -11.598 -15.043 
162 1 4.607 -10.800 5.536 
163 1 -1.160 -6.548 -6.889 
164 1 5.300 11.550 9.693 
165 1 -5.324 12.027 -5.915 
166 1 -4.226 -5.096 -13.128 
167 1 -3.170 4.011 4.575 
168 1 -2.570 6.864 2.172 
169 1 -6.998 -1.293 4.410 
170 1 -7.483 9.779 4.429 
171 1 2.370 0.604 -2.357 
172 1 2.907 10.276 7.019 
173 1 -3.744 7.750 -1.604 
174 1 14.809 -4.177 -12.639 
175 1 10.653 -3.937 12.638 
176 1 2.975 2.101 12.024 
177 1 11.589 13.399 -10.495 
178 1 2.578 1.933 3.661 
179 1 -6.723 -13.757 7.027 
180 1 -2.512 -4.460 -3.813 
181 1 10.135 -13.300 9.333 
182 1 -8.099 -5.004 4.384 
183 1 6.316 2.004 4.502 
184 1 -3.188 9.216 -7.101 
185 1 12.634 -0.616 1.372 
186 1 -1.989 12.946 -7.401 
187 1 -4.592 -14.882 11.553 
188 1 7.591 5.469 5.201 
189 1 10.635 10.884 10.066 
190 1 2.346 -13.554 6.747 
191 1 -3.523 -14.509 4.960 
192 1 -4.810 -3.327 -9.755 
193 1 -7.661 -11.909 -11.274 
194 1 4.878 12.135 -4.724 
195 1 -11.828 3.464 8.123 
196 1 -4.213 11.567 10.954 
197 1 -5.799 3.079 11.494 
198 1 -2.582 1.565 13.725 
199 1 8.987 0.627 2.143 
200 1 6.220 -13.169 -7.369 
