ITEM: TIMESTEP
0
ITEM: NUMBER OF ATOMS
200
ITEM: BOX BOUNDS pp pp pp
-15.145370694641318 15.145370694641318
-15.145370694641318 15.145370694641318
-15.145370694641318 15.145370694641318
ITEM: ATOMS id type x y z
1 1 4.677 4.925 2.706 
2 1 2.859 13.457 1.430 
3 1 2.295 0.971 -12.052 
4 1 -3.329 8.271 9.160 
5 1 -10.668 -2.083 4.247 
6 1 2.268 13.537 8.865 
7 1 6.378 -1.337 6.086 
8 1 0.744 10.297 10.111 
9 1 3.266 13.524 5.178 
10 1 -7.546 7.880 -1.498 
11 1 -0.861 -12.032 5.547 
12 1 11.013 13.767 7.593 
13 1 -8.026 -6.731 -0.671 
14 1 -13.887 -7.337 5.285 
15 1 6.703 2.580 12.136 
16 1 0.003 14.785 -10.140 
17 1 -2.128 -10.530 -0.672 
18 1 -1.227 -11.157 -5.814 
19 1 -6.538 2.230 5.728 
20 1 -1.650 0.014 -4.449 
21 1 1.087 -3.301 -12.369 
22 1 -2.404 -8.729 -9.789 
23 1 10.171 9.821 -10.085 
24 1 13.785 10.441 -9.277 
25 1 -8.089 9.946 10.550 
26 1 7.711 -14.129 -13.308 
27 1 -12.831 1.299 4.593 
28 1 -12.891 10.993 -8.293 
29 1 -1.627 6.749 -4.562 
30 1 -8.636 -2.746 7.493 
31 1 -9.271 1.367 3.075 
32 1 0.146 11.514 4.723 
33 1 0.180 -0.991 -9.541 
34 1 -10.250 6.527 10.346 
35 1 -2.644 -13.045 8.740 
36 1 -9.773 2.742 11.637 
37 1 4.557 -7.015 -14.774 
38 1 -3.518 -11.490 2.733 
39 1 -8.144 3.994 8.578 
40 1 0.811 2.740 -15.111 
41 1 -1.534 -8.173 -3.551 
42 1 -14.985 13.820 -9.879 
43 1 -14.157 -1.712 2.663 
44 1 3.904 -1.948 -10.242 
45 1 5.109 -14.453 -3.824 
46 1 -7.469 13.620 9.645 
47 1 -8.181 -10.187 7.141 
48 1 3.509 -13.495 3.141 
49 1 5.192 1.324 8.708 
50 1 6.501 10.106 -10.990 
51 1 -3.701 8.925 5.197 
52 1 2.764 7.104 9.024 
53 1 6.918 -11.210 -10.678 
54 1 11.122 13.435 1.669 
55 1 3.882 -5.608 -11.284 
56 1 -7.388 0.170 13.242 
57 1 6.525 8.879 7.234 
58 1 14.316 -2.426 -9.325 
59 1 3.809 -9.358 -11.938 
60 1 -0.123 2.206 0.041 
61 1 12.657 11.852 4.774 
62 1 -12.552 -5.917 -10.830 
63 1 5.683 14.916 7.738 
64 1 -6.956 -9.975 3.582 
65 1 -6.464 6.621 10.606 
66 1 -8.644 11.676 -4.242 
67 1 10.232 2.070 5.571 
68 1 13.653 4.176 -7.024 
69 1 0.920 -7.000 -13.219 
70 1 -5.773 10.592 7.740 
71 1 13.544 0.027 4.941 
72 1 10.271 -13.574 3.406 
73 1 -6.685 -13.704 3.223 
74 1 -9.663 1.439 -14.163 
75 1 0.268 -11.746 1.965 
76 1 9.346 14.184 14.035 
77 1 -5.009 -8.556 0.662 
78 1 1.236 -7.829 -9.592 
79 1 6.645 -10.411 -14.348 
80 1 -13.707 -1.891 6.441 
81 1 -1.532 -5.135 -10.406 
82 1 -6.446 13.276 5.216 
83 1 -4.391 -11.172 -3.539 
84 1 -7.439 0.521 9.403 
85 1 -13.936 10.791 -11.974 
86 1 -4.096 -8.858 -6.446 
87 1 -6.830 9.725 -8.647 
88 1 0.146 3.349 -3.640 
89 1 -1.931 -2.958 -7.237 
90 1 2.895 4.187 -0.785 
91 1 13.226 -11.081 3.647 
92 1 -0.666 14.624 6.893 
93 1 -9.788 6.345 -8.635 
94 1 12.806 6.894 -9.575 
95 1 0.139 15.134 3.466 
96 1 -9.496 6.167 -4.799 
97 1 -5.032 5.494 7.359 
98 1 -13.000 4.380 -8.079 
99 1 -5.488 11.007 -2.208 
100 1 1.328 -1.843 -5.656 
101 1 -1.963 11.250 7.798 
102 1 -10.220 -8.228 4.380 
103 1 14.431 -6.222 -9.463 
104 1 -10.471 9.371 -10.724 
105 1 -5.942 -11.657 9.993 
106 1 7.156 -7.502 -11.956 
107 1 -1.453 -0.978 1.458 
108 1 9.000 12.238 -12.971 
109 1 -6.207 6.289 3.959 
110 1 -2.723 4.834 10.529 
111 1 2.047 -4.079 11.620 
112 1 8.298 13.832 10.325 
113 1 -11.687 4.829 -11.636 
114 1 7.324 4.371 8.753 
115 1 -7.745 -8.419 -12.865 
116 1 -0.048 -2.262 -1.960 
117 1 10.207 -1.845 4.725 
118 1 -6.220 -3.997 -2.790 
119 1 10.476 -12.192 -11.649 
120 1 -5.032 -1.536 7.553 
121 1 4.611 2.622 -14.775 
122 1 -6.518 8.565 -5.054 
123 1 -5.349 9.289 1.441 
124 1 4.146 4.340 6.521 
125 1 1.544 -4.307 -8.506 
126 1 -9.418 -6.497 7.628 
127 1 -3.829 2.077 8.171 
128 1 14.522 12.613 -6.332 
129 1 -0.818 11.567 13.341 
130 1 11.332 -4.382 -10.918 
131 1 -3.482 0.269 4.615 
132 1 -9.380 11.422 7.239 
133 1 7.257 -3.784 -11.075 
134 1 11.986 14.253 11.284 
135 1 13.690 -3.795 4.668 
136 1 -4.154 -0.306 10.982 
137 1 0.838 5.049 2.455 
138 1 -2.568 13.111 -3.588 
139 1 -4.440 -10.284 -12.610 
140 1 -1.258 13.881 10.507 
141 1 -4.886 -1.676 -5.400 
142 1 -9.823 0.697 6.673 
143 1 -5.106 -7.489 -3.063 
144 1 -4.200 13.972 8.095 
145 1 -8.147 7.597 7.352 
146 1 -4.921 -5.279 -6.476 
147 1 -13.070 -4.277 -7.698 
148 1 -0.267 8.070 6.785 
149 1 -6.943 -2.295 -13.168 
150 1 -4.487 -10.881 6.316 
151 1 5.120 1.579 0.857 
152 1 -9.490 4.509 5.205 
153 1 3.439 -2.010 8.635 
154 1 -3.516 -12.579 14.545 
155 1 -4.030 8.314 12.856 
156 1 -0.540 5.887 -0.953 
157 1 12.585 10.594 -12.867 
158 1 -4.525 -2.112 14.231 
159 1 -13.739 7.630 -9.856 
160 1 -6.889 -2.843 10.919 
161 1 -7.098 -11.598 -15.043 
162 1 4.607 -10.800 5.536 
163 1 -1.160 -6.548 -6.889 
164 1 5.300 11.550 9.693 
165 1 -5.324 12.027 -5.915 
166 1 -4.226 -5.096 -13.128 
167 1 -3.170 4.011 4.575 
168 1 -2.570 6.864 2.172 
169 1 -6.998 -1.293 4.410 
170 1 -7.483 9.779 4.429 
171 1 2.370 0.604 -2.357 
172 1 2.907 10.276 7.019 
173 1 -3.744 7.750 -1.604 
174 1 14.809 -4.177 -12.639 
175 1 10.653 -3.937 12.638 
176 1 2.975 2.101 12.024 
177 1 11.589 13.399 -10.495 
178 1 2.578 1.933 3.661 
179 1 -6.723 -13.757 7.027 
180 1 -2.512 -4.460 -3.813 
181 1 10.135 -13.300 9.333 
182 1 -8.099 -5.004 4.384 
183 1 6.316 2.004 4.502 
184 1 -3.188 9.216 -7.101 
185 1 12.634 -0.616 1.372 
186 1 -1.989 12.946 -7.401 
187 1 -4.592 -14.882 11.553 
188 1 7.591 5.469 5.201 
189 1 10.635 10.884 10.066 
190 1 2.346 -13.554 6.747 
191 1 -3.523 -14.509 4.960 
192 1 -4.810 -3.327 -9.755 
193 1 -7.661 -11.909 -11.274 
194 1 4.878 12.135 -4.724 
195 1 -11.828 3.464 8.123 
196 1 -4.213 11.567 10.954 
197 1 -5.799 3.079 11.494 
198 1 -2.582 1.565 13.725 
199 1 8.987 0.627 2.143 
200 1 6.220 -13.169 -7.369 
ITEM: TIMESTEP
1000
ITEM: NUMBER OF ATOMS
200
ITEM: BOX BOUNDS pp pp pp
-15.145370694641318 15.145370694641318
-15.145370694641318 15.145370694641318
-15.145370694641318 15.145370694641318
ITEM: ATOMS id type x y z
1 1 5.324 5.574 2.696 
2 1 2.692 12.817 0.389 
3 1 2.348 0.749 -11.998 
4 1 -3.458 8.200 9.115 
5 1 -9.909 -1.499 3.614 
6 1 2.208 14.241 9.517 
7 1 6.093 -1.906 7.038 
8 1 1.282 11.145 10.503 
9 1 2.833 14.097 4.385 
10 1 -6.428 8.395 -1.982 
11 1 -0.322 -12.567 5.458 
12 1 11.656 13.170 8.464 
13 1 -7.457 -5.727 -0.715 
14 1 -12.823 -6.824 5.329 
15 1 6.615 2.654 12.265 
16 1 -0.039 14.899 -11.205 
17 1 -2.119 -10.347 -0.423 
18 1 -1.715 -12.073 -5.663 
19 1 -7.369 2.967 5.002 
20 1 -2.543 0.005 -4.358 
21 1 1.491 -3.868 -13.826 
22 1 -2.712 -8.168 -9.685 
23 1 9.859 9.421 -10.550 
24 1 13.668 10.399 -8.639 
25 1 -9.039 10.481 11.035 
26 1 7.825 -14.025 -12.841 
27 1 -13.093 2.009 5.148 
28 1 -13.261 11.165 -8.241 
29 1 -1.028 7.361 -4.815 
30 1 -8.232 -3.474 7.057 
31 1 -9.827 1.817 2.793 
32 1 0.160 10.862 4.562 
33 1 -0.495 -1.683 -9.986 
34 1 -10.719 7.026 9.765 
35 1 -1.937 -12.032 8.896 
36 1 -10.030 2.483 11.727 
37 1 4.808 -5.829 -14.605 
38 1 -3.581 -10.711 2.580 
39 1 -8.177 4.194 8.759 
40 1 1.040 3.279 14.728 
41 1 -1.171 -8.945 -3.622 
42 1 14.445 14.134 -9.903 
43 1 -14.463 -2.385 2.400 
44 1 4.350 -1.653 -10.244 
45 1 5.520 -14.337 -4.047 
46 1 -8.029 13.503 9.455 
47 1 -7.953 -10.340 7.888 
48 1 3.665 -13.309 1.784 
49 1 5.434 1.987 8.717 
50 1 6.080 9.488 -11.008 
51 1 -3.520 9.287 5.400 
52 1 2.472 6.425 8.293 
53 1 6.999 -10.895 -9.813 
54 1 10.606 13.414 2.419 
55 1 3.704 -5.403 -10.531 
56 1 -7.170 -0.061 13.580 
57 1 7.047 8.444 7.048 
58 1 13.802 -2.456 -10.074 
59 1 3.580 -10.221 -12.273 
60 1 -0.220 1.662 -0.072 
61 1 11.751 11.917 5.064 
62 1 -13.034 -6.591 -10.221 
63 1 5.611 14.839 7.817 
64 1 -6.954 -10.251 3.861 
65 1 -6.080 7.129 11.004 
66 1 -8.719 10.922 -3.618 
67 1 10.417 2.255 5.436 
68 1 13.154 4.421 -6.764 
69 1 1.321 -7.341 -13.610 
70 1 -5.835 10.671 7.802 
71 1 13.053 0.240 4.702 
72 1 9.498 -14.255 5.066 
73 1 -6.722 -13.355 3.259 
74 1 -9.363 0.967 -13.924 
75 1 0.405 -11.218 1.655 
76 1 9.648 14.375 14.579 
77 1 -4.865 -7.607 0.915 
78 1 1.816 -8.225 -10.286 
79 1 6.559 -10.924 -14.110 
80 1 -12.907 -1.456 6.643 
81 1 -0.850 -4.880 -10.484 
82 1 -5.726 13.140 5.313 
83 1 -3.996 -11.141 -3.367 
84 1 -8.525 0.207 9.594 
85 1 -13.753 9.987 -12.781 
86 1 -3.783 -8.311 -6.384 
87 1 -7.230 9.052 -9.693 
88 1 -0.560 3.568 -3.783 
89 1 -1.824 -2.830 -7.193 
90 1 3.299 4.059 -1.439 
91 1 13.890 -12.426 4.278 
92 1 -0.075 14.982 7.180 
93 1 -10.543 6.220 -8.900 
94 1 12.898 7.087 -9.662 
95 1 -0.084 14.971 2.667 
96 1 -9.450 6.023 -5.382 
97 1 -4.296 5.451 7.172 
98 1 -13.317 5.768 -6.177 
99 1 -3.759 11.339 -1.087 
100 1 1.936 -0.970 -5.686 
101 1 -1.519 11.032 8.051 
102 1 -10.162 -8.605 4.293 
103 1 13.789 -6.281 -9.659 
104 1 -10.614 9.825 -10.317 
105 1 -5.141 -12.177 10.216 
106 1 6.509 -8.086 -12.022 
107 1 -0.570 -2.889 2.082 
108 1 8.844 12.539 -12.950 
109 1 -6.301 6.347 3.697 
110 1 -2.139 4.538 10.616 
111 1 2.790 -4.137 12.142 
112 1 8.583 14.252 10.027 
113 1 -12.311 4.650 -12.058 
114 1 7.122 4.972 9.343 
115 1 -7.983 -9.816 -12.566 
116 1 1.151 -3.815 -1.762 
117 1 9.890 -1.894 4.991 
118 1 -5.494 -3.446 -2.434 
119 1 10.199 -12.567 -11.140 
120 1 -4.817 -2.211 7.860 
121 1 5.388 3.263 15.094 
122 1 -6.911 9.032 -5.669 
123 1 -4.717 9.744 2.174 
124 1 4.922 4.249 6.743 
125 1 1.763 -4.342 -8.105 
126 1 -9.828 -6.973 7.274 
127 1 -4.607 2.559 8.200 
128 1 13.428 12.538 -6.456 
129 1 -2.050 11.354 14.081 
130 1 11.057 -4.820 -11.655 
131 1 -3.621 0.550 5.848 
132 1 -9.297 12.022 6.459 
133 1 7.485 -4.573 -10.934 
134 1 12.655 13.107 11.795 
135 1 13.107 -4.001 4.501 
136 1 -3.986 0.348 11.559 
137 1 1.138 4.620 3.389 
138 1 -3.177 14.352 -4.123 
139 1 -4.668 -10.474 -12.333 
140 1 -1.323 14.170 11.427 
141 1 -5.057 -1.771 -5.341 
142 1 -9.993 1.438 6.533 
143 1 -5.143 -7.906 -2.945 
144 1 -4.230 14.322 8.085 
145 1 -7.827 8.024 7.668 
146 1 -5.692 -5.547 -5.935 
147 1 -12.444 -4.466 -6.480 
148 1 -0.344 7.807 6.344 
149 1 -6.965 -1.785 -12.786 
150 1 -3.958 -10.421 6.534 
151 1 5.159 2.016 0.701 
152 1 -10.396 4.588 5.195 
153 1 2.506 -1.920 7.558 
154 1 -3.939 -12.797 14.323 
155 1 -2.593 8.081 12.939 
156 1 0.273 5.857 -0.897 
157 1 12.366 10.762 -13.076 
158 1 -3.983 -2.707 13.983 
159 1 -13.971 8.170 -9.891 
160 1 -7.146 -3.191 10.873 
161 1 -7.304 -12.092 14.787 
162 1 5.526 -11.475 6.092 
163 1 -0.611 -6.600 -7.179 
164 1 5.095 11.651 10.180 
165 1 -6.398 12.008 -6.575 
166 1 -3.875 -5.080 -13.283 
167 1 -3.620 3.974 3.977 
168 1 -1.561 7.319 1.698 
169 1 -6.394 -0.928 4.061 
170 1 -7.323 9.454 4.194 
171 1 2.532 1.001 -2.759 
172 1 2.985 9.342 7.264 
173 1 -3.309 7.455 -1.438 
174 1 14.559 -4.121 -13.672 
175 1 10.542 -3.536 13.102 
176 1 2.654 1.971 12.347 
177 1 10.074 13.368 -8.170 
178 1 2.234 1.077 2.864 
179 1 -7.458 -13.927 6.710 
180 1 -2.660 -4.521 -4.109 
181 1 10.769 -12.588 10.109 
182 1 -7.591 -6.783 3.972 
183 1 6.791 2.299 4.175 
184 1 -3.784 8.992 -7.087 
185 1 13.101 -0.396 0.583 
186 1 -1.872 12.625 -7.159 
187 1 -4.945 -14.868 11.872 
188 1 8.170 5.777 4.870 
189 1 9.041 10.065 10.919 
190 1 2.909 -13.255 7.057 
191 1 -3.412 -14.762 4.378 
192 1 -4.725 -2.938 -10.307 
193 1 -7.582 -13.160 -11.756 
194 1 4.212 12.280 -5.183 
195 1 -12.092 3.765 8.401 
196 1 -4.481 11.863 10.696 
197 1 -6.464 2.897 11.696 
198 1 -2.638 2.341 13.949 
199 1 8.400 0.073 2.477 
200 1 4.368 -12.129 -6.456 
ITEM: TIMESTEP
2000
ITEM: NUMBER OF ATOMS
200
ITEM: BOX BOUNDS pp pp pp
-15.145370694641318 15.145370694641318
-15.145370694641318 15.145370694641318
-15.145370694641318 15.145370694641318
ITEM: ATOMS id type x y z
1 1 3.914 5.971 2.327 
2 1 2.381 13.202 0.043 
3 1 1.945 0.886 -11.858 
4 1 -2.773 8.574 9.229 
5 1 -10.733 -1.122 3.625 
6 1 2.246 13.489 9.576 
7 1 6.227 -2.574 5.557 
8 1 1.668 8.942 10.803 
9 1 2.722 13.645 4.438 
10 1 -6.779 8.857 -2.403 
11 1 -0.765 -13.119 4.762 
12 1 11.670 11.880 9.414 
13 1 -8.210 -6.670 -1.951 
14 1 -12.616 -6.526 5.451 
15 1 6.252 2.529 12.338 
16 1 0.001 13.950 -11.398 
17 1 -2.380 -10.560 -0.676 
18 1 -1.950 -11.793 -5.336 
19 1 -7.036 3.142 5.717 
20 1 -2.321 -0.414 -4.445 
21 1 1.557 -3.227 -13.226 
22 1 -2.338 -8.646 -9.748 
23 1 9.889 9.666 -10.061 
24 1 13.050 9.929 -9.067 
25 1 -7.912 11.072 11.925 
26 1 8.901 -14.511 -11.747 
27 1 -12.854 2.163 5.566 
28 1 -13.403 12.259 -7.992 
29 1 -1.710 6.961 -5.429 
30 1 -6.841 -3.727 5.768 
31 1 -10.403 2.506 2.487 
32 1 -0.042 10.405 4.724 
33 1 -0.974 -0.840 -10.663 
34 1 -10.582 7.868 9.959 
35 1 -1.728 -11.979 8.848 
36 1 -10.590 2.987 13.141 
37 1 5.299 -4.828 -14.081 
38 1 -3.888 -11.518 2.386 
39 1 -8.500 5.141 8.957 
40 1 1.463 4.096 15.074 
41 1 -1.648 -8.650 -3.834 
42 1 14.161 13.860 -9.603 
43 1 -14.869 -1.987 2.186 
44 1 4.862 -1.868 -9.696 
45 1 4.496 -14.263 -3.314 
46 1 -8.385 14.015 9.758 
47 1 -8.814 -10.784 8.323 
48 1 2.389 -13.694 2.059 
49 1 4.912 1.356 9.071 
50 1 6.062 10.086 -11.900 
51 1 -3.397 9.511 5.607 
52 1 2.093 6.176 8.357 
53 1 4.905 -12.750 -10.767 
54 1 9.998 12.835 0.984 
55 1 4.022 -5.142 -10.275 
56 1 -6.747 0.182 14.508 
57 1 6.863 8.323 6.944 
58 1 14.593 -1.872 -10.330 
59 1 2.909 -10.015 -12.497 
60 1 -0.928 0.882 0.192 
61 1 11.701 12.406 5.564 
62 1 -13.230 -6.002 -9.799 
63 1 5.992 -15.099 7.599 
64 1 -6.690 -9.938 3.456 
65 1 -6.009 7.430 10.521 
66 1 -9.393 11.060 -3.126 
67 1 10.212 2.528 5.992 
68 1 12.762 5.507 -5.746 
69 1 -0.243 -8.204 -12.938 
70 1 -5.436 10.860 7.741 
71 1 12.433 0.100 3.877 
72 1 9.060 14.614 5.240 
73 1 -7.183 -13.389 3.336 
74 1 -10.244 1.210 -13.292 
75 1 0.308 -11.020 1.475 
76 1 10.496 -15.017 13.514 
77 1 -4.400 -7.743 1.062 
78 1 1.242 -8.602 -9.631 
79 1 6.442 -10.183 -14.061 
80 1 -11.981 -1.474 7.997 
81 1 0.182 -4.670 -10.501 
82 1 -7.012 13.004 5.626 
83 1 -4.575 -11.258 -3.648 
84 1 -8.292 -0.631 10.897 
85 1 -13.469 10.443 -13.230 
86 1 -3.893 -8.888 -6.143 
87 1 -7.771 9.104 -9.455 
88 1 -0.267 3.015 -4.422 
89 1 -1.679 -3.118 -7.365 
90 1 3.145 4.254 -1.595 
91 1 14.442 -12.653 4.442 
92 1 -0.871 14.874 7.360 
93 1 -10.532 5.519 -8.011 
94 1 12.767 6.778 -10.817 
95 1 -0.956 14.247 2.812 
96 1 -10.364 6.094 -4.317 
97 1 -4.482 5.793 7.029 
98 1 -13.647 6.942 -5.727 
99 1 -3.232 12.407 -1.388 
100 1 2.025 -1.464 -5.840 
101 1 -1.264 11.452 8.119 
102 1 -10.274 -8.981 3.584 
103 1 13.583 -6.638 -9.665 
104 1 -11.416 9.517 -10.474 
105 1 -5.425 -12.669 9.392 
106 1 6.867 -8.558 -10.919 
107 1 0.589 -2.185 2.029 
108 1 8.997 11.773 -12.266 
109 1 -6.382 6.247 3.913 
110 1 -2.173 4.298 9.785 
111 1 2.546 -4.106 13.043 
112 1 8.993 13.783 10.300 
113 1 -12.022 4.601 -12.054 
114 1 7.270 4.643 9.908 
115 1 -8.837 -9.430 -12.978 
116 1 1.123 -4.449 -0.977 
117 1 9.994 -2.436 4.309 
118 1 -6.108 -3.075 -3.005 
119 1 11.221 -13.236 -9.372 
120 1 -4.377 -2.264 7.514 
121 1 4.861 3.504 -14.552 
122 1 -7.326 8.332 -5.714 
123 1 -3.951 10.579 1.328 
124 1 4.204 3.975 6.930 
125 1 2.412 -3.877 -7.739 
126 1 -9.434 -6.618 6.287 
127 1 -4.968 2.277 8.381 
128 1 14.042 12.800 -6.135 
129 1 -2.470 11.763 13.943 
130 1 11.586 -4.537 -11.961 
131 1 -4.125 0.285 4.455 
132 1 -9.945 12.026 6.293 
133 1 7.414 -4.571 -9.856 
134 1 12.945 13.004 12.680 
135 1 13.401 -3.407 5.377 
136 1 -4.162 0.052 11.305 
137 1 -0.057 4.386 3.169 
138 1 -3.703 13.391 -4.509 
139 1 -5.395 -9.913 -11.407 
140 1 -1.044 15.026 10.635 
141 1 -5.014 -1.805 -6.217 
142 1 -9.504 0.761 6.351 
143 1 -4.918 -7.546 -3.173 
144 1 -3.926 14.616 8.565 
145 1 -7.880 8.408 7.574 
146 1 -6.093 -5.852 -5.674 
147 1 -12.437 -4.190 -5.994 
148 1 -0.566 7.171 6.058 
149 1 -6.793 -1.855 -12.869 
150 1 -3.834 -9.360 7.256 
151 1 5.408 1.919 0.381 
152 1 -10.457 4.731 5.994 
153 1 2.230 -1.934 5.460 
154 1 -3.139 -12.482 14.843 
155 1 -3.615 8.331 13.817 
156 1 0.771 6.389 -1.969 
157 1 11.701 8.769 -13.591 
158 1 -2.545 -2.307 14.219 
159 1 -13.998 7.239 -9.589 
160 1 -6.882 -3.737 12.073 
161 1 -6.942 -12.196 14.930 
162 1 5.556 -11.104 5.373 
163 1 -0.818 -6.295 -7.059 
164 1 6.028 12.476 10.504 
165 1 -6.475 12.130 -6.117 
166 1 -4.012 -4.879 -13.392 
167 1 -3.812 3.808 3.412 
168 1 -0.531 8.356 1.673 
169 1 -7.515 -0.076 3.093 
170 1 -8.447 9.446 4.238 
171 1 2.417 -0.026 -2.307 
172 1 3.257 9.812 7.125 
173 1 -3.213 7.798 -2.642 
174 1 15.136 -4.312 -14.075 
175 1 10.381 -2.791 11.987 
176 1 2.585 2.087 12.576 
177 1 9.630 13.527 -9.148 
178 1 2.355 1.030 2.452 
179 1 -7.975 -14.100 7.156 
180 1 -2.867 -4.918 -4.367 
181 1 11.509 -12.649 10.693 
182 1 -7.504 -5.457 3.323 
183 1 7.189 2.279 3.884 
184 1 -4.135 9.556 -8.212 
185 1 12.166 -1.183 -0.012 
186 1 -0.947 13.624 -7.661 
187 1 -4.355 -14.804 11.817 
188 1 8.920 5.558 5.085 
189 1 8.687 9.771 10.519 
190 1 2.466 -13.287 7.358 
191 1 -4.144 -15.100 4.082 
192 1 -4.297 -2.384 -10.342 
193 1 -9.047 -13.271 -11.723 
194 1 3.817 11.468 -4.184 
195 1 -13.115 4.372 8.461 
196 1 -4.863 11.718 10.972 
197 1 -5.320 3.283 11.799 
198 1 -2.283 3.889 13.523 
199 1 7.403 -0.714 1.660 
200 1 4.856 -11.692 -7.130 
ITEM: TIMESTEP
3000
ITEM: NUMBER OF ATOMS
200
ITEM: BOX BOUNDS pp pp pp
-15.145370694641318 15.145370694641318
-15.145370694641318 15.145370694641318
-15.145370694641318 15.145370694641318
ITEM: ATOMS id type x y z
1 1 4.247 5.831 2.806 
2 1 2.318 14.383 -0.273 
3 1 0.864 1.634 -11.938 
4 1 -3.231 8.686 9.009 
5 1 -10.690 -1.046 4.036 
6 1 1.508 13.674 9.784 
7 1 6.379 -3.772 4.919 
8 1 0.631 9.584 10.337 
9 1 2.441 13.175 4.504 
10 1 -6.681 8.474 -2.552 
11 1 -0.588 -13.372 4.920 
12 1 12.443 12.163 8.777 
13 1 -9.321 -6.407 -1.322 
14 1 -14.247 -6.393 6.099 
15 1 6.071 3.283 12.608 
16 1 0.824 13.637 -12.874 
17 1 -2.873 -10.801 -1.069 
18 1 -2.250 -12.692 -4.340 
19 1 -6.051 3.773 6.516 
20 1 -3.212 0.198 -3.115 
21 1 1.283 -1.930 -12.723 
22 1 -2.279 -8.006 -9.690 
23 1 10.726 10.161 -10.125 
24 1 13.755 9.356 -9.221 
25 1 -8.125 11.268 12.645 
26 1 8.522 -14.565 -11.362 
27 1 -13.207 1.934 5.995 
28 1 -13.798 13.858 -7.592 
29 1 -2.330 6.725 -5.398 
30 1 -7.079 -3.821 5.984 
31 1 -10.298 2.270 3.093 
32 1 0.551 10.797 3.543 
33 1 -0.540 -0.967 -9.961 
34 1 -10.727 8.555 10.998 
35 1 -2.162 -11.821 9.204 
36 1 -10.857 1.344 13.122 
37 1 5.186 -4.508 -14.302 
38 1 -3.792 -10.684 1.933 
39 1 -8.150 5.032 9.087 
40 1 1.113 4.953 -15.122 
41 1 -1.417 -8.615 -3.421 
42 1 13.932 14.484 -10.011 
43 1 -13.927 -1.450 1.356 
44 1 4.347 -1.287 -9.259 
45 1 4.136 -12.704 -2.453 
46 1 -8.535 13.733 10.651 
47 1 -8.414 -10.750 8.080 
48 1 3.196 -13.839 3.250 
49 1 5.334 0.806 8.733 
50 1 5.887 10.653 -11.958 
51 1 -2.793 10.284 4.937 
52 1 2.106 6.192 9.277 
53 1 5.717 -11.955 -10.367 
54 1 10.442 13.386 1.271 
55 1 3.349 -6.376 -10.871 
56 1 -7.514 -0.626 14.255 
57 1 7.644 8.965 6.510 
58 1 14.376 -1.242 -10.310 
59 1 2.319 -10.835 -11.531 
60 1 -1.259 -0.019 0.520 
61 1 11.740 11.627 4.430 
62 1 -12.799 -5.432 -10.897 
63 1 5.247 -14.778 7.955 
64 1 -7.208 -9.371 2.272 
65 1 -5.653 6.837 10.377 
66 1 -9.285 11.131 -2.923 
67 1 10.930 2.539 5.890 
68 1 12.980 4.480 -6.705 
69 1 -1.178 -7.813 -13.063 
70 1 -5.467 10.669 7.515 
71 1 13.349 0.616 3.602 
72 1 8.024 -14.591 3.880 
73 1 -6.739 -13.176 3.629 
74 1 -10.323 1.535 -13.442 
75 1 -0.384 -12.457 1.543 
76 1 10.133 -14.360 13.730 
77 1 -4.225 -6.877 1.697 
78 1 1.014 -8.628 -8.750 
79 1 5.907 -10.508 -13.500 
80 1 -12.314 -1.632 7.152 
81 1 0.087 -4.466 -10.049 
82 1 -5.891 12.350 3.671 
83 1 -5.122 -11.023 -3.357 
84 1 -8.408 -1.257 10.671 
85 1 -13.548 11.777 -13.549 
86 1 -3.855 -9.042 -6.075 
87 1 -7.544 8.829 -9.916 
88 1 -0.408 3.405 -3.592 
89 1 -0.666 -1.901 -6.532 
90 1 3.251 3.943 -1.038 
91 1 15.005 -12.990 4.372 
92 1 -0.797 14.932 7.654 
93 1 -10.235 5.433 -8.107 
94 1 13.184 6.508 -10.973 
95 1 -0.707 13.723 2.459 
96 1 -10.583 6.915 -4.024 
97 1 -3.991 6.593 6.377 
98 1 -13.667 6.515 -5.471 
99 1 -3.715 12.691 -1.142 
100 1 2.367 -0.872 -5.760 
101 1 -0.994 10.988 7.783 
102 1 -10.539 -10.457 3.414 
103 1 13.869 -7.812 -11.546 
104 1 -10.715 8.771 -11.576 
105 1 -5.814 -13.085 9.054 
106 1 6.522 -8.053 -11.266 
107 1 -0.085 -2.518 2.242 
108 1 9.788 12.763 -12.589 
109 1 -6.814 6.479 3.330 
110 1 -2.457 4.793 9.773 
111 1 2.247 -4.078 12.464 
112 1 8.110 14.407 10.412 
113 1 -11.092 5.360 -12.204 
114 1 6.534 4.380 9.465 
115 1 -8.632 -9.643 -12.859 
116 1 1.397 -4.983 -1.824 
117 1 10.521 -2.479 4.808 
118 1 -6.133 -3.272 -4.058 
119 1 11.506 -13.369 -8.783 
120 1 -4.341 -2.501 8.016 
121 1 5.952 3.754 -14.238 
122 1 -6.593 6.527 -6.608 
123 1 -3.513 10.034 1.432 
124 1 4.780 3.173 5.137 
125 1 2.923 -4.445 -6.109 
126 1 -8.911 -6.204 7.452 
127 1 -5.139 2.133 9.685 
128 1 13.453 12.358 -5.765 
129 1 -3.156 11.945 14.391 
130 1 11.520 -4.015 -11.360 
131 1 -4.512 0.237 4.970 
132 1 -9.248 11.848 6.757 
133 1 6.946 -4.239 -9.663 
134 1 12.987 12.777 13.458 
135 1 13.523 -3.564 5.325 
136 1 -3.077 0.100 11.503 
137 1 0.089 3.945 2.778 
138 1 -3.382 13.657 -4.959 
139 1 -4.941 -9.935 -12.450 
140 1 -1.441 -14.895 10.981 
141 1 -5.026 -1.597 -7.292 
142 1 -9.299 0.422 6.587 
143 1 -4.829 -7.776 -2.799 
144 1 -3.836 13.632 8.385 
145 1 -8.373 8.290 8.196 
146 1 -6.191 -6.110 -6.103 
147 1 -12.236 -3.907 -5.193 
148 1 -0.639 7.274 6.520 
149 1 -7.568 -2.845 -12.374 
150 1 -3.686 -8.913 8.322 
151 1 5.940 1.862 -0.313 
152 1 -9.621 5.226 5.160 
153 1 2.601 -2.007 5.149 
154 1 -3.374 -12.950 14.514 
155 1 -3.426 8.378 12.916 
156 1 0.856 7.100 -0.993 
157 1 10.795 8.330 -14.653 
158 1 -3.048 -2.418 13.844 
159 1 -13.945 6.658 -9.042 
160 1 -6.414 -4.947 11.561 
161 1 -6.680 -11.116 14.297 
162 1 5.749 -11.471 4.738 
163 1 -0.253 -6.343 -6.335 
164 1 6.165 11.744 11.113 
165 1 -6.979 12.455 -6.648 
166 1 -3.831 -5.769 -12.482 
167 1 -4.224 4.030 3.234 
168 1 -0.510 7.438 2.011 
169 1 -6.858 -0.298 2.906 
170 1 -7.659 9.745 4.312 
171 1 1.976 0.766 -2.080 
172 1 3.651 9.308 6.284 
173 1 -2.038 8.532 -2.068 
174 1 14.756 -5.725 -14.100 
175 1 10.127 -2.669 10.870 
176 1 1.928 1.865 11.889 
177 1 10.514 13.571 -8.348 
178 1 2.797 0.423 2.284 
179 1 -8.359 -15.132 6.856 
180 1 -2.755 -4.659 -4.948 
181 1 10.194 -13.186 10.120 
182 1 -8.344 -5.665 2.530 
183 1 7.491 2.938 3.041 
184 1 -4.044 9.959 -8.020 
185 1 12.905 -1.793 -0.959 
186 1 -1.711 13.014 -8.322 
187 1 -4.901 14.863 12.710 
188 1 8.335 5.206 5.408 
189 1 9.432 9.729 10.390 
190 1 1.802 -12.127 7.678 
191 1 -3.840 -14.697 4.455 
192 1 -3.924 -2.332 -10.790 
193 1 -8.662 -12.739 -11.577 
194 1 3.094 11.438 -3.966 
195 1 -13.531 5.295 8.243 
196 1 -5.081 11.661 11.294 
197 1 -4.730 3.205 12.817 
198 1 -1.385 2.809 13.721 
199 1 7.239 -1.298 0.975 
200 1 5.469 -11.536 -7.060 
ITEM: TIMESTEP
4000
ITEM: NUMBER OF ATOMS
200
ITEM: BOX BOUNDS pp pp pp
-15.145370694641318 15.145370694641318
-15.145370694641318 15.145370694641318
-15.145370694641318 15.145370694641318
ITEM: ATOMS id type x y z
1 1 5.016 6.049 2.383 
2 1 2.619 13.557 0.316 
3 1 1.138 1.632 -11.782 
4 1 -2.922 8.311 9.433 
5 1 -11.185 -1.077 4.123 
6 1 2.720 13.330 10.006 
7 1 6.466 -4.451 6.156 
8 1 0.495 9.544 10.538 
9 1 3.064 12.574 4.866 
10 1 -6.362 6.743 -2.145 
11 1 -0.709 -13.006 4.959 
12 1 12.538 13.054 8.255 
13 1 -9.978 -5.319 -2.258 
14 1 -13.803 -6.689 5.744 
15 1 5.320 4.115 13.041 
16 1 0.545 13.485 -13.364 
17 1 -2.438 -10.314 -1.036 
18 1 -1.082 -11.578 -4.447 
19 1 -5.758 2.719 5.604 
20 1 -3.075 0.189 -3.842 
21 1 1.673 -2.052 -13.013 
22 1 -2.386 -8.784 -9.899 
23 1 10.098 9.955 -8.720 
24 1 13.189 9.142 -8.309 
25 1 -8.390 10.776 13.964 
26 1 8.632 -15.030 -12.048 
27 1 -13.312 2.479 6.091 
28 1 -14.023 14.001 -7.955 
29 1 -3.008 6.123 -6.166 
30 1 -7.924 -3.287 6.867 
31 1 -10.402 2.053 4.120 
32 1 -0.358 11.087 2.902 
33 1 -0.953 -0.114 -9.590 
34 1 -11.039 7.864 9.530 
35 1 -2.879 -13.134 10.135 
36 1 -9.827 1.425 13.790 
37 1 5.445 -5.001 -13.838 
38 1 -2.995 -11.138 2.410 
39 1 -7.739 4.851 8.264 
40 1 0.876 3.471 -14.450 
41 1 -0.888 -8.453 -3.505 
42 1 13.847 14.924 -10.063 
43 1 -12.922 -1.039 1.132 
44 1 4.419 -1.068 -9.710 
45 1 6.126 -11.641 -3.799 
46 1 -8.410 14.441 10.491 
47 1 -9.980 -9.917 9.034 
48 1 2.542 -13.397 4.042 
49 1 4.638 0.979 10.126 
50 1 6.452 10.929 -12.094 
51 1 -3.095 9.232 5.601 
52 1 2.476 6.277 9.965 
53 1 6.776 -12.489 -10.689 
54 1 10.966 12.406 1.996 
55 1 2.751 -6.310 -11.442 
56 1 -6.726 0.161 14.512 
57 1 8.028 8.820 5.956 
58 1 14.937 -1.181 -8.824 
59 1 3.018 -11.146 -10.617 
60 1 -0.956 0.641 0.683 
61 1 11.751 11.123 5.073 
62 1 -11.991 -4.288 -9.526 
63 1 5.407 -15.085 6.893 
64 1 -6.906 -8.704 3.888 
65 1 -5.257 6.245 10.737 
66 1 -9.322 11.610 -3.169 
67 1 10.815 3.241 6.230 
68 1 12.467 3.652 -7.252 
69 1 -0.737 -9.034 -13.617 
70 1 -5.188 11.177 7.213 
71 1 13.275 0.882 4.827 
72 1 8.595 -14.620 2.764 
73 1 -6.714 -12.867 3.250 
74 1 -10.404 0.781 -13.217 
75 1 0.180 -12.821 1.830 
76 1 9.105 -13.384 13.134 
77 1 -3.979 -6.014 2.998 
78 1 0.830 -8.458 -8.831 
79 1 5.623 -10.697 -14.735 
80 1 -12.067 -0.201 7.428 
81 1 0.720 -3.845 -8.670 
82 1 -6.144 12.820 3.455 
83 1 -5.356 -10.870 -2.887 
84 1 -8.130 -1.405 10.847 
85 1 -14.055 11.685 -13.972 
86 1 -3.862 -8.654 -6.090 
87 1 -7.577 8.345 -10.474 
88 1 -0.121 2.715 -4.846 
89 1 -0.899 -1.936 -5.876 
90 1 2.974 5.165 -0.483 
91 1 -15.112 -12.717 4.449 
92 1 -0.299 14.721 7.574 
93 1 -9.952 4.950 -7.955 
94 1 12.213 6.761 -11.394 
95 1 -0.310 14.466 1.999 
96 1 -10.383 6.402 -3.983 
97 1 -4.433 6.552 6.492 
98 1 -13.180 7.463 -6.351 
99 1 -3.491 14.024 -1.075 
100 1 2.756 -1.356 -6.008 
101 1 -1.012 10.979 7.580 
102 1 -10.241 -10.344 3.120 
103 1 13.569 -7.939 -11.737 
104 1 -11.098 9.323 -11.560 
105 1 -5.991 -13.505 8.232 
106 1 6.317 -8.268 -10.952 
107 1 0.688 -3.180 3.346 
108 1 10.791 12.973 -13.340 
109 1 -6.558 6.444 3.378 
110 1 -1.445 4.781 10.042 
111 1 2.765 -4.303 11.931 
112 1 8.326 13.744 10.773 
113 1 -12.402 5.600 -12.441 
114 1 6.735 4.289 9.372 
115 1 -9.946 -10.012 -12.803 
116 1 2.769 -6.545 -1.454 
117 1 10.365 -3.685 4.046 
118 1 -5.546 -3.055 -3.945 
119 1 11.918 -12.700 -9.435 
120 1 -4.267 -3.060 8.346 
121 1 6.226 3.932 -13.955 
122 1 -6.685 5.875 -7.088 
123 1 -3.617 9.401 1.942 
124 1 5.264 3.260 5.376 
125 1 2.589 -4.887 -5.835 
126 1 -8.742 -7.481 6.296 
127 1 -5.383 1.744 9.523 
128 1 12.996 13.384 -4.963 
129 1 -3.756 12.048 14.385 
130 1 10.751 -4.787 -12.182 
131 1 -3.870 -1.007 5.636 
132 1 -8.555 11.946 6.420 
133 1 7.218 -4.658 -10.712 
134 1 11.775 12.649 12.828 
135 1 13.717 -2.649 5.084 
136 1 -3.618 1.007 12.456 
137 1 -0.043 4.016 2.682 
138 1 -2.845 13.386 -4.801 
139 1 -5.121 -11.080 -11.081 
140 1 -0.897 15.067 11.183 
141 1 -5.675 -1.254 -7.259 
142 1 -8.775 -0.204 6.877 
143 1 -4.572 -7.384 -3.004 
144 1 -3.977 14.202 8.441 
145 1 -7.903 8.762 8.060 
146 1 -6.159 -6.411 -6.910 
147 1 -13.361 -3.282 -5.851 
148 1 -0.588 6.852 6.628 
149 1 -7.577 -2.060 -12.873 
150 1 -5.244 -8.405 6.779 
151 1 5.399 1.289 -0.449 
152 1 -10.519 6.087 5.600 
153 1 3.009 -1.538 5.395 
154 1 -2.129 -13.197 -14.883 
155 1 -3.959 8.854 12.711 
156 1 1.339 7.868 -2.598 
157 1 9.883 8.950 -14.564 
158 1 -3.680 -1.665 14.516 
159 1 -13.980 6.029 -9.159 
160 1 -5.553 -5.490 12.301 
161 1 -6.636 -11.159 14.516 
162 1 5.535 -11.518 5.877 
163 1 -0.569 -6.907 -6.667 
164 1 5.988 11.308 10.112 
165 1 -7.788 10.991 -6.574 
166 1 -3.772 -5.495 -12.539 
167 1 -4.146 3.702 2.018 
168 1 0.059 7.448 2.374 
169 1 -7.291 0.504 0.564 
170 1 -7.809 9.822 4.241 
171 1 1.593 0.973 -1.911 
172 1 3.770 8.734 5.716 
173 1 -2.754 8.609 -1.937 
174 1 14.598 -5.395 -14.823 
175 1 9.719 -3.723 11.268 
176 1 1.593 2.464 12.549 
177 1 9.757 14.459 -8.882 
178 1 3.580 -0.429 2.201 
179 1 -8.662 -14.982 6.298 
180 1 -3.478 -4.931 -5.790 
181 1 10.724 -13.895 9.720 
182 1 -8.411 -5.342 2.102 
183 1 7.460 3.006 2.300 
184 1 -4.807 9.332 -9.215 
185 1 12.661 -1.073 -1.532 
186 1 -1.468 11.938 -8.705 
187 1 -4.537 14.316 12.071 
188 1 8.109 5.843 5.375 
189 1 9.548 9.785 8.904 
190 1 2.071 -12.052 7.402 
191 1 -3.694 -15.133 4.116 
192 1 -2.903 -2.105 -11.335 
193 1 -7.398 -13.799 -10.972 
194 1 3.946 12.019 -4.243 
195 1 -14.389 5.377 9.789 
196 1 -5.976 11.228 11.400 
197 1 -5.228 3.921 13.504 
198 1 -1.346 3.409 13.247 
199 1 7.786 -0.776 1.747 
200 1 4.913 -10.665 -7.548 
ITEM: TIMESTEP
5000
ITEM: NUMBER OF ATOMS
200
ITEM: BOX BOUNDS pp pp pp
-15.145370694641318 15.145370694641318
-15.145370694641318 15.145370694641318
-15.145370694641318 15.145370694641318
ITEM: ATOMS id type x y z
1 1 5.076 6.651 2.601 
2 1 2.682 12.227 0.022 
3 1 1.949 2.281 -11.414 
4 1 -1.608 8.174 9.777 
5 1 -10.703 -1.766 3.780 
6 1 3.361 13.329 7.543 
7 1 6.955 -3.668 5.459 
8 1 2.566 9.618 10.141 
9 1 2.803 11.316 4.225 
10 1 -7.247 7.826 -0.976 
11 1 -0.405 -13.187 5.146 
12 1 13.407 13.235 9.448 
13 1 -9.728 -6.310 -2.870 
14 1 -14.642 -6.228 5.336 
15 1 5.242 2.906 13.718 
16 1 0.127 13.037 -13.020 
17 1 -1.915 -10.636 -0.568 
18 1 0.352 -11.799 -4.886 
19 1 -5.423 2.986 5.998 
20 1 -2.805 0.285 -3.638 
21 1 0.985 -2.126 -12.375 
22 1 -2.659 -7.478 -9.449 
23 1 9.557 10.076 -8.591 
24 1 13.604 9.888 -7.601 
25 1 -8.639 10.196 15.086 
26 1 8.529 -14.564 -12.189 
27 1 -12.597 2.972 5.240 
28 1 -13.249 13.302 -6.980 
29 1 -0.775 5.087 -5.657 
30 1 -7.595 -2.635 6.043 
31 1 -10.138 1.604 2.886 
32 1 -0.526 10.826 2.761 
33 1 0.362 -0.119 -9.122 
34 1 -11.419 7.335 10.461 
35 1 -2.124 -12.203 10.728 
36 1 -10.145 1.374 13.524 
37 1 5.045 -3.428 -14.706 
38 1 -3.167 -10.213 2.843 
39 1 -7.836 5.043 8.220 
40 1 0.529 4.148 -14.184 
41 1 -0.494 -8.285 -3.370 
42 1 14.797 -14.559 -9.813 
43 1 -13.415 -1.330 1.628 
44 1 4.174 -2.316 -9.962 
45 1 6.775 -11.439 -4.456 
46 1 -8.314 15.107 11.514 
47 1 -10.128 -10.197 8.698 
48 1 2.815 -13.698 5.102 
49 1 4.900 1.931 10.082 
50 1 6.166 9.468 -12.685 
51 1 -2.892 9.825 5.257 
52 1 2.939 6.579 8.967 
53 1 6.842 -12.232 -9.752 
54 1 10.834 12.703 1.717 
55 1 1.826 -6.171 -12.421 
56 1 -6.563 0.314 14.335 
57 1 7.690 8.970 6.495 
58 1 14.669 -1.118 -9.069 
59 1 2.827 -11.023 -10.848 
60 1 -1.415 1.046 0.472 
61 1 12.013 11.124 5.651 
62 1 -12.579 -4.152 -9.552 
63 1 6.145 14.856 6.036 
64 1 -7.404 -9.607 4.625 
65 1 -4.906 6.466 10.743 
66 1 -9.097 12.115 -2.502 
67 1 11.115 3.708 7.219 
68 1 12.835 4.556 -7.271 
69 1 -1.132 -8.840 -14.623 
70 1 -4.957 11.213 7.591 
71 1 12.787 0.105 4.638 
72 1 9.554 -14.066 3.245 
73 1 -7.000 -14.153 1.791 
74 1 -9.584 1.619 -11.780 
75 1 1.098 -11.891 1.587 
76 1 9.086 -13.773 12.271 
77 1 -4.720 -5.253 4.356 
78 1 1.062 -9.222 -8.880 
79 1 6.742 -11.878 -14.955 
80 1 -11.979 -0.625 7.249 
81 1 1.046 -3.132 -8.174 
82 1 -5.899 12.183 4.496 
83 1 -5.467 -10.903 -2.334 
84 1 -8.402 -1.809 10.602 
85 1 -13.818 10.805 -13.336 
86 1 -2.928 -8.680 -6.139 
87 1 -6.842 7.329 -12.197 
88 1 -0.118 2.216 -4.675 
89 1 -0.333 -1.681 -5.724 
90 1 2.421 4.568 -0.165 
91 1 14.663 -12.875 3.938 
92 1 0.268 14.472 7.170 
93 1 -9.856 4.496 -8.919 
94 1 11.762 6.648 -11.794 
95 1 -0.295 14.332 2.108 
96 1 -10.125 6.483 -3.851 
97 1 -5.457 7.017 5.937 
98 1 -12.722 7.795 -6.106 
99 1 -2.692 14.444 -0.831 
100 1 2.995 -0.884 -6.322 
101 1 -0.987 10.882 7.897 
102 1 -10.143 -10.040 1.697 
103 1 14.286 -8.601 -10.853 
104 1 -10.535 10.163 -10.427 
105 1 -6.285 -13.225 8.526 
106 1 5.420 -8.101 -10.631 
107 1 0.121 -2.987 2.500 
108 1 10.000 12.848 -14.627 
109 1 -7.013 6.437 2.437 
110 1 -0.503 4.328 9.580 
111 1 3.795 -4.631 11.548 
112 1 7.775 13.320 11.443 
113 1 -12.211 6.015 -12.029 
114 1 7.196 4.515 10.082 
115 1 -9.590 -9.733 -11.722 
116 1 2.860 -5.741 -1.394 
117 1 10.027 -2.920 3.676 
118 1 -6.653 -2.285 -3.382 
119 1 10.690 -12.223 -9.093 
120 1 -4.667 -4.007 8.569 
121 1 6.752 4.515 -13.985 
122 1 -7.265 6.339 -6.063 
123 1 -3.077 9.651 1.074 
124 1 4.828 2.787 4.620 
125 1 2.773 -4.464 -5.457 
126 1 -9.305 -6.976 6.832 
127 1 -5.756 2.781 9.910 
128 1 12.815 13.479 -4.790 
129 1 -4.114 11.255 14.730 
130 1 10.792 -5.168 -11.024 
131 1 -4.479 -1.706 5.493 
132 1 -8.808 12.286 7.140 
133 1 7.273 -4.999 -10.137 
134 1 11.936 13.728 12.315 
135 1 13.859 -2.823 6.179 
136 1 -3.663 1.438 12.201 
137 1 -0.443 4.059 2.304 
138 1 -2.253 12.415 -4.729 
139 1 -4.403 -10.678 -10.722 
140 1 -0.814 14.191 10.565 
141 1 -6.824 -1.274 -7.370 
142 1 -8.456 0.218 7.375 
143 1 -5.335 -7.553 -3.771 
144 1 -3.752 14.615 7.818 
145 1 -8.200 9.102 8.778 
146 1 -6.528 -6.044 -7.556 
147 1 -13.869 -3.919 -4.922 
148 1 -0.173 6.803 6.992 
149 1 -7.129 -1.824 -12.266 
150 1 -6.262 -8.857 7.839 
151 1 5.243 1.825 -0.366 
152 1 -10.950 7.214 5.104 
153 1 3.630 -2.691 5.359 
154 1 -1.638 -12.593 -13.193 
155 1 -3.943 8.593 13.208 
156 1 0.192 7.656 -2.748 
157 1 9.053 9.292 -14.542 
158 1 -3.902 -1.954 13.330 
159 1 -14.312 6.545 -9.381 
160 1 -5.938 -5.542 11.985 
161 1 -7.357 -10.574 -15.124 
162 1 6.044 -11.019 7.041 
163 1 -0.551 -6.469 -6.493 
164 1 5.782 10.840 9.244 
165 1 -7.577 11.330 -6.264 
166 1 -4.624 -5.808 -11.399 
167 1 -3.976 4.800 1.097 
168 1 1.321 7.261 1.739 
169 1 -6.073 2.509 0.072 
170 1 -8.348 9.131 4.439 
171 1 1.674 1.393 -0.897 
172 1 3.716 8.005 5.130 
173 1 -3.705 8.272 -1.981 
174 1 13.443 -5.170 14.620 
175 1 9.465 -2.840 12.641 
176 1 1.807 2.150 12.132 
177 1 9.576 14.482 -8.634 
178 1 3.174 -0.104 2.493 
179 1 -7.925 -14.380 5.656 
180 1 -3.648 -4.908 -5.863 
181 1 11.707 -14.125 9.935 
182 1 -7.582 -5.128 2.757 
183 1 7.545 3.208 1.944 
184 1 -3.980 9.017 -9.246 
185 1 11.704 -0.968 -1.062 
186 1 -2.325 11.951 -9.516 
187 1 -4.468 14.212 11.721 
188 1 8.143 5.859 4.803 
189 1 9.399 10.126 9.934 
190 1 1.630 -11.641 7.879 
191 1 -3.766 14.824 4.391 
192 1 -2.814 -2.339 -12.145 
193 1 -8.163 -13.753 -10.738 
194 1 4.358 11.552 -6.939 
195 1 -14.416 6.404 8.956 
196 1 -6.099 10.977 11.448 
197 1 -4.763 4.644 14.158 
198 1 -1.347 4.099 13.136 
199 1 6.564 -0.400 2.134 
200 1 4.473 -10.232 -6.605 
ITEM: TIMESTEP
6000
ITEM: NUMBER OF ATOMS
200
ITEM: BOX BOUNDS pp pp pp
-15.145370694641318 15.145370694641318
-15.145370694641318 15.145370694641318
-15.145370694641318 15.145370694641318
ITEM: ATOMS id type x y z
1 1 4.788 6.654 2.199 
2 1 1.431 12.430 0.243 
3 1 1.735 3.405 -11.091 
4 1 -0.607 7.799 10.176 
5 1 -10.677 -2.694 3.864 
6 1 2.713 12.801 7.487 
7 1 8.103 -3.971 6.396 
8 1 2.118 10.547 9.694 
9 1 3.889 13.196 3.555 
10 1 -8.209 7.430 -0.751 
11 1 -1.385 -11.500 5.591 
12 1 13.756 13.285 10.023 
13 1 -9.602 -6.100 -2.497 
14 1 14.334 -6.434 5.249 
15 1 5.816 2.384 12.968 
16 1 0.125 12.596 -12.988 
17 1 -1.028 -11.220 -0.049 
18 1 0.558 -12.138 -5.580 
19 1 -5.246 3.527 5.394 
20 1 -2.877 0.852 -3.110 
21 1 0.634 -1.338 -13.392 
22 1 -1.982 -7.674 -9.966 
23 1 10.120 10.323 -8.066 
24 1 13.732 9.780 -7.129 
25 1 -8.617 11.157 13.864 
26 1 8.288 15.055 -12.058 
27 1 -11.463 3.236 5.857 
28 1 -13.424 13.384 -7.474 
29 1 -0.550 5.483 -6.235 
30 1 -7.500 -2.051 5.711 
31 1 -10.259 1.459 2.405 
32 1 0.874 11.435 3.384 
33 1 0.591 -0.138 -9.786 
34 1 -11.291 7.682 11.724 
35 1 -0.909 -12.389 10.605 
36 1 -11.019 2.076 12.773 
37 1 4.622 -1.467 -13.846 
38 1 -3.986 -10.520 1.869 
39 1 -8.202 5.647 7.407 
40 1 0.187 3.222 -14.377 
41 1 -0.175 -7.801 -3.717 
42 1 14.271 -14.726 -9.205 
43 1 -13.551 -1.228 2.142 
44 1 5.051 -1.364 -10.541 
45 1 7.802 -11.810 -4.279 
46 1 -7.868 14.243 12.814 
47 1 -9.771 -8.895 9.800 
48 1 3.440 -13.146 4.688 
49 1 4.331 1.830 9.566 
50 1 6.066 11.410 -12.051 
51 1 -1.998 10.883 5.120 
52 1 3.587 6.405 8.533 
53 1 7.226 -12.223 -9.882 
54 1 9.986 13.759 0.467 
55 1 2.496 -5.586 -12.894 
56 1 -6.749 0.554 14.320 
57 1 8.245 9.463 6.152 
58 1 14.226 -1.049 -8.652 
59 1 2.622 -10.913 -11.945 
60 1 -2.059 1.039 1.224 
61 1 12.018 11.949 5.040 
62 1 -12.607 -3.907 -9.512 
63 1 6.122 14.331 6.067 
64 1 -7.445 -9.088 4.541 
65 1 -4.481 6.231 9.880 
66 1 -8.736 12.990 -3.524 
67 1 11.754 4.140 8.577 
68 1 13.715 4.676 -7.921 
69 1 1.036 -8.403 15.112 
70 1 -4.695 10.427 7.754 
71 1 14.091 0.195 4.264 
72 1 8.828 -12.541 1.552 
73 1 -6.669 -14.728 2.034 
74 1 -9.574 1.638 -11.899 
75 1 1.551 -11.595 1.930 
76 1 9.615 -13.928 12.629 
77 1 -3.658 -5.138 4.591 
78 1 1.237 -8.457 -9.413 
79 1 8.073 -11.966 15.054 
80 1 -12.140 -0.771 6.686 
81 1 1.925 -3.971 -8.621 
82 1 -6.150 12.678 5.453 
83 1 -4.653 -11.351 -1.608 
84 1 -8.376 -1.076 9.918 
85 1 -14.797 10.620 -13.854 
86 1 -3.326 -9.885 -6.739 
87 1 -7.582 6.447 -12.170 
88 1 0.386 2.220 -4.017 
89 1 -0.406 -1.691 -6.679 
90 1 3.030 4.435 -0.226 
91 1 -14.001 -12.214 3.525 
92 1 0.646 -14.723 6.730 
93 1 -9.142 3.850 -9.437 
94 1 11.572 6.320 -11.562 
95 1 0.405 14.496 2.613 
96 1 -10.576 6.121 -4.077 
97 1 -4.489 7.401 5.866 
98 1 -13.313 8.527 -6.359 
99 1 -3.213 14.194 -0.521 
100 1 4.720 -0.725 -6.856 
101 1 -0.487 11.852 8.149 
102 1 -10.795 -9.705 0.917 
103 1 15.096 -8.454 -10.716 
104 1 -10.139 8.572 -9.957 
105 1 -6.334 -13.470 8.284 
106 1 5.531 -8.444 -10.732 
107 1 -0.183 -3.142 0.803 
108 1 10.474 12.504 -14.059 
109 1 -6.677 6.333 3.015 
110 1 0.770 3.532 9.990 
111 1 2.634 -4.870 12.430 
112 1 6.546 13.098 11.250 
113 1 -12.214 5.954 -12.022 
114 1 6.983 5.853 10.546 
115 1 -9.308 -9.680 -11.471 
116 1 1.948 -5.884 -0.913 
117 1 10.248 -3.528 3.834 
118 1 -6.438 -1.480 -3.755 
119 1 10.870 -11.661 -9.269 
120 1 -6.165 -3.946 8.912 
121 1 6.368 4.856 -13.515 
122 1 -7.027 5.720 -6.774 
123 1 -2.742 10.546 1.312 
124 1 3.556 3.544 4.670 
125 1 2.249 -5.108 -4.313 
126 1 -9.512 -6.365 6.078 
127 1 -5.309 2.708 9.587 
128 1 13.055 12.532 -5.002 
129 1 -4.225 11.924 13.873 
130 1 10.255 -5.097 -12.818 
131 1 -3.694 -1.357 4.564 
132 1 -8.885 13.175 7.086 
133 1 7.363 -5.301 -9.698 
134 1 13.049 13.620 13.238 
135 1 14.146 -1.315 7.467 
136 1 -3.655 2.126 12.910 
137 1 -0.186 3.300 3.133 
138 1 -1.415 11.231 -4.853 
139 1 -5.339 -9.338 -10.357 
140 1 -1.634 14.471 10.330 
141 1 -9.004 -3.198 -6.457 
142 1 -9.280 1.022 6.862 
143 1 -4.817 -7.680 -4.362 
144 1 -4.148 14.583 7.142 
145 1 -8.203 9.085 9.359 
146 1 -6.805 -6.146 -6.883 
147 1 -13.923 -2.823 -5.176 
148 1 -0.308 6.798 6.656 
149 1 -6.435 -1.316 -12.952 
150 1 -5.216 -8.415 8.296 
151 1 5.036 1.843 -0.108 
152 1 -10.553 6.887 4.742 
153 1 3.706 -1.245 5.517 
154 1 -1.438 -12.571 -13.407 
155 1 -3.666 8.271 13.402 
156 1 0.672 6.908 -3.344 
157 1 8.872 9.003 14.888 
158 1 -4.342 -2.832 13.558 
159 1 -14.598 7.499 -9.918 
160 1 -6.768 -6.438 12.948 
161 1 -7.140 -10.729 -14.005 
162 1 5.818 -10.124 7.560 
163 1 -0.791 -6.593 -7.045 
164 1 5.672 10.922 9.133 
165 1 -6.945 12.164 -6.299 
166 1 -6.764 -5.440 -10.927 
167 1 -4.001 5.391 1.301 
168 1 1.056 6.621 2.470 
169 1 -6.248 3.409 -0.593 
170 1 -8.330 9.742 4.261 
171 1 1.997 -1.130 -1.424 
172 1 4.774 10.062 5.828 
173 1 -3.755 8.380 -1.133 
174 1 12.832 -6.046 14.740 
175 1 10.368 -3.088 12.931 
176 1 1.902 1.865 13.178 
177 1 11.019 14.757 -8.535 
178 1 1.974 1.043 3.006 
179 1 -9.295 -14.513 5.258 
180 1 -3.999 -4.614 -5.431 
181 1 12.185 -13.239 10.205 
182 1 -7.372 -5.765 2.954 
183 1 7.876 2.695 1.915 
184 1 -3.183 8.682 -9.320 
185 1 9.412 -1.039 0.112 
186 1 -2.035 12.042 -8.449 
187 1 -4.544 14.833 12.157 
188 1 7.490 5.244 4.312 
189 1 10.018 10.053 9.666 
190 1 2.533 -11.021 9.055 
191 1 -3.796 -15.093 3.738 
192 1 -2.049 -2.822 -11.774 
193 1 -7.446 -11.884 -9.940 
194 1 4.559 11.150 -7.700 
195 1 -13.833 6.642 9.230 
196 1 -6.188 11.177 11.018 
197 1 -5.148 4.852 14.625 
198 1 -0.957 4.735 13.321 
199 1 6.351 -0.170 2.032 
200 1 4.684 -10.196 -6.697 
ITEM: TIMESTEP
7000
ITEM: NUMBER OF ATOMS
200
ITEM: BOX BOUNDS pp pp pp
-15.145370694641318 15.145370694641318
-15.145370694641318 15.145370694641318
-15.145370694641318 15.145370694641318
ITEM: ATOMS id type x y z
1 1 5.240 6.833 2.396 
2 1 1.395 11.705 -0.535 
3 1 2.535 4.576 -11.356 
4 1 0.004 7.579 10.000 
5 1 -10.467 -2.962 4.029 
6 1 2.889 13.890 6.597 
7 1 7.347 -3.451 6.495 
8 1 2.556 10.050 10.420 
9 1 4.198 12.626 2.838 
10 1 -7.910 6.969 -1.259 
11 1 -2.444 -11.067 4.169 
12 1 13.259 12.975 10.076 
13 1 -9.755 -6.483 -2.020 
14 1 14.440 -5.374 5.590 
15 1 5.935 3.715 12.723 
16 1 -0.212 12.215 -13.805 
17 1 -2.058 -10.751 -0.899 
18 1 1.323 -12.637 -5.917 
19 1 -5.453 3.280 5.077 
20 1 -1.855 0.394 -3.204 
21 1 0.548 -1.286 -13.027 
22 1 -2.527 -7.798 -9.523 
23 1 10.099 10.253 -8.216 
24 1 13.550 9.415 -7.080 
25 1 -8.084 10.993 14.589 
26 1 8.012 14.934 -11.472 
27 1 -11.583 3.497 5.458 
28 1 -13.904 13.821 -7.753 
29 1 -1.921 5.883 -6.167 
30 1 -7.340 -2.126 6.438 
31 1 -10.558 2.047 2.061 
32 1 1.251 10.974 4.111 
33 1 -0.296 0.343 -9.733 
34 1 -11.577 8.267 11.197 
35 1 -2.184 -11.813 10.379 
36 1 -12.478 1.510 13.139 
37 1 4.317 -1.513 -13.619 
38 1 -4.504 -10.446 1.873 
39 1 -7.847 6.316 7.466 
40 1 -0.583 3.845 -15.110 
41 1 -0.213 -8.281 -3.932 
42 1 13.808 -14.182 -8.368 
43 1 -13.566 -1.829 1.806 
44 1 4.061 -1.038 -10.296 
45 1 7.179 -11.655 -4.638 
46 1 -7.215 14.169 12.882 
47 1 -9.399 -8.380 8.745 
48 1 2.547 -13.295 4.362 
49 1 3.546 1.263 9.704 
50 1 5.862 11.417 -11.242 
51 1 -2.250 10.786 5.243 
52 1 3.144 5.404 8.116 
53 1 7.859 -11.686 -9.498 
54 1 9.944 13.883 -0.679 
55 1 2.881 -4.755 -14.069 
56 1 -6.660 2.161 13.860 
57 1 7.957 9.138 6.202 
58 1 14.846 -1.020 -8.026 
59 1 2.117 -10.810 -12.708 
60 1 -2.324 0.790 0.386 
61 1 11.245 11.084 5.258 
62 1 -12.706 -3.658 -9.516 
63 1 6.511 14.751 6.934 
64 1 -7.252 -8.970 4.459 
65 1 -4.823 5.888 10.415 
66 1 -8.208 14.379 -2.418 
67 1 11.061 4.577 8.316 
68 1 12.308 4.789 -7.827 
69 1 0.549 -7.866 14.033 
70 1 -4.247 10.216 7.786 
71 1 13.941 1.031 3.516 
72 1 8.049 -12.486 0.593 
73 1 -7.583 -14.723 2.852 
74 1 -10.493 2.712 -11.657 
75 1 1.415 -11.718 1.562 
76 1 10.087 -14.390 13.490 
77 1 -4.534 -6.206 6.077 
78 1 1.965 -8.483 -9.861 
79 1 8.213 -11.681 -14.429 
80 1 -11.748 -0.536 6.464 
81 1 1.831 -3.462 -8.022 
82 1 -5.812 12.981 5.396 
83 1 -5.571 -10.186 -1.948 
84 1 -8.337 -1.162 10.042 
85 1 -13.962 8.842 -13.696 
86 1 -3.642 -8.719 -6.319 
87 1 -7.044 6.743 -12.849 
88 1 1.480 2.018 -4.217 
89 1 -0.996 -1.390 -5.964 
90 1 2.913 3.761 -0.807 
91 1 -14.794 -12.514 3.672 
92 1 -0.159 -15.086 5.984 
93 1 -9.051 3.476 -8.596 
94 1 11.463 8.316 -10.895 
95 1 0.774 14.944 1.533 
96 1 -10.557 5.857 -3.734 
97 1 -3.230 6.812 6.870 
98 1 -13.318 9.485 -6.710 
99 1 -3.336 -15.097 -0.564 
100 1 4.288 -0.069 -7.356 
101 1 0.078 11.633 7.689 
102 1 -10.671 -12.048 0.784 
103 1 -14.552 -8.597 -10.762 
104 1 -9.910 9.227 -9.863 
105 1 -7.471 -12.570 8.125 
106 1 5.233 -9.004 -10.575 
107 1 -0.246 -3.393 0.449 
108 1 9.913 12.814 -13.252 
109 1 -7.811 5.752 3.991 
110 1 0.618 3.506 10.005 
111 1 1.968 -4.726 12.294 
112 1 6.682 12.517 11.202 
113 1 -12.230 5.712 -12.297 
114 1 6.185 5.228 9.540 
115 1 -8.594 -8.798 -11.597 
116 1 2.976 -5.232 -0.214 
117 1 10.414 -3.872 3.736 
118 1 -6.077 -1.715 -2.981 
119 1 11.482 -11.660 -9.356 
120 1 -5.622 -5.124 8.976 
121 1 6.337 6.336 -13.601 
122 1 -7.247 5.159 -6.249 
123 1 -2.985 11.115 1.395 
124 1 3.626 4.009 4.673 
125 1 3.440 -3.762 -4.445 
126 1 -8.795 -6.416 6.148 
127 1 -4.871 2.026 9.389 
128 1 13.452 12.442 -6.534 
129 1 -4.440 11.322 14.621 
130 1 9.642 -6.581 -12.753 
131 1 -4.425 -0.969 3.634 
132 1 -10.309 12.893 6.825 
133 1 6.011 -5.361 -9.238 
134 1 13.090 14.306 14.317 
135 1 14.423 -1.024 7.602 
136 1 -2.931 2.034 13.217 
137 1 0.726 2.953 2.210 
138 1 -2.306 10.874 -4.941 
139 1 -5.215 -8.887 -11.137 
140 1 -1.644 14.402 10.135 
141 1 -7.392 -3.122 -5.892 
142 1 -9.012 2.246 7.013 
143 1 -3.932 -6.950 -2.625 
144 1 -3.584 -14.580 6.602 
145 1 -8.716 9.400 9.595 
146 1 -6.940 -6.243 -7.878 
147 1 -12.476 -1.904 -4.810 
148 1 -0.038 7.658 6.695 
149 1 -6.429 -1.177 -13.322 
150 1 -5.395 -8.556 8.436 
151 1 5.369 1.123 -0.790 
152 1 -11.430 6.682 4.835 
153 1 2.296 -1.060 6.402 
154 1 -1.376 -12.870 -12.579 
155 1 -3.803 8.542 13.006 
156 1 0.543 7.410 -4.117 
157 1 8.094 9.832 14.100 
158 1 -4.190 -1.962 13.958 
159 1 -14.610 6.636 -9.057 
160 1 -6.512 -6.426 13.361 
161 1 -6.815 -11.714 -13.821 
162 1 6.605 -10.892 8.611 
163 1 0.071 -6.026 -6.652 
164 1 5.533 10.135 8.909 
165 1 -7.387 12.717 -5.306 
166 1 -6.787 -5.617 -11.295 
167 1 -4.298 5.742 2.136 
168 1 1.563 7.134 2.023 
169 1 -6.831 3.277 -0.152 
170 1 -7.796 9.721 4.526 
171 1 1.781 -1.431 -2.126 
172 1 4.006 9.532 5.935 
173 1 -3.629 8.033 -2.444 
174 1 14.142 -4.864 14.284 
175 1 10.616 -3.860 12.557 
176 1 2.840 2.533 14.291 
177 1 10.842 14.199 -8.821 
178 1 2.867 -0.068 2.917 
179 1 -10.787 -13.704 5.206 
180 1 -3.835 -3.536 -5.092 
181 1 11.598 -12.727 10.517 
182 1 -7.694 -6.042 2.477 
183 1 7.879 3.069 2.225 
184 1 -3.015 8.138 -9.700 
185 1 9.588 -0.570 0.551 
186 1 -0.708 12.512 -8.251 
187 1 -3.644 14.653 12.991 
188 1 7.050 5.076 5.849 
189 1 10.465 10.359 10.004 
190 1 1.892 -11.485 7.842 
191 1 -3.843 14.007 2.735 
192 1 -2.526 -2.451 -10.432 
193 1 -7.525 -12.269 -10.918 
194 1 3.638 10.688 -8.166 
195 1 -14.083 6.433 9.301 
196 1 -6.214 10.683 11.708 
197 1 -5.988 5.426 14.757 
198 1 -2.161 5.678 13.093 
199 1 7.232 -0.688 2.951 
200 1 4.815 -9.797 -7.410 
ITEM: TIMESTEP
8000
ITEM: NUMBER OF ATOMS
200
ITEM: BOX BOUNDS pp pp pp
-15.145370694641318 15.145370694641318
-15.145370694641318 15.145370694641318
-15.145370694641318 15.145370694641318
ITEM: ATOMS id type x y z
1 1 6.850 8.199 2.800 
2 1 1.093 11.282 -0.346 
3 1 2.481 5.453 -11.064 
4 1 0.189 6.890 10.347 
5 1 -10.876 -3.096 4.075 
6 1 2.702 13.313 5.485 
7 1 6.483 -4.317 6.705 
8 1 3.218 10.632 11.432 
9 1 5.344 12.828 2.675 
10 1 -7.795 8.890 -1.603 
11 1 -2.210 -11.452 4.412 
12 1 13.368 14.003 9.910 
13 1 -8.879 -7.618 -2.384 
14 1 -14.447 -3.990 5.501 
15 1 6.071 3.868 13.010 
16 1 0.334 10.898 -12.265 
17 1 -1.851 -11.116 -0.639 
18 1 3.085 -13.271 -6.422 
19 1 -5.511 3.682 5.740 
20 1 -2.554 0.188 -3.313 
21 1 1.326 0.056 -12.677 
22 1 -2.116 -7.608 -9.705 
23 1 10.615 10.683 -9.565 
24 1 13.347 8.241 -7.184 
25 1 -8.597 12.869 -14.751 
26 1 9.066 -14.768 -11.537 
27 1 -11.978 3.145 5.440 
28 1 -12.925 14.144 -7.737 
29 1 -1.527 5.026 -6.240 
30 1 -8.374 -0.954 6.012 
31 1 -10.570 1.827 1.247 
32 1 1.421 10.185 3.481 
33 1 -1.153 1.723 -9.690 
34 1 -10.317 7.802 11.605 
35 1 -1.634 -10.136 10.536 
36 1 -12.166 2.370 11.689 
37 1 4.828 -0.459 14.562 
38 1 -4.288 -9.793 2.019 
39 1 -7.572 6.161 7.641 
40 1 -0.994 3.556 -14.043 
41 1 0.547 -7.906 -2.601 
42 1 13.803 -13.908 -6.698 
43 1 -13.597 -2.202 1.578 
44 1 4.459 -0.760 -10.447 
45 1 8.664 -11.388 -5.657 
46 1 -7.990 14.486 12.476 
47 1 -9.286 -9.206 8.826 
48 1 3.123 -13.010 4.795 
49 1 5.141 1.541 9.943 
50 1 4.930 10.668 -12.040 
51 1 -2.366 11.141 4.363 
52 1 3.085 5.803 7.612 
53 1 7.728 -11.410 -9.272 
54 1 10.514 13.919 -0.808 
55 1 3.362 -4.250 14.989 
56 1 -7.617 1.883 13.376 
57 1 7.780 8.751 6.166 
58 1 13.754 -1.426 -8.817 
59 1 2.106 -11.133 -12.424 
60 1 -2.386 0.888 0.746 
61 1 11.392 10.600 5.995 
62 1 -12.315 -3.105 -9.639 
63 1 7.134 14.743 6.957 
64 1 -6.793 -9.100 5.330 
65 1 -5.431 6.010 10.920 
66 1 -8.040 14.666 -1.507 
67 1 11.293 4.130 7.397 
68 1 12.025 4.179 -8.025 
69 1 0.216 -7.315 13.907 
70 1 -4.492 10.338 7.989 
71 1 14.853 1.217 2.910 
72 1 8.443 -13.355 1.122 
73 1 -8.024 14.803 3.164 
74 1 -11.161 3.135 -11.198 
75 1 1.612 -11.369 1.018 
76 1 8.278 -13.330 13.184 
77 1 -3.617 -5.252 6.237 
78 1 1.207 -8.354 -9.497 
79 1 7.526 -10.980 -13.532 
80 1 -10.772 0.214 7.937 
81 1 2.455 -2.951 -7.997 
82 1 -5.708 13.771 5.650 
83 1 -5.309 -11.069 -1.126 
84 1 -7.492 -0.792 9.340 
85 1 -14.736 8.949 -13.935 
86 1 -3.244 -9.816 -6.868 
87 1 -7.302 6.038 -12.714 
88 1 0.589 2.748 -4.250 
89 1 -0.466 -1.569 -6.040 
90 1 2.631 3.953 -0.928 
91 1 -14.161 -12.830 3.988 
92 1 0.440 -14.559 6.099 
93 1 -9.077 2.639 -8.514 
94 1 12.543 7.383 -10.855 
95 1 1.096 -14.773 1.108 
96 1 -10.934 5.965 -3.383 
97 1 -3.004 6.108 6.208 
98 1 -13.282 9.797 -6.016 
99 1 -3.003 -14.523 -1.886 
100 1 4.438 0.329 -7.181 
101 1 -0.244 11.628 7.873 
102 1 -10.342 -12.697 1.229 
103 1 -13.059 -8.393 -10.046 
104 1 -9.182 9.488 -7.779 
105 1 -6.811 -11.927 7.057 
106 1 5.822 -8.465 -10.611 
107 1 -0.407 -4.115 -0.833 
108 1 9.817 12.610 -12.839 
109 1 -8.331 5.632 3.785 
110 1 0.368 2.300 10.027 
111 1 0.770 -3.450 12.447 
112 1 6.224 13.139 12.706 
113 1 -12.814 5.663 -12.891 
114 1 5.915 5.396 9.730 
115 1 -8.472 -8.896 -11.057 
116 1 3.056 -5.765 0.019 
117 1 10.173 -2.989 4.108 
118 1 -5.832 -2.456 -2.577 
119 1 11.362 -10.813 -9.536 
120 1 -7.036 -4.619 9.258 
121 1 8.060 6.356 -14.127 
122 1 -6.918 6.012 -6.218 
123 1 -3.504 11.189 1.520 
124 1 4.002 2.704 4.577 
125 1 3.466 -3.320 -4.115 
126 1 -9.941 -7.032 5.889 
127 1 -5.355 2.105 9.657 
128 1 13.681 12.070 -5.789 
129 1 -4.243 10.835 -14.676 
130 1 8.372 -5.659 -13.197 
131 1 -5.056 0.372 3.341 
132 1 -9.066 12.830 6.426 
133 1 5.171 -5.572 -8.291 
134 1 12.472 13.327 14.811 
135 1 14.251 -1.409 7.580 
136 1 -3.021 2.406 12.008 
137 1 -1.288 4.196 4.119 
138 1 -2.243 11.858 -4.027 
139 1 -5.245 -9.423 -11.005 
140 1 -1.464 13.008 10.516 
141 1 -7.086 -1.807 -6.088 
142 1 -8.567 2.951 7.298 
143 1 -3.429 -7.347 -3.994 
144 1 -3.416 14.793 8.103 
145 1 -8.254 9.551 9.117 
146 1 -6.040 -6.439 -7.367 
147 1 -12.044 -2.617 -4.036 
148 1 0.224 7.613 6.713 
149 1 -6.167 -0.810 -12.673 
150 1 -5.511 -8.421 8.569 
151 1 5.747 0.268 -0.616 
152 1 -12.332 6.537 4.193 
153 1 2.583 -0.692 8.349 
154 1 -1.486 -12.256 -12.492 
155 1 -4.218 8.096 13.223 
156 1 0.177 6.771 -3.487 
157 1 8.763 9.728 -15.090 
158 1 -4.234 -3.311 13.111 
159 1 -14.442 6.120 -8.970 
160 1 -6.752 -6.593 13.891 
161 1 -7.480 -11.307 -15.020 
162 1 6.208 -11.141 8.542 
163 1 -0.560 -5.880 -6.810 
164 1 6.066 9.527 9.324 
165 1 -7.217 12.019 -5.253 
166 1 -6.414 -5.812 -10.970 
167 1 -3.927 5.189 1.317 
168 1 1.351 6.711 3.278 
169 1 -6.959 4.414 0.293 
170 1 -7.518 9.156 4.192 
171 1 0.971 -1.094 -2.875 
172 1 3.087 9.523 6.213 
173 1 -3.958 8.966 -1.611 
174 1 14.349 -4.790 14.128 
175 1 11.320 -3.978 12.349 
176 1 2.001 2.533 14.912 
177 1 11.610 13.810 -9.201 
178 1 2.178 -0.268 3.085 
179 1 -11.599 15.114 5.092 
180 1 -3.972 -3.650 -4.953 
181 1 11.542 -12.881 10.116 
182 1 -7.206 -5.984 2.526 
183 1 7.316 2.943 2.386 
184 1 -2.462 8.429 -10.433 
185 1 10.718 0.129 0.011 
186 1 -0.868 13.206 -9.793 
187 1 -3.351 13.907 13.619 
188 1 7.579 5.295 6.304 
189 1 9.879 9.809 9.404 
190 1 2.652 -11.626 8.187 
191 1 -3.285 14.526 3.069 
192 1 -2.323 -2.538 -11.310 
193 1 -7.600 -12.674 -10.646 
194 1 3.262 10.524 -8.145 
195 1 -13.610 5.673 8.390 
196 1 -5.828 11.744 10.918 
197 1 -6.089 4.953 14.497 
198 1 -2.128 5.244 13.447 
199 1 7.138 -1.040 3.558 
200 1 4.750 -9.830 -7.355 
ITEM: TIMESTEP
9000
ITEM: NUMBER OF ATOMS
200
ITEM: BOX BOUNDS pp pp pp
-15.145370694641318 15.145370694641318
-15.145370694641318 15.145370694641318
-15.145370694641318 15.145370694641318
ITEM: ATOMS id type x y z
1 1 6.529 8.791 2.648 
2 1 1.121 11.296 -0.949 
3 1 2.695 5.358 -10.788 
4 1 0.634 6.793 10.395 
5 1 -10.591 -2.932 3.975 
6 1 2.235 13.397 5.783 
7 1 6.965 -2.787 6.677 
8 1 3.492 9.993 13.758 
9 1 5.106 12.822 3.325 
10 1 -8.951 9.706 -1.418 
11 1 -2.863 -11.410 4.864 
12 1 12.590 14.191 9.252 
13 1 -8.505 -7.889 -2.586 
14 1 -14.306 -4.609 4.754 
15 1 5.986 3.485 14.239 
16 1 0.407 11.230 -12.730 
17 1 -1.245 -10.803 -0.674 
18 1 3.344 -13.959 -6.320 
19 1 -5.893 3.551 5.249 
20 1 -2.489 -0.121 -2.460 
21 1 0.503 -0.070 -12.279 
22 1 -2.790 -8.045 -9.804 
23 1 10.266 9.700 -10.123 
24 1 14.077 8.554 -7.971 
25 1 -8.708 11.914 -14.400 
26 1 9.032 -14.460 -11.221 
27 1 -12.397 2.015 4.515 
28 1 -12.982 14.578 -7.758 
29 1 -2.045 4.444 -6.532 
30 1 -8.561 -1.224 5.627 
31 1 -10.360 1.665 0.702 
32 1 1.807 10.910 3.216 
33 1 -0.234 2.929 -9.797 
34 1 -10.602 7.167 11.324 
35 1 -1.583 -10.863 10.506 
36 1 -12.057 2.141 10.520 
37 1 5.271 -0.404 -15.120 
38 1 -4.600 -8.307 1.751 
39 1 -7.353 6.182 7.172 
40 1 -0.100 4.548 -14.541 
41 1 0.616 -8.850 -2.844 
42 1 14.647 -13.271 -6.926 
43 1 -12.683 -2.166 0.958 
44 1 4.874 -0.666 -10.298 
45 1 8.629 -11.491 -6.394 
46 1 -7.819 14.296 11.986 
47 1 -9.088 -8.769 8.723 
48 1 3.141 -13.698 4.734 
49 1 5.665 2.004 9.817 
50 1 4.354 8.671 -11.049 
51 1 -1.999 10.787 4.347 
52 1 3.247 5.413 6.609 
53 1 8.129 -11.220 -10.010 
54 1 9.809 14.124 -1.409 
55 1 2.708 -2.692 15.011 
56 1 -7.486 2.275 12.717 
57 1 8.384 9.633 6.193 
58 1 12.110 -1.631 -8.977 
59 1 1.487 -10.389 -13.033 
60 1 -1.122 0.867 0.941 
61 1 11.350 11.237 5.875 
62 1 -11.545 -4.051 -9.439 
63 1 6.872 14.237 6.651 
64 1 -6.142 -9.117 5.228 
65 1 -5.406 6.529 9.730 
66 1 -7.099 -14.151 -2.249 
67 1 10.805 4.626 8.025 
68 1 10.618 4.679 -6.077 
69 1 1.022 -6.732 14.219 
70 1 -4.584 10.405 7.327 
71 1 14.852 1.881 2.685 
72 1 8.817 -13.107 1.157 
73 1 -8.145 -14.802 2.868 
74 1 -12.987 2.968 -10.338 
75 1 1.792 -10.717 1.442 
76 1 8.573 -13.344 13.061 
77 1 -2.567 -5.750 6.213 
78 1 1.003 -8.424 -8.778 
79 1 7.369 -10.985 -13.296 
80 1 -11.963 -0.125 8.017 
81 1 2.564 -2.212 -8.135 
82 1 -5.456 13.204 5.640 
83 1 -5.364 -10.985 -1.883 
84 1 -7.465 -1.460 9.925 
85 1 -14.592 9.036 -13.458 
86 1 -3.167 -10.240 -6.596 
87 1 -6.358 5.685 -12.095 
88 1 -0.089 2.653 -4.177 
89 1 -0.390 -1.798 -5.399 
90 1 1.707 4.387 -1.342 
91 1 -14.185 -13.321 4.698 
92 1 0.172 -13.714 7.266 
93 1 -9.968 1.847 -9.005 
94 1 12.877 7.097 -12.574 
95 1 1.091 -14.614 1.076 
96 1 -11.939 5.902 -3.612 
97 1 -3.026 5.797 6.748 
98 1 -12.495 10.587 -4.819 
99 1 -3.636 14.911 -1.729 
100 1 4.735 1.118 -6.271 
101 1 0.191 11.349 7.257 
102 1 -8.875 -11.819 2.037 
103 1 -13.096 -8.562 -9.159 
104 1 -7.021 9.200 -8.515 
105 1 -5.396 -11.842 8.297 
106 1 4.889 -8.078 -10.619 
107 1 -0.504 -4.141 -0.683 
108 1 9.615 12.515 -13.555 
109 1 -8.060 5.779 4.065 
110 1 1.092 2.973 10.402 
111 1 0.085 -3.491 12.619 
112 1 5.056 12.987 12.361 
113 1 -12.466 5.599 -12.743 
114 1 4.747 6.612 10.656 
115 1 -9.364 -7.583 -11.234 
116 1 2.934 -5.083 0.489 
117 1 10.307 -2.923 3.758 
118 1 -5.116 -2.495 -2.048 
119 1 11.662 -12.118 -7.885 
120 1 -7.156 -5.598 8.381 
121 1 7.935 6.315 -14.306 
122 1 -5.867 5.290 -7.657 
123 1 -3.462 12.018 1.651 
124 1 1.930 2.976 4.055 
125 1 3.430 -2.797 -4.481 
126 1 -9.009 -6.375 5.758 
127 1 -5.450 1.678 9.397 
128 1 13.876 12.225 -7.173 
129 1 -3.330 11.837 -14.469 
130 1 8.361 -7.136 -12.965 
131 1 -5.337 0.508 2.255 
132 1 -9.448 13.591 7.868 
133 1 6.042 -5.641 -6.683 
134 1 12.338 14.694 14.507 
135 1 13.192 -1.931 7.644 
136 1 -3.283 1.055 12.408 
137 1 -1.026 3.677 4.390 
138 1 -1.801 12.045 -3.040 
139 1 -4.451 -9.478 -12.086 
140 1 -1.077 14.197 10.807 
141 1 -6.016 -2.764 -7.498 
142 1 -8.135 2.134 7.184 
143 1 -3.685 -8.319 -4.011 
144 1 -2.359 14.564 7.953 
145 1 -8.983 9.628 7.272 
146 1 -6.122 -6.329 -7.561 
147 1 -12.500 -2.086 -3.762 
148 1 -0.527 8.041 6.057 
149 1 -6.067 -0.803 -12.662 
150 1 -5.510 -8.278 8.592 
151 1 5.127 0.596 -0.558 
152 1 -13.635 8.424 3.625 
153 1 2.626 -1.685 8.630 
154 1 -1.107 -12.547 -13.193 
155 1 -4.277 8.159 13.186 
156 1 0.901 7.124 -3.665 
157 1 7.706 9.990 13.702 
158 1 -4.770 -1.518 13.167 
159 1 -13.661 6.439 -8.917 
160 1 -6.511 -7.036 13.739 
161 1 -6.006 -12.019 -15.021 
162 1 6.220 -11.096 8.347 
163 1 -0.186 -5.601 -6.711 
164 1 4.907 10.269 9.653 
165 1 -7.439 12.675 -5.462 
166 1 -6.682 -4.935 -11.071 
167 1 -3.940 4.642 1.716 
168 1 -0.184 7.765 2.725 
169 1 -6.969 4.306 0.173 
170 1 -6.951 9.025 2.863 
171 1 1.445 -0.627 -2.519 
172 1 3.183 8.812 5.890 
173 1 -4.092 8.993 -2.384 
174 1 13.631 -5.235 14.687 
175 1 11.434 -3.204 11.909 
176 1 2.268 2.223 -14.810 
177 1 10.712 13.355 -9.546 
178 1 1.452 -1.460 3.452 
179 1 -11.516 14.645 5.163 
180 1 -3.665 -4.045 -5.174 
181 1 11.759 -13.415 10.781 
182 1 -7.852 -6.203 2.138 
183 1 8.241 2.835 2.633 
184 1 -1.831 7.927 -10.676 
185 1 11.255 -1.154 -0.009 
186 1 -0.842 12.986 -9.990 
187 1 -4.350 13.743 12.812 
188 1 7.047 5.648 6.099 
189 1 10.617 10.422 10.016 
190 1 2.654 -11.471 8.698 
191 1 -3.752 -14.646 3.575 
192 1 -2.918 -1.830 -11.587 
193 1 -7.252 -13.733 -10.815 
194 1 2.690 10.196 -7.645 
195 1 -12.771 4.117 7.721 
196 1 -6.796 11.151 11.729 
197 1 -6.484 4.580 14.875 
198 1 -2.766 5.145 12.948 
199 1 6.041 -1.472 2.914 
200 1 4.923 -10.105 -7.749 
ITEM: TIMESTEP
10000
ITEM: NUMBER OF ATOMS
200
ITEM: BOX BOUNDS pp pp pp
-15.145370694641318 15.145370694641318
-15.145370694641318 15.145370694641318
-15.145370694641318 15.145370694641318
ITEM: ATOMS id type x y z
1 1 6.517 7.438 2.252 
2 1 0.773 11.284 -1.445 
3 1 2.785 4.911 -10.666 
4 1 0.646 6.571 10.217 
5 1 -11.276 -3.599 4.137 
6 1 2.402 13.465 5.533 
7 1 7.325 -3.215 6.682 
8 1 4.012 9.567 14.285 
9 1 5.349 11.722 2.228 
10 1 -8.963 9.721 -3.010 
11 1 -2.749 -11.377 3.269 
12 1 12.214 13.886 8.407 
13 1 -8.995 -7.805 -2.933 
14 1 -14.341 -5.259 5.165 
15 1 5.417 3.181 -14.827 
16 1 -0.174 11.654 -13.285 
17 1 -1.131 -11.004 -1.078 
18 1 2.389 -14.999 -7.111 
19 1 -5.254 3.487 4.825 
20 1 -2.620 0.391 -2.814 
21 1 0.942 -1.009 -11.979 
22 1 -2.101 -7.421 -9.110 
23 1 11.201 9.986 -11.093 
24 1 13.700 9.195 -7.724 
25 1 -10.150 11.802 -13.327 
26 1 9.262 -13.954 -11.798 
27 1 -11.993 0.680 3.740 
28 1 -13.346 13.304 -7.569 
29 1 -2.410 5.721 -7.336 
30 1 -8.382 -1.802 5.928 
31 1 -11.033 1.969 0.429 
32 1 1.645 11.098 3.095 
33 1 -0.540 3.729 -10.030 
34 1 -10.056 6.977 11.318 
35 1 -2.289 -10.897 9.993 
36 1 -11.838 1.533 11.672 
37 1 5.482 -0.238 -14.973 
38 1 -5.305 -9.155 1.188 
39 1 -8.580 5.741 7.970 
40 1 -0.468 4.568 -14.230 
41 1 0.426 -8.745 -2.931 
42 1 -14.783 -13.116 -5.951 
43 1 -12.925 -1.805 1.650 
44 1 4.093 -1.256 -10.347 
45 1 9.065 -12.698 -4.789 
46 1 -7.521 14.733 11.696 
47 1 -9.069 -9.237 8.892 
48 1 3.362 -13.719 4.278 
49 1 5.226 1.777 10.249 
50 1 3.613 9.296 -10.745 
51 1 -1.909 11.395 4.963 
52 1 3.149 5.679 7.670 
53 1 7.382 -10.985 -9.397 
54 1 10.636 -15.034 -2.189 
55 1 2.676 -2.952 14.918 
56 1 -8.235 2.348 13.059 
57 1 8.123 8.235 5.397 
58 1 12.973 -1.627 -8.915 
59 1 1.707 -10.408 -12.469 
60 1 -0.211 -0.394 1.020 
61 1 11.857 11.469 6.136 
62 1 -9.896 -3.498 -8.672 
63 1 7.618 13.902 5.088 
64 1 -5.808 -8.920 5.054 
65 1 -4.931 6.799 9.237 
66 1 -6.877 -14.889 -2.254 
67 1 12.017 4.030 9.076 
68 1 10.162 4.718 -6.152 
69 1 1.484 -5.869 13.568 
70 1 -4.550 10.032 7.394 
71 1 -14.780 2.680 2.014 
72 1 10.130 -13.358 1.063 
73 1 -8.854 -14.028 2.502 
74 1 -13.360 2.479 -10.972 
75 1 1.348 -11.637 0.957 
76 1 8.673 -14.219 13.431 
77 1 -3.229 -5.710 5.119 
78 1 1.926 -8.599 -8.628 
79 1 6.642 -11.234 -14.281 
80 1 -11.511 0.497 7.696 
81 1 2.167 -1.622 -7.888 
82 1 -5.907 13.227 6.292 
83 1 -4.423 -11.404 -2.406 
84 1 -7.509 -0.571 9.576 
85 1 -13.957 8.926 14.753 
86 1 -3.186 -11.269 -6.604 
87 1 -6.335 5.516 -12.241 
88 1 0.126 2.997 -4.947 
89 1 -0.778 -2.584 -5.787 
90 1 2.359 4.373 -2.244 
91 1 -15.109 -13.015 4.490 
92 1 0.885 -14.218 7.172 
93 1 -8.593 1.425 -9.399 
94 1 13.583 7.119 -13.977 
95 1 1.343 14.948 1.485 
96 1 -11.681 6.385 -3.311 
97 1 -3.680 6.569 5.634 
98 1 -12.607 10.115 -6.087 
99 1 -2.690 -14.899 -1.471 
100 1 4.458 0.903 -5.693 
101 1 -0.185 11.786 7.972 
102 1 -8.091 -10.752 0.580 
103 1 -13.076 -9.376 -8.586 
104 1 -5.814 7.191 -9.468 
105 1 -5.332 -12.116 8.377 
106 1 5.279 -8.184 -10.059 
107 1 -0.284 -3.807 -0.748 
108 1 9.147 11.784 -12.992 
109 1 -8.007 6.092 4.529 
110 1 0.704 1.841 11.288 
111 1 0.676 -2.945 11.795 
112 1 5.254 13.074 12.139 
113 1 -12.535 6.010 -13.718 
114 1 4.564 6.285 11.050 
115 1 -8.629 -8.448 -10.993 
116 1 3.645 -3.856 1.555 
117 1 10.036 -2.618 2.131 
118 1 -4.924 -2.870 -1.998 
119 1 10.818 -12.495 -8.276 
120 1 -7.037 -5.534 8.640 
121 1 8.678 6.352 -14.091 
122 1 -6.245 4.763 -6.385 
123 1 -3.074 10.428 1.607 
124 1 1.798 2.415 3.934 
125 1 3.457 -4.732 -4.548 
126 1 -9.419 -6.277 5.724 
127 1 -5.516 2.424 9.251 
128 1 14.084 12.299 -6.420 
129 1 -4.176 11.180 -13.921 
130 1 8.305 -7.853 -13.776 
131 1 -5.278 0.196 2.730 
132 1 -9.062 13.099 8.867 
133 1 6.058 -6.435 -6.015 
134 1 14.651 14.931 14.343 
135 1 12.979 -2.547 8.218 
136 1 -3.082 1.950 14.154 
137 1 -1.923 2.946 5.041 
138 1 -2.749 11.898 -4.168 
139 1 -4.800 -9.097 -13.168 
140 1 -1.170 14.183 10.791 
141 1 -5.952 -2.952 -8.074 
142 1 -8.581 2.028 6.704 
143 1 -2.985 -8.574 -3.742 
144 1 -2.972 14.796 8.169 
145 1 -8.658 10.152 6.951 
146 1 -5.529 -7.023 -7.744 
147 1 -12.159 -1.967 -3.027 
148 1 -0.691 8.390 6.269 
149 1 -6.681 0.724 -12.735 
150 1 -4.721 -8.528 8.544 
151 1 5.462 -0.084 -0.840 
152 1 -14.357 8.904 2.471 
153 1 3.827 -2.646 7.372 
154 1 -1.527 -13.539 -13.358 
155 1 -4.712 8.361 13.175 
156 1 1.178 7.176 -3.699 
157 1 7.652 10.243 14.008 
158 1 -4.748 -1.235 13.361 
159 1 -14.127 5.859 -8.836 
160 1 -6.587 -7.022 11.646 
161 1 -5.193 -13.347 -15.001 
162 1 5.664 -11.556 8.514 
163 1 -0.051 -5.950 -6.298 
164 1 2.835 9.950 10.299 
165 1 -6.778 12.440 -5.409 
166 1 -7.735 -4.469 -11.234 
167 1 -4.155 5.979 2.101 
168 1 -0.093 7.679 2.373 
169 1 -6.363 2.727 -0.291 
170 1 -8.041 9.733 2.349 
171 1 1.590 -1.228 -2.046 
172 1 3.158 9.427 5.959 
173 1 -3.613 8.649 -1.744 
174 1 12.981 -5.657 -13.299 
175 1 10.740 -2.949 12.447 
176 1 2.043 1.545 -14.388 
177 1 10.011 13.716 -10.042 
178 1 2.657 -1.061 4.266 
179 1 -10.906 14.469 5.432 
180 1 -3.801 -5.075 -4.835 
181 1 12.868 -13.225 11.398 
182 1 -7.523 -6.453 1.657 
183 1 9.551 3.579 1.123 
184 1 -2.211 8.350 -11.246 
185 1 11.477 -1.332 -0.914 
186 1 -1.220 12.384 -9.977 
187 1 -3.792 13.215 12.715 
188 1 6.112 5.070 8.300 
189 1 11.181 11.661 10.718 
190 1 2.153 -11.270 8.161 
191 1 -3.626 15.119 3.536 
192 1 -4.236 -2.504 -12.044 
193 1 -6.990 -14.645 -11.107 
194 1 2.518 10.971 -7.753 
195 1 -12.527 5.501 6.902 
196 1 -6.986 10.595 13.690 
197 1 -6.206 4.539 14.595 
198 1 -2.936 5.036 12.677 
199 1 6.408 -0.927 2.754 
200 1 4.495 -10.596 -8.059 
ITEM: TIMESTEP
11000
ITEM: NUMBER OF ATOMS
200
ITEM: BOX BOUNDS pp pp pp
-15.145370694641318 15.145370694641318
-15.145370694641318 15.145370694641318
-15.145370694641318 15.145370694641318
ITEM: ATOMS id type x y z
1 1 6.936 7.118 1.859 
2 1 0.109 11.863 -0.667 
3 1 3.671 5.516 -10.779 
4 1 0.239 7.244 10.373 
5 1 -11.317 -3.750 4.660 
6 1 4.243 13.878 5.614 
7 1 5.778 -4.213 6.866 
8 1 4.339 10.142 15.018 
9 1 6.071 11.822 1.848 
10 1 -9.236 10.588 -2.954 
11 1 -3.047 -10.613 3.268 
12 1 12.607 14.923 8.123 
13 1 -9.697 -8.471 -1.994 
14 1 -13.802 -5.216 6.331 
15 1 6.113 3.563 -14.728 
16 1 -0.427 11.227 -13.450 
17 1 -1.305 -10.795 -0.933 
18 1 2.216 -14.559 -7.771 
19 1 -5.685 3.230 4.707 
20 1 -3.243 1.977 -2.166 
21 1 1.030 -0.549 -12.051 
22 1 -2.099 -7.038 -9.522 
23 1 11.503 10.660 -10.263 
24 1 13.206 8.675 -7.662 
25 1 -10.787 12.759 -13.099 
26 1 9.768 -13.333 -12.232 
27 1 -12.343 0.349 4.916 
28 1 -13.015 13.694 -7.536 
29 1 -2.384 6.149 -7.137 
30 1 -8.042 -1.697 5.017 
31 1 -10.539 1.154 0.576 
32 1 2.666 11.268 2.725 
33 1 0.563 4.022 -9.763 
34 1 -9.819 6.622 12.210 
35 1 -2.144 -10.869 10.074 
36 1 -12.677 0.587 11.812 
37 1 5.402 -0.014 14.939 
38 1 -4.369 -9.527 0.479 
39 1 -9.352 4.559 9.315 
40 1 -0.477 4.326 -14.226 
41 1 0.607 -8.163 -2.606 
42 1 15.006 -13.544 -5.326 
43 1 -13.516 -0.804 1.661 
44 1 4.798 -1.994 -8.531 
45 1 10.328 -11.719 -4.937 
46 1 -6.996 14.600 10.807 
47 1 -7.985 -9.289 8.826 
48 1 3.026 -13.247 3.715 
49 1 4.252 1.583 9.867 
50 1 2.477 10.263 -10.577 
51 1 -2.160 11.350 5.022 
52 1 2.824 4.553 7.554 
53 1 6.681 -11.645 -9.678 
54 1 9.662 -14.802 -2.815 
55 1 3.094 -4.554 -15.140 
56 1 -8.547 1.315 12.358 
57 1 7.042 8.636 5.560 
58 1 11.904 -0.237 -10.120 
59 1 0.932 -10.870 -13.166 
60 1 -0.792 0.429 0.803 
61 1 10.958 10.633 6.194 
62 1 -9.789 -4.414 -8.936 
63 1 7.018 -14.752 5.106 
64 1 -6.041 -9.077 4.875 
65 1 -3.991 7.057 9.217 
66 1 -6.970 14.674 -2.790 
67 1 12.595 4.742 8.957 
68 1 9.668 4.030 -5.661 
69 1 1.898 -7.060 12.800 
70 1 -4.943 9.749 7.014 
71 1 -14.117 3.351 2.581 
72 1 9.451 -11.755 1.404 
73 1 -8.225 14.813 2.433 
74 1 -13.664 2.502 -10.924 
75 1 1.699 -12.058 0.510 
76 1 8.133 -14.372 14.232 
77 1 -3.511 -5.174 4.611 
78 1 1.354 -7.646 -9.146 
79 1 6.088 -11.919 -13.968 
80 1 -12.163 0.188 8.062 
81 1 0.324 -2.154 -8.478 
82 1 -7.035 13.145 5.876 
83 1 -3.922 -11.845 -2.977 
84 1 -7.654 -0.665 9.264 
85 1 -14.516 8.848 14.519 
86 1 -2.454 -12.500 -6.232 
87 1 -7.289 5.495 -12.683 
88 1 0.274 2.512 -5.839 
89 1 -0.746 -3.115 -5.514 
90 1 2.322 3.723 -2.408 
91 1 -14.028 -14.227 4.796 
92 1 1.153 -13.880 6.518 
93 1 -8.822 2.063 -9.531 
94 1 12.971 7.065 -14.773 
95 1 2.211 14.563 1.276 
96 1 -11.634 6.198 -3.268 
97 1 -3.778 6.837 5.940 
98 1 -11.633 9.800 -6.099 
99 1 -3.256 14.736 -0.849 
100 1 5.880 0.778 -4.667 
101 1 -0.077 11.837 8.572 
102 1 -8.445 -10.146 1.114 
103 1 -13.823 -9.559 -9.355 
104 1 -7.289 8.312 -8.511 
105 1 -5.098 -12.186 8.754 
106 1 4.886 -7.822 -10.010 
107 1 -1.027 -3.544 -0.125 
108 1 8.699 11.580 -11.911 
109 1 -7.213 6.559 5.184 
110 1 0.171 1.278 10.977 
111 1 1.019 -2.937 11.237 
112 1 5.675 12.230 11.162 
113 1 -12.330 6.173 -14.117 
114 1 4.688 6.557 12.310 
115 1 -6.701 -10.770 -11.472 
116 1 2.578 -4.949 2.596 
117 1 9.857 -2.326 2.930 
118 1 -4.998 -2.487 -2.935 
119 1 10.763 -12.983 -8.749 
120 1 -6.663 -4.492 8.991 
121 1 9.108 6.642 -13.454 
122 1 -6.278 5.547 -6.748 
123 1 -3.180 10.149 1.102 
124 1 1.417 2.205 3.931 
125 1 3.714 -5.012 -5.434 
126 1 -9.698 -6.658 4.569 
127 1 -5.035 1.721 8.651 
128 1 14.486 12.555 -6.988 
129 1 -4.369 11.489 -12.998 
130 1 7.706 -8.397 -14.169 
131 1 -4.476 -1.127 3.344 
132 1 -10.010 14.076 8.728 
133 1 6.947 -6.959 -5.883 
134 1 -14.959 -14.585 14.177 
135 1 13.615 -1.552 8.163 
136 1 -2.742 1.747 13.683 
137 1 -2.229 3.816 4.689 
138 1 -1.958 11.448 -3.996 
139 1 -4.103 -8.670 -13.055 
140 1 -1.257 14.062 10.818 
141 1 -5.288 -2.883 -7.258 
142 1 -9.423 2.497 6.117 
143 1 -3.214 -8.394 -4.075 
144 1 -3.066 14.296 6.995 
145 1 -9.090 9.989 7.048 
146 1 -6.226 -7.290 -5.971 
147 1 -11.404 -2.459 -3.101 
148 1 0.053 8.122 5.448 
149 1 -6.925 -0.256 -12.172 
150 1 -4.033 -8.333 8.831 
151 1 4.301 0.791 -0.987 
152 1 -13.571 9.587 4.280 
153 1 2.591 -1.931 8.392 
154 1 -2.398 -13.285 -12.724 
155 1 -5.097 8.518 12.483 
156 1 1.302 6.703 -3.135 
157 1 8.821 10.831 14.451 
158 1 -4.437 -0.892 14.571 
159 1 -14.848 6.191 -9.763 
160 1 -5.725 -6.333 11.717 
161 1 -4.175 -13.126 14.637 
162 1 5.526 -11.405 9.463 
163 1 -0.339 -6.739 -5.852 
164 1 1.953 10.523 10.770 
165 1 -7.163 13.136 -7.573 
166 1 -7.163 -3.541 -11.631 
167 1 -4.150 6.007 2.786 
168 1 0.654 6.811 1.746 
169 1 -6.384 3.440 -0.563 
170 1 -7.725 8.795 2.733 
171 1 1.669 -1.483 -2.628 
172 1 3.473 9.105 5.551 
173 1 -3.680 8.262 -2.585 
174 1 13.207 -6.466 -13.367 
175 1 10.998 -3.005 10.934 
176 1 2.126 0.935 -14.760 
177 1 9.749 14.153 -10.007 
178 1 1.941 -0.965 3.399 
179 1 -10.100 14.057 4.704 
180 1 -3.926 -5.120 -4.597 
181 1 13.479 -12.284 11.439 
182 1 -6.555 -6.466 2.259 
183 1 9.614 4.049 0.881 
184 1 -3.391 8.084 -12.529 
185 1 11.939 -2.020 -0.947 
186 1 -0.990 12.647 -8.472 
187 1 -4.231 13.230 12.697 
188 1 6.659 5.318 8.666 
189 1 10.487 12.101 11.689 
190 1 2.163 -10.281 7.197 
191 1 -4.576 -14.306 3.423 
192 1 -3.798 -1.990 -12.412 
193 1 -6.807 -14.778 -11.466 
194 1 3.108 11.470 -6.924 
195 1 -12.353 5.831 6.322 
196 1 -8.053 10.673 12.886 
197 1 -5.864 4.937 14.189 
198 1 -2.469 4.385 11.858 
199 1 6.568 -0.354 1.875 
200 1 3.954 -9.340 -7.377 
ITEM: TIMESTEP
12000
ITEM: NUMBER OF ATOMS
200
ITEM: BOX BOUNDS pp pp pp
-15.145370694641318 15.145370694641318
-15.145370694641318 15.145370694641318
-15.145370694641318 15.145370694641318
ITEM: ATOMS id type x y z
1 1 8.358 7.464 0.989 
2 1 -0.083 12.075 -0.773 
3 1 3.686 5.246 -11.333 
4 1 0.630 6.877 9.820 
5 1 -10.939 -3.194 4.560 
6 1 4.819 12.758 5.652 
7 1 6.462 -4.102 7.703 
8 1 5.096 10.285 -13.804 
9 1 5.671 10.559 0.714 
10 1 -8.697 11.479 -2.629 
11 1 -2.351 -10.965 4.181 
12 1 11.704 14.290 7.916 
13 1 -10.246 -9.035 -2.001 
14 1 15.059 -4.342 5.461 
15 1 5.878 3.615 -14.373 
16 1 0.121 10.852 -12.254 
17 1 -1.361 -10.873 -1.102 
18 1 1.491 -14.276 -7.666 
19 1 -5.516 3.387 5.350 
20 1 -3.870 1.020 -1.524 
21 1 2.179 -1.101 -12.170 
22 1 -1.637 -8.651 -9.722 
23 1 11.881 10.110 -11.477 
24 1 12.436 7.830 -8.782 
25 1 -10.422 13.458 -13.251 
26 1 8.961 -12.762 -13.197 
27 1 -12.410 0.790 4.975 
28 1 -11.846 13.655 -7.292 
29 1 -2.317 7.163 -7.465 
30 1 -7.627 -1.110 4.356 
31 1 -9.967 1.147 0.163 
32 1 3.031 10.441 3.099 
33 1 1.214 3.166 -10.361 
34 1 -10.423 7.572 12.173 
35 1 -1.827 -11.215 9.819 
36 1 -12.316 0.139 12.746 
37 1 6.225 0.183 14.541 
38 1 -4.460 -9.234 0.205 
39 1 -8.991 5.018 9.369 
40 1 -1.341 4.180 -13.843 
41 1 0.543 -7.821 -3.157 
42 1 15.124 -12.922 -6.187 
43 1 -11.909 -1.153 1.065 
44 1 5.674 -1.311 -8.732 
45 1 10.323 -11.027 -5.294 
46 1 -8.262 13.459 11.108 
47 1 -7.871 -9.524 10.087 
48 1 2.899 -13.587 3.520 
49 1 4.377 1.432 11.574 
50 1 2.714 9.327 -10.551 
51 1 -0.792 11.143 3.729 
52 1 2.763 5.388 7.339 
53 1 7.552 -11.567 -9.722 
54 1 9.335 -14.000 -3.627 
55 1 3.199 -4.172 -13.821 
56 1 -8.140 0.820 14.869 
57 1 7.406 9.294 4.324 
58 1 12.108 -0.230 -11.387 
59 1 1.234 -11.015 -14.204 
60 1 0.213 0.193 0.946 
61 1 11.305 11.405 6.158 
62 1 -10.157 -3.830 -9.231 
63 1 7.045 -14.547 3.603 
64 1 -5.832 -8.905 5.075 
65 1 -4.081 6.893 8.713 
66 1 -7.040 14.316 -2.667 
67 1 12.522 5.044 9.577 
68 1 8.947 3.471 -6.887 
69 1 2.014 -6.269 13.481 
70 1 -4.723 10.646 7.231 
71 1 -13.262 3.189 2.416 
72 1 9.658 -12.318 2.525 
73 1 -8.626 -14.270 1.699 
74 1 -13.938 2.535 -11.523 
75 1 1.256 -12.813 0.287 
76 1 7.764 -14.764 14.001 
77 1 -4.139 -5.221 4.708 
78 1 1.408 -7.495 -9.818 
79 1 5.562 -12.215 -14.330 
80 1 -11.476 0.163 8.335 
81 1 -0.939 -1.894 -9.546 
82 1 -6.664 13.540 5.372 
83 1 -4.481 -12.384 -2.479 
84 1 -8.047 -0.692 8.993 
85 1 -13.820 9.291 14.900 
86 1 -2.976 -12.035 -7.472 
87 1 -7.550 4.962 -12.767 
88 1 -0.064 3.290 -6.374 
89 1 -0.214 -3.871 -4.414 
90 1 2.645 3.795 -1.903 
91 1 -13.991 -12.387 3.783 
92 1 0.133 -13.861 5.755 
93 1 -8.820 2.511 -10.219 
94 1 13.368 7.203 -14.149 
95 1 3.262 13.824 1.090 
96 1 -12.259 5.706 -2.341 
97 1 -3.711 7.758 5.257 
98 1 -11.808 9.914 -6.869 
99 1 -3.077 14.190 -1.321 
100 1 6.581 1.014 -4.583 
101 1 -0.165 11.258 8.547 
102 1 -8.395 -10.218 0.976 
103 1 -11.918 -10.097 -8.524 
104 1 -7.411 9.330 -8.298 
105 1 -4.820 -13.399 8.921 
106 1 4.920 -8.877 -11.253 
107 1 -0.570 -4.736 0.564 
108 1 8.879 11.345 -12.546 
109 1 -7.646 6.506 6.099 
110 1 0.444 1.074 11.178 
111 1 1.429 -3.587 11.558 
112 1 4.923 12.391 10.677 
113 1 -12.505 5.417 -14.699 
114 1 3.836 7.567 13.167 
115 1 -5.896 -9.606 -11.993 
116 1 2.265 -4.899 3.589 
117 1 10.360 -3.162 3.685 
118 1 -4.885 -3.169 -2.605 
119 1 11.015 -12.717 -8.761 
120 1 -7.900 -5.215 8.716 
121 1 9.878 5.405 -12.756 
122 1 -6.876 4.335 -7.492 
123 1 -3.443 9.218 0.211 
124 1 0.539 1.181 4.585 
125 1 3.649 -4.811 -5.630 
126 1 -9.999 -6.927 5.090 
127 1 -5.278 1.649 9.183 
128 1 14.967 12.824 -6.594 
129 1 -5.188 11.775 -12.091 
130 1 7.917 -8.826 -13.062 
131 1 -3.633 -1.043 1.821 
132 1 -10.632 14.746 8.489 
133 1 5.960 -8.290 -5.585 
134 1 15.093 -14.252 -14.535 
135 1 13.896 -1.926 8.872 
136 1 -2.136 0.681 13.418 
137 1 -1.793 3.938 5.055 
138 1 -1.292 12.060 -3.829 
139 1 -3.452 -8.531 -14.343 
140 1 -1.095 13.889 12.020 
141 1 -5.451 -2.879 -6.437 
142 1 -8.953 2.099 6.628 
143 1 -2.929 -8.741 -4.787 
144 1 -3.513 13.970 8.719 
145 1 -9.291 9.601 7.353 
146 1 -6.724 -7.387 -5.996 
147 1 -11.309 -1.963 -2.561 
148 1 0.000 8.396 5.447 
149 1 -7.461 -0.341 -11.610 
150 1 -3.459 -7.750 8.036 
151 1 4.418 0.938 -1.157 
152 1 -12.999 9.297 3.823 
153 1 2.510 -1.236 8.067 
154 1 -2.733 -13.079 -12.664 
155 1 -4.394 8.793 12.144 
156 1 2.047 7.423 -2.927 
157 1 8.843 9.619 14.021 
158 1 -5.365 -0.752 14.013 
159 1 -14.558 6.188 -10.919 
160 1 -5.486 -5.242 13.350 
161 1 -3.943 -13.298 14.358 
162 1 5.332 -13.154 10.793 
163 1 -0.561 -5.895 -7.201 
164 1 1.510 9.540 11.745 
165 1 -7.538 12.449 -7.533 
166 1 -7.193 -3.619 -11.248 
167 1 -3.115 6.368 2.126 
168 1 0.202 7.854 1.923 
169 1 -7.153 3.128 -0.047 
170 1 -7.947 9.020 2.245 
171 1 0.347 -1.044 -3.175 
172 1 3.208 8.808 6.269 
173 1 -3.339 8.551 -3.063 
174 1 13.354 -6.100 -13.844 
175 1 10.535 -2.751 10.705 
176 1 2.138 0.506 14.581 
177 1 10.951 14.083 -9.806 
178 1 2.185 -1.681 3.294 
179 1 -9.877 14.565 4.549 
180 1 -3.728 -5.648 -4.640 
181 1 14.592 -12.018 10.495 
182 1 -7.092 -6.606 2.070 
183 1 9.166 2.934 0.550 
184 1 -3.969 8.317 -12.909 
185 1 12.613 -2.268 -0.707 
186 1 -1.552 12.872 -9.739 
187 1 -4.725 13.113 12.681 
188 1 5.871 4.483 8.568 
189 1 12.248 12.046 11.771 
190 1 2.330 -9.772 7.218 
191 1 -5.314 -13.949 2.241 
192 1 -4.052 -2.798 -11.608 
193 1 -6.420 14.720 -10.513 
194 1 3.375 12.181 -6.498 
195 1 -13.031 5.136 7.370 
196 1 -8.407 10.269 13.711 
197 1 -6.065 6.194 13.764 
198 1 -2.697 4.820 13.051 
199 1 7.410 -0.916 1.247 
200 1 2.398 -10.624 -7.865 
ITEM: TIMESTEP
13000
ITEM: NUMBER OF ATOMS
200
ITEM: BOX BOUNDS pp pp pp
-15.145370694641318 15.145370694641318
-15.145370694641318 15.145370694641318
-15.145370694641318 15.145370694641318
ITEM: ATOMS id type x y z
1 1 8.100 7.161 1.511 
2 1 0.231 10.689 -1.782 
3 1 4.240 4.751 -10.977 
4 1 -0.998 6.844 8.803 
5 1 -11.952 -3.469 4.220 
6 1 3.834 13.178 6.663 
7 1 7.233 -3.397 7.793 
8 1 5.120 10.734 -13.218 
9 1 5.702 11.677 0.746 
10 1 -8.000 11.681 -3.885 
11 1 -2.684 -9.774 3.275 
12 1 12.358 14.544 8.055 
13 1 -10.835 -8.585 -1.702 
14 1 -14.336 -4.791 6.347 
15 1 5.359 3.180 -14.609 
16 1 -0.471 10.859 -12.760 
17 1 -1.085 -10.844 -0.646 
18 1 0.808 -14.316 -8.118 
19 1 -5.216 4.074 4.267 
20 1 -2.823 0.673 -1.091 
21 1 2.515 -1.344 -11.840 
22 1 -2.754 -8.882 -10.173 
23 1 12.223 10.193 -11.785 
24 1 12.198 8.267 -8.799 
25 1 -10.171 13.176 -13.828 
26 1 9.665 -12.673 -12.856 
27 1 -12.555 0.508 4.624 
28 1 -11.613 12.940 -6.644 
29 1 -1.981 7.476 -8.403 
30 1 -8.420 -1.810 5.539 
31 1 -9.426 0.733 0.640 
32 1 2.821 9.842 3.223 
33 1 1.209 1.968 -9.935 
34 1 -12.037 7.589 11.592 
35 1 -0.082 -11.120 9.985 
36 1 -12.087 -0.246 13.414 
37 1 6.807 -0.146 15.002 
38 1 -4.503 -8.343 -0.100 
39 1 -9.191 4.779 9.540 
40 1 -1.113 4.740 -14.069 
41 1 1.573 -8.109 -3.577 
42 1 -14.262 -13.036 -5.228 
43 1 -13.551 -1.114 0.807 
44 1 4.756 -0.412 -7.438 
45 1 11.855 -10.279 -6.531 
46 1 -8.060 13.922 11.432 
47 1 -6.712 -8.556 9.908 
48 1 3.427 -14.071 4.462 
49 1 4.337 1.670 11.253 
50 1 2.541 8.764 -11.004 
51 1 -0.844 12.123 3.830 
52 1 2.544 5.226 7.284 
53 1 7.182 -10.811 -10.635 
54 1 10.206 -13.941 -3.289 
55 1 2.284 -4.786 -13.628 
56 1 -8.554 1.351 14.576 
57 1 7.813 8.962 4.403 
58 1 12.099 -0.291 -11.849 
59 1 1.726 -10.243 -14.307 
60 1 -0.199 -1.702 -0.826 
61 1 10.759 12.159 5.558 
62 1 -10.344 -3.419 -9.082 
63 1 7.901 -14.879 3.043 
64 1 -5.782 -8.788 5.323 
65 1 -4.205 6.334 9.646 
66 1 -7.001 13.443 -1.327 
67 1 12.624 4.171 9.339 
68 1 7.734 4.329 -6.370 
69 1 2.199 -6.515 13.929 
70 1 -3.891 9.979 8.244 
71 1 -12.838 2.296 1.242 
72 1 11.150 -11.197 2.744 
73 1 -9.262 -14.348 0.875 
74 1 -14.416 1.939 -12.327 
75 1 1.011 -12.963 0.504 
76 1 7.529 -14.391 13.612 
77 1 -4.572 -5.465 5.650 
78 1 1.841 -7.166 -9.360 
79 1 5.937 -10.742 -14.674 
80 1 -12.036 0.690 8.654 
81 1 -0.968 -1.962 -10.121 
82 1 -6.230 14.717 5.759 
83 1 -4.076 -12.713 -2.622 
84 1 -8.941 -0.030 9.735 
85 1 -13.333 9.100 14.150 
86 1 -3.920 -11.625 -7.447 
87 1 -7.649 4.515 -13.715 
88 1 -0.713 4.324 -5.678 
89 1 -0.082 -3.915 -4.577 
90 1 1.638 3.758 -1.318 
91 1 -14.436 -11.461 3.587 
92 1 0.486 -12.824 6.149 
93 1 -9.988 2.805 -9.314 
94 1 11.204 6.792 15.095 
95 1 3.378 14.585 0.419 
96 1 -11.390 5.396 -2.844 
97 1 -4.559 8.615 5.241 
98 1 -11.724 9.247 -6.519 
99 1 -2.912 14.484 -1.384 
100 1 8.217 0.746 -4.271 
101 1 -0.793 11.259 8.628 
102 1 -7.510 -9.857 1.171 
103 1 -12.436 -10.197 -8.607 
104 1 -6.852 8.913 -7.464 
105 1 -5.098 -13.148 9.513 
106 1 5.464 -8.214 -11.667 
107 1 -0.387 -5.263 1.022 
108 1 8.239 12.103 -11.916 
109 1 -7.859 7.444 5.517 
110 1 0.813 0.724 10.888 
111 1 1.295 -4.549 10.762 
112 1 4.330 12.619 9.882 
113 1 -11.742 5.547 -14.419 
114 1 4.451 7.643 12.788 
115 1 -5.200 -10.248 -12.216 
116 1 2.065 -5.500 3.852 
117 1 10.837 -3.018 3.031 
118 1 -4.732 -4.473 -1.259 
119 1 10.402 -13.250 -9.654 
120 1 -7.735 -5.407 8.294 
121 1 10.771 5.484 -11.808 
122 1 -5.509 4.042 -8.048 
123 1 -3.101 10.285 1.484 
124 1 0.887 1.447 4.098 
125 1 3.264 -5.411 -5.664 
126 1 -10.934 -6.859 5.147 
127 1 -5.614 1.967 8.343 
128 1 14.706 14.468 -6.315 
129 1 -5.696 11.511 -11.697 
130 1 8.597 -8.384 -12.633 
131 1 -3.275 -2.296 1.889 
132 1 -10.494 14.107 8.330 
133 1 6.555 -8.228 -5.967 
134 1 15.116 -14.361 -14.834 
135 1 13.238 -1.290 8.623 
136 1 -3.515 1.135 11.831 
137 1 -1.744 4.345 5.414 
138 1 -1.318 12.284 -5.129 
139 1 -3.011 -8.571 15.082 
140 1 -0.447 13.715 11.623 
141 1 -5.366 -3.710 -6.497 
142 1 -8.652 2.259 6.813 
143 1 -2.383 -9.799 -4.595 
144 1 -3.905 13.533 8.475 
145 1 -9.014 10.551 7.411 
146 1 -5.741 -8.414 -5.131 
147 1 -9.757 -1.748 -2.731 
148 1 -0.662 8.559 5.067 
149 1 -7.588 -0.474 -12.009 
150 1 -2.940 -8.626 8.363 
151 1 4.112 0.244 -2.662 
152 1 -13.864 10.398 3.190 
153 1 3.521 -1.064 7.797 
154 1 -1.917 -13.635 -11.595 
155 1 -4.097 9.436 12.033 
156 1 1.980 7.554 -4.078 
157 1 9.131 9.446 14.268 
158 1 -4.962 -2.048 14.406 
159 1 -14.214 5.547 -10.531 
160 1 -5.963 -4.634 11.645 
161 1 -5.033 -12.899 13.365 
162 1 4.346 -14.224 9.309 
163 1 -0.863 -6.754 -6.654 
164 1 1.427 9.846 12.368 
165 1 -7.065 13.040 -7.132 
166 1 -6.770 -3.813 -10.232 
167 1 -2.913 5.408 1.301 
168 1 0.228 8.050 1.988 
169 1 -6.927 4.314 -0.021 
170 1 -7.550 10.156 2.961 
171 1 0.172 0.006 -3.332 
172 1 3.380 8.450 6.159 
173 1 -3.095 8.287 -2.647 
174 1 13.368 -6.346 -13.656 
175 1 9.318 -3.558 11.275 
176 1 2.335 -1.034 14.484 
177 1 11.223 13.493 -10.182 
178 1 3.390 -1.258 3.004 
179 1 -9.712 14.197 4.156 
180 1 -3.196 -5.595 -4.756 
181 1 14.831 -11.668 11.228 
182 1 -6.953 -6.815 2.108 
183 1 8.969 3.407 1.574 
184 1 -3.791 8.170 -13.757 
185 1 12.045 -1.161 -1.141 
186 1 -2.908 14.129 -8.845 
187 1 -5.325 13.695 13.584 
188 1 6.387 4.316 8.242 
189 1 12.335 13.090 12.672 
190 1 2.377 -8.904 6.590 
191 1 -6.026 -14.356 2.069 
192 1 -3.713 -3.174 -11.319 
193 1 -6.206 -14.612 -10.059 
194 1 2.621 11.841 -7.640 
195 1 -12.058 3.934 7.639 
196 1 -7.819 10.942 13.182 
197 1 -5.770 6.527 13.417 
198 1 -2.121 4.607 13.075 
199 1 7.254 -0.673 2.347 
200 1 2.975 -10.673 -9.038 
ITEM: TIMESTEP
14000
ITEM: NUMBER OF ATOMS
200
ITEM: BOX BOUNDS pp pp pp
-15.145370694641318 15.145370694641318
-15.145370694641318 15.145370694641318
-15.145370694641318 15.145370694641318
ITEM: ATOMS id type x y z
1 1 8.519 8.236 1.756 
2 1 -0.525 10.813 -1.851 
3 1 3.103 4.164 -11.000 
4 1 -0.216 8.161 9.089 
5 1 -11.473 -3.633 4.616 
6 1 3.646 12.720 6.401 
7 1 6.982 -3.505 7.558 
8 1 4.652 11.341 -12.902 
9 1 6.221 11.154 1.711 
10 1 -7.487 11.677 -4.274 
11 1 -2.161 -10.557 4.219 
12 1 13.567 14.725 6.189 
13 1 -10.251 -7.097 -0.603 
14 1 -14.407 -5.574 6.078 
15 1 4.691 2.588 -13.590 
16 1 -0.113 11.659 -13.012 
17 1 -1.220 -10.826 -0.726 
18 1 -0.183 14.416 -8.705 
19 1 -5.941 3.447 3.917 
20 1 -4.152 -0.145 0.027 
21 1 1.917 -1.670 -12.164 
22 1 -3.232 -8.877 -9.626 
23 1 12.603 9.227 -12.182 
24 1 11.932 8.938 -7.814 
25 1 -10.830 13.864 -12.012 
26 1 9.665 -12.649 -12.686 
27 1 -13.318 -0.162 4.627 
28 1 -11.646 12.876 -6.829 
29 1 -0.771 8.406 -8.428 
30 1 -7.211 -2.714 4.903 
31 1 -9.038 1.408 0.998 
32 1 3.209 9.198 3.195 
33 1 0.975 0.960 -9.235 
34 1 -11.649 6.812 11.531 
35 1 1.062 -11.306 9.530 
36 1 -12.718 0.575 13.513 
37 1 7.651 -0.225 15.026 
38 1 -4.203 -8.186 -0.565 
39 1 -8.596 4.732 9.867 
40 1 -0.049 4.890 -14.413 
41 1 0.169 -8.344 -3.698 
42 1 -13.290 -12.902 -4.844 
43 1 -14.220 -1.123 1.602 
44 1 4.668 -1.338 -7.674 
45 1 10.820 -10.321 -6.691 
46 1 -8.165 13.616 10.750 
47 1 -7.918 -8.435 10.264 
48 1 4.000 -13.770 4.468 
49 1 4.683 2.335 11.596 
50 1 4.099 7.757 -11.754 
51 1 -0.001 12.877 4.107 
52 1 2.878 4.464 7.996 
53 1 7.009 -11.307 -9.800 
54 1 10.540 -13.807 -2.541 
55 1 1.044 -5.401 -12.804 
56 1 -7.714 0.970 14.254 
57 1 6.654 9.357 5.339 
58 1 12.211 -1.409 -11.224 
59 1 0.872 -9.649 -14.934 
60 1 -0.343 -2.361 -0.452 
61 1 10.944 13.046 5.792 
62 1 -10.614 -2.864 -7.944 
63 1 8.474 14.188 2.977 
64 1 -7.019 -9.905 4.501 
65 1 -4.971 5.629 9.959 
66 1 -7.641 13.102 -0.672 
67 1 12.656 4.102 9.117 
68 1 8.380 4.304 -6.783 
69 1 2.695 -7.526 13.281 
70 1 -4.234 9.824 9.094 
71 1 -12.037 2.969 1.570 
72 1 10.181 -10.658 2.245 
73 1 -9.661 -13.653 0.863 
74 1 -13.942 2.579 -13.856 
75 1 0.987 -13.934 -0.230 
76 1 6.528 -13.741 13.298 
77 1 -5.425 -6.452 5.956 
78 1 2.296 -6.556 -9.203 
79 1 6.363 -10.877 -14.143 
80 1 -11.534 0.310 8.522 
81 1 -1.543 -2.695 -9.857 
82 1 -5.884 14.104 4.758 
83 1 -4.211 -12.550 -3.252 
84 1 -9.131 -0.112 10.808 
85 1 -14.286 9.250 13.771 
86 1 -3.847 -12.660 -6.861 
87 1 -8.186 3.873 -13.411 
88 1 -1.311 4.900 -7.108 
89 1 0.607 -4.324 -3.849 
90 1 1.768 3.831 -0.972 
91 1 -14.215 -10.587 2.991 
92 1 0.600 -13.579 5.608 
93 1 -10.450 2.212 -8.666 
94 1 11.626 7.589 14.247 
95 1 2.198 13.236 0.525 
96 1 -11.375 4.994 -2.083 
97 1 -4.991 9.202 4.455 
98 1 -11.383 8.028 -6.794 
99 1 -3.257 14.703 -0.228 
100 1 7.581 -0.210 -4.609 
101 1 -0.963 11.192 8.010 
102 1 -7.824 -10.067 1.084 
103 1 -12.184 -10.804 -10.652 
104 1 -7.676 8.533 -7.807 
105 1 -3.437 -13.409 10.305 
106 1 5.131 -7.149 -10.944 
107 1 -0.916 -5.650 1.147 
108 1 9.030 12.351 -11.745 
109 1 -7.483 7.876 6.065 
110 1 0.192 1.307 10.087 
111 1 0.720 -5.197 10.751 
112 1 3.598 12.364 10.313 
113 1 -10.823 5.277 -14.813 
114 1 4.703 6.948 12.445 
115 1 -4.930 -10.170 -12.090 
116 1 2.359 -5.794 3.852 
117 1 10.123 -4.208 2.082 
118 1 -5.835 -3.241 -1.051 
119 1 10.135 -12.441 -9.459 
120 1 -8.690 -5.817 8.275 
121 1 10.862 5.907 -11.995 
122 1 -5.710 4.292 -8.282 
123 1 -2.891 10.022 1.412 
124 1 0.136 1.974 3.412 
125 1 3.835 -5.567 -4.763 
126 1 -10.347 -7.470 5.604 
127 1 -4.573 1.748 7.177 
128 1 14.662 14.580 -6.733 
129 1 -5.539 11.777 -11.462 
130 1 8.125 -7.545 -12.662 
131 1 -3.438 -2.417 2.436 
132 1 -10.007 14.334 8.239 
133 1 7.542 -9.072 -6.707 
134 1 -14.968 -14.513 -14.661 
135 1 12.873 -0.526 9.679 
136 1 -3.632 1.230 11.991 
137 1 -1.818 3.977 5.643 
138 1 -2.015 11.411 -4.754 
139 1 -3.211 -8.677 14.794 
140 1 0.016 13.596 10.497 
141 1 -4.957 -4.838 -6.997 
142 1 -7.766 2.623 6.658 
143 1 -2.150 -10.000 -5.508 
144 1 -4.496 13.735 8.916 
145 1 -10.481 11.102 6.867 
146 1 -6.020 -9.345 -4.388 
147 1 -10.237 -0.956 -2.934 
148 1 -1.662 8.770 5.547 
149 1 -6.839 -0.504 -10.714 
150 1 -1.345 -9.148 8.976 
151 1 3.111 0.543 -2.562 
152 1 -12.725 11.956 2.449 
153 1 4.522 -1.019 8.216 
154 1 -1.515 -13.519 -11.817 
155 1 -3.429 9.335 12.685 
156 1 1.488 7.872 -4.224 
157 1 10.137 10.872 14.334 
158 1 -5.806 -1.738 14.012 
159 1 -14.497 6.009 -11.122 
160 1 -6.608 -5.585 12.260 
161 1 -5.996 -11.635 13.852 
162 1 4.580 -14.775 7.937 
163 1 -1.061 -7.406 -6.789 
164 1 1.288 9.673 12.917 
165 1 -7.713 13.116 -8.246 
166 1 -6.832 -3.519 -9.494 
167 1 -1.765 4.913 2.540 
168 1 0.389 8.066 1.759 
169 1 -7.983 3.990 -0.575 
170 1 -8.104 10.460 2.309 
171 1 0.164 -0.944 -3.571 
172 1 3.738 8.320 6.795 
173 1 -2.862 8.073 -2.578 
174 1 14.049 -7.253 -14.395 
175 1 8.998 -2.797 10.693 
176 1 2.714 0.438 14.967 
177 1 11.759 13.122 -10.251 
178 1 2.920 -2.211 1.936 
179 1 -9.983 13.874 4.868 
180 1 -3.414 -4.698 -3.301 
181 1 15.051 -11.265 10.978 
182 1 -6.946 -6.818 2.362 
183 1 8.855 3.613 0.885 
184 1 -4.474 8.516 -13.793 
185 1 11.813 -0.589 0.019 
186 1 -3.472 13.594 -10.099 
187 1 -5.320 14.000 13.449 
188 1 6.501 4.027 9.012 
189 1 13.147 14.009 12.361 
190 1 2.765 -7.559 6.836 
191 1 -6.226 -13.832 1.964 
192 1 -3.513 -3.351 -12.563 
193 1 -5.991 -14.422 -9.224 
194 1 2.071 10.948 -7.097 
195 1 -11.318 4.339 7.804 
196 1 -8.642 10.873 13.435 
197 1 -6.882 6.343 13.372 
198 1 -1.862 4.359 12.456 
199 1 9.182 -0.324 2.226 
200 1 3.228 -9.785 -9.081 
ITEM: TIMESTEP
15000
ITEM: NUMBER OF ATOMS
200
ITEM: BOX BOUNDS pp pp pp
-15.145370694641318 15.145370694641318
-15.145370694641318 15.145370694641318
-15.145370694641318 15.145370694641318
ITEM: ATOMS id type x y z
1 1 7.862 7.250 1.334 
2 1 -0.788 9.943 -1.206 
3 1 3.786 3.077 -10.308 
4 1 -0.082 7.715 8.682 
5 1 -11.842 -3.153 4.343 
6 1 3.971 11.950 6.432 
7 1 8.151 -4.554 7.160 
8 1 4.853 10.375 -13.427 
9 1 6.681 10.631 0.609 
10 1 -8.082 11.191 -4.000 
11 1 -2.769 -10.543 5.097 
12 1 13.149 -14.339 6.721 
13 1 -9.863 -6.796 -1.496 
14 1 -14.124 -6.255 6.258 
15 1 4.967 2.294 -13.498 
16 1 -0.690 12.136 -13.122 
17 1 -1.260 -11.088 -1.019 
18 1 0.600 13.515 -9.420 
19 1 -5.186 2.954 4.323 
20 1 -3.533 1.054 1.424 
21 1 1.693 -2.695 -12.698 
22 1 -2.851 -9.476 -11.079 
23 1 11.695 9.508 -12.324 
24 1 12.608 8.724 -8.313 
25 1 -10.366 -15.126 -11.104 
26 1 9.814 -12.697 -12.290 
27 1 -12.451 0.796 4.655 
28 1 -11.786 13.460 -6.774 
29 1 -0.595 8.391 -8.551 
30 1 -7.505 -1.872 4.826 
31 1 -9.207 0.830 -0.097 
32 1 4.031 9.583 3.099 
33 1 1.123 0.990 -9.297 
34 1 -12.350 5.571 12.600 
35 1 1.011 -11.728 9.900 
36 1 -13.780 1.887 13.645 
37 1 6.989 0.423 14.281 
38 1 -4.353 -7.927 -0.584 
39 1 -8.670 4.746 9.272 
40 1 0.537 5.019 14.945 
41 1 0.670 -7.948 -4.168 
42 1 -13.751 -13.059 -4.695 
43 1 -14.439 -1.047 1.779 
44 1 4.180 -0.273 -7.563 
45 1 12.048 -10.019 -6.420 
46 1 -7.949 14.358 11.309 
47 1 -7.448 -8.868 10.645 
48 1 4.395 -13.709 3.720 
49 1 4.226 1.819 11.783 
50 1 3.502 7.612 -10.802 
51 1 -0.437 12.539 3.415 
52 1 2.751 4.687 8.692 
53 1 6.910 -10.375 -10.008 
54 1 11.154 -14.326 -4.123 
55 1 -0.549 -5.579 -13.067 
56 1 -7.537 0.514 14.365 
57 1 7.554 8.588 6.274 
58 1 12.275 -1.426 -12.188 
59 1 0.570 -9.059 14.937 
60 1 0.011 -1.719 0.481 
61 1 10.434 12.449 4.593 
62 1 -10.562 -2.490 -8.067 
63 1 9.388 14.867 2.832 
64 1 -7.844 -10.349 5.645 
65 1 -4.951 4.851 9.996 
66 1 -6.726 14.069 -1.702 
67 1 13.760 5.095 10.107 
68 1 7.160 2.996 -7.040 
69 1 2.687 -8.019 12.198 
70 1 -3.919 8.649 9.349 
71 1 -12.281 3.248 1.346 
72 1 9.790 -10.848 2.585 
73 1 -9.055 -13.241 0.315 
74 1 -14.970 3.267 -13.768 
75 1 2.177 -13.965 -1.045 
76 1 6.299 -13.565 12.704 
77 1 -6.270 -6.478 6.115 
78 1 2.246 -6.528 -9.192 
79 1 6.979 -11.434 -13.457 
80 1 -11.795 -0.187 7.900 
81 1 -2.391 -2.943 -9.389 
82 1 -4.662 13.888 4.770 
83 1 -4.420 -12.695 -3.154 
84 1 -8.937 -0.797 10.358 
85 1 -14.443 10.045 13.400 
86 1 -3.927 -12.293 -6.700 
87 1 -7.254 2.543 -12.802 
88 1 -1.695 4.492 -7.746 
89 1 0.417 -4.342 -4.150 
90 1 2.254 5.289 -0.367 
91 1 -13.756 -10.647 2.628 
92 1 -0.319 -13.793 5.604 
93 1 -9.323 1.986 -9.436 
94 1 11.858 7.231 14.465 
95 1 1.959 12.301 0.317 
96 1 -11.175 5.464 -1.597 
97 1 -4.888 10.035 4.138 
98 1 -11.439 7.932 -7.840 
99 1 -3.259 15.041 0.430 
100 1 7.890 0.146 -4.714 
101 1 -0.613 11.292 7.711 
102 1 -7.194 -10.145 1.368 
103 1 -10.708 -9.952 -10.613 
104 1 -6.712 9.360 -7.190 
105 1 -3.213 -13.044 10.149 
106 1 4.236 -6.436 -12.456 
107 1 -1.319 -5.773 1.364 
108 1 8.000 11.736 -11.187 
109 1 -7.482 8.571 5.990 
110 1 0.432 1.508 9.753 
111 1 1.264 -4.830 10.805 
112 1 4.512 12.576 10.873 
113 1 -11.263 6.191 -13.770 
114 1 4.478 6.791 12.774 
115 1 -6.221 -10.144 -12.338 
116 1 1.788 -5.152 3.170 
117 1 10.537 -4.628 3.329 
118 1 -6.720 -3.120 -1.347 
119 1 10.077 -13.280 -8.988 
120 1 -8.945 -5.472 8.237 
121 1 10.741 4.967 -13.346 
122 1 -5.540 5.380 -8.051 
123 1 -2.742 9.648 1.573 
124 1 -0.276 2.027 2.776 
125 1 4.090 -5.751 -4.065 
126 1 -10.530 -6.947 4.356 
127 1 -4.962 1.115 7.475 
128 1 14.574 -14.959 -6.738 
129 1 -6.028 11.610 -12.401 
130 1 8.130 -8.022 -12.330 
131 1 -5.055 -3.710 2.043 
132 1 -9.622 14.784 8.033 
133 1 8.627 -8.637 -6.737 
134 1 14.780 -14.958 -15.108 
135 1 11.444 -1.296 9.885 
136 1 -3.346 1.992 11.628 
137 1 -2.435 3.761 6.352 
138 1 -1.811 11.626 -4.314 
139 1 -2.757 -7.750 -14.988 
140 1 0.468 14.053 11.468 
141 1 -4.880 -5.075 -7.361 
142 1 -8.739 3.009 5.465 
143 1 -1.945 -10.419 -4.790 
144 1 -4.152 13.212 7.774 
145 1 -11.200 10.802 8.758 
146 1 -5.482 -8.799 -3.752 
147 1 -10.622 0.336 -3.052 
148 1 -2.312 8.617 5.937 
149 1 -6.397 -0.436 -10.839 
150 1 -1.215 -8.997 9.048 
151 1 3.980 0.446 -3.219 
152 1 -11.560 12.332 1.901 
153 1 5.611 -0.121 7.750 
154 1 -2.841 -13.368 -12.303 
155 1 -3.045 9.810 12.902 
156 1 0.534 8.648 -4.031 
157 1 10.812 10.505 14.555 
158 1 -4.971 -1.931 14.473 
159 1 -13.576 6.504 -10.812 
160 1 -6.189 -5.626 12.403 
161 1 -6.618 -11.419 14.136 
162 1 4.624 -15.138 8.419 
163 1 -1.348 -5.603 -6.719 
164 1 2.304 10.311 13.695 
165 1 -8.164 13.307 -8.137 
166 1 -7.931 -4.451 -9.522 
167 1 -2.046 5.527 2.551 
168 1 0.618 8.162 1.911 
169 1 -8.117 3.999 -2.347 
170 1 -8.580 11.120 2.985 
171 1 -0.014 -0.605 -3.983 
172 1 3.469 8.087 6.539 
173 1 -3.393 7.838 -2.974 
174 1 13.757 -7.803 -13.739 
175 1 9.089 -3.557 11.502 
176 1 2.459 1.413 14.782 
177 1 10.965 13.176 -9.978 
178 1 3.664 -2.489 1.295 
179 1 -10.230 13.756 4.828 
180 1 -2.970 -4.280 -3.246 
181 1 -13.654 -10.415 10.039 
182 1 -7.752 -6.770 2.417 
183 1 8.759 2.749 0.267 
184 1 -5.219 9.012 -15.038 
185 1 10.981 0.306 -0.737 
186 1 -3.583 13.071 -10.076 
187 1 -5.054 13.437 14.200 
188 1 6.570 4.440 9.258 
189 1 13.118 13.930 11.909 
190 1 2.801 -7.783 5.714 
191 1 -5.471 -12.140 3.266 
192 1 -3.542 -3.353 -13.366 
193 1 -6.143 -13.548 -10.084 
194 1 2.929 11.271 -7.401 
195 1 -11.771 3.493 7.996 
196 1 -8.622 10.424 12.769 
197 1 -7.005 5.141 12.935 
198 1 -2.518 5.369 12.719 
199 1 8.464 -0.290 3.012 
200 1 3.234 -9.684 -8.063 
ITEM: TIMESTEP
16000
ITEM: NUMBER OF ATOMS
200
ITEM: BOX BOUNDS pp pp pp
-15.145370694641318 15.145370694641318
-15.145370694641318 15.145370694641318
-15.145370694641318 15.145370694641318
ITEM: ATOMS id type x y z
1 1 7.821 6.362 1.553 
2 1 -0.419 9.648 -1.240 
3 1 3.308 3.470 -10.200 
4 1 0.184 7.363 8.817 
5 1 -11.640 -2.810 4.383 
6 1 3.469 12.665 5.727 
7 1 8.929 -5.722 8.264 
8 1 5.082 10.730 -13.211 
9 1 6.166 10.590 1.065 
10 1 -8.357 11.353 -4.644 
11 1 -2.751 -10.508 6.324 
12 1 11.711 -13.278 7.381 
13 1 -10.859 -7.017 -1.566 
14 1 15.020 -6.389 6.795 
15 1 4.420 2.649 -13.559 
16 1 -0.129 10.491 -12.130 
17 1 -2.033 -10.537 -0.630 
18 1 0.549 12.639 -9.809 
19 1 -4.877 3.020 4.788 
20 1 -3.848 0.536 1.808 
21 1 1.968 -3.790 -12.748 
22 1 -2.166 -10.369 -10.728 
23 1 12.591 9.179 -12.378 
24 1 12.157 8.790 -8.761 
25 1 -10.819 14.249 -11.278 
26 1 10.482 -12.355 -12.803 
27 1 -11.402 0.908 4.502 
28 1 -11.543 13.574 -7.456 
29 1 -1.512 8.450 -8.925 
30 1 -7.711 -1.633 6.188 
31 1 -8.680 1.044 0.540 
32 1 4.088 9.760 3.999 
33 1 0.584 1.127 -8.593 
34 1 -13.049 5.866 13.341 
35 1 1.303 -12.527 10.031 
36 1 -13.127 2.259 14.034 
37 1 7.268 -0.303 14.109 
38 1 -4.186 -8.090 0.275 
39 1 -8.850 4.357 10.270 
40 1 1.625 6.138 13.490 
41 1 0.617 -7.692 -3.555 
42 1 -13.865 -12.673 -3.967 
43 1 -13.239 -1.464 1.048 
44 1 4.012 -0.158 -6.982 
45 1 11.543 -10.735 -6.333 
46 1 -6.855 14.843 10.974 
47 1 -6.450 -7.866 10.002 
48 1 4.361 -12.737 3.375 
49 1 4.352 2.120 11.329 
50 1 3.249 7.782 -10.553 
51 1 -0.357 13.001 3.865 
52 1 3.194 4.706 9.400 
53 1 6.451 -11.721 -10.396 
54 1 10.558 -14.338 -4.215 
55 1 -0.806 -6.185 -13.215 
56 1 -7.306 0.977 13.684 
57 1 7.388 8.647 6.793 
58 1 11.796 0.047 -13.295 
59 1 1.326 -9.665 -14.483 
60 1 -1.042 -2.279 -0.086 
61 1 10.912 12.275 5.443 
62 1 -9.912 -1.655 -8.534 
63 1 9.116 14.397 3.425 
64 1 -8.277 -11.251 5.863 
65 1 -4.440 4.659 10.352 
66 1 -6.738 14.145 -1.186 
67 1 -14.992 4.268 10.223 
68 1 7.126 2.646 -7.287 
69 1 2.211 -8.606 11.967 
70 1 -5.365 10.020 8.843 
71 1 -12.227 2.504 1.354 
72 1 9.298 -11.019 2.715 
73 1 -10.250 -14.231 0.460 
74 1 13.371 3.498 -14.679 
75 1 1.097 -12.716 -1.444 
76 1 6.607 -13.462 12.490 
77 1 -5.923 -7.234 6.283 
78 1 2.259 -6.027 -8.889 
79 1 7.591 -11.671 -14.510 
80 1 -12.190 -0.497 7.543 
81 1 -2.474 -3.002 -10.009 
82 1 -5.110 13.839 5.121 
83 1 -4.522 -12.609 -1.659 
84 1 -10.605 -0.482 11.865 
85 1 -14.239 9.695 13.180 
86 1 -3.969 -12.757 -5.918 
87 1 -8.126 2.320 -12.080 
88 1 -1.104 3.983 -7.147 
89 1 0.794 -4.514 -4.434 
90 1 1.477 6.134 -1.226 
91 1 -13.483 -11.287 3.888 
92 1 -1.089 -13.729 5.986 
93 1 -10.242 1.710 -9.605 
94 1 12.964 7.403 14.730 
95 1 0.546 13.822 -1.499 
96 1 -11.799 6.038 -1.751 
97 1 -5.030 9.845 4.247 
98 1 -11.698 8.201 -7.291 
99 1 -3.559 -14.498 0.946 
100 1 7.465 -1.499 -4.343 
101 1 0.033 11.672 7.916 
102 1 -6.090 -10.649 0.760 
103 1 -11.229 -10.254 -11.368 
104 1 -7.578 9.545 -7.331 
105 1 -3.922 -14.717 10.873 
106 1 5.473 -6.673 -13.766 
107 1 -1.523 -5.991 2.081 
108 1 9.374 11.237 -11.811 
109 1 -7.860 8.161 6.160 
110 1 0.664 1.829 10.542 
111 1 0.786 -5.413 11.285 
112 1 4.826 12.501 10.673 
113 1 -11.995 6.360 -13.060 
114 1 5.529 6.547 12.349 
115 1 -6.421 -10.634 -11.856 
116 1 1.512 -4.705 4.269 
117 1 11.159 -3.905 2.127 
118 1 -6.841 -3.036 -0.847 
119 1 10.616 -12.932 -8.745 
120 1 -8.486 -4.911 7.373 
121 1 10.346 4.543 -13.106 
122 1 -5.792 6.391 -7.978 
123 1 -3.261 8.955 1.038 
124 1 -0.722 1.367 2.075 
125 1 5.621 -5.795 -5.341 
126 1 -10.671 -5.614 5.126 
127 1 -6.171 1.057 7.827 
128 1 14.863 -14.963 -7.475 
129 1 -5.258 12.280 -12.885 
130 1 8.296 -7.532 -12.877 
131 1 -4.576 -4.429 1.612 
132 1 -10.037 14.939 8.050 
133 1 9.191 -8.645 -7.936 
134 1 -14.414 -14.069 15.042 
135 1 11.693 -1.351 9.796 
136 1 -4.775 1.447 11.078 
137 1 -2.029 3.279 7.367 
138 1 -2.407 11.335 -4.067 
139 1 -3.069 -7.867 -14.709 
140 1 0.564 13.674 11.029 
141 1 -5.378 -4.331 -7.727 
142 1 -8.008 3.831 6.235 
143 1 -1.911 -10.165 -4.488 
144 1 -3.595 12.674 8.052 
145 1 -11.643 11.221 8.946 
146 1 -5.577 -7.761 -3.572 
147 1 -10.712 0.488 -2.654 
148 1 -2.248 9.121 6.755 
149 1 -5.709 -1.279 -11.068 
150 1 -0.002 -8.332 8.669 
151 1 4.371 -0.074 -3.515 
152 1 -11.284 12.339 2.163 
153 1 4.705 -0.404 8.631 
154 1 -2.857 -13.695 -12.257 
155 1 -3.414 10.129 12.517 
156 1 0.388 8.961 -4.727 
157 1 10.872 10.476 14.517 
158 1 -6.157 -2.200 14.682 
159 1 -14.362 5.673 -9.213 
160 1 -6.194 -4.820 12.215 
161 1 -6.952 -13.543 13.591 
162 1 3.619 -14.181 8.949 
163 1 -1.281 -5.247 -7.048 
164 1 2.039 10.377 14.051 
165 1 -7.698 13.753 -7.172 
166 1 -8.124 -4.221 -10.462 
167 1 -2.475 4.597 1.774 
168 1 0.163 8.620 2.336 
169 1 -8.298 4.471 -2.187 
170 1 -7.798 10.648 2.577 
171 1 0.485 0.529 -4.282 
172 1 3.589 7.841 7.077 
173 1 -2.825 7.485 -2.242 
174 1 12.417 -8.159 -13.993 
175 1 9.419 -3.719 11.039 
176 1 1.856 1.137 14.077 
177 1 12.130 13.994 -8.996 
178 1 3.844 -2.911 0.494 
179 1 -10.392 12.481 5.751 
180 1 -3.972 -4.802 -2.773 
181 1 -14.067 -10.079 11.091 
182 1 -7.510 -6.434 2.415 
183 1 8.973 2.978 0.498 
184 1 -4.706 8.564 15.059 
185 1 10.317 -0.583 -1.292 
186 1 -3.066 12.551 -10.033 
187 1 -3.934 13.491 13.928 
188 1 7.529 4.751 8.965 
189 1 12.996 14.097 10.538 
190 1 2.586 -8.570 4.819 
191 1 -4.609 -12.539 3.947 
192 1 -3.798 -3.654 -13.895 
193 1 -6.056 -13.567 -10.340 
194 1 3.624 11.215 -7.626 
195 1 -11.580 3.902 8.213 
196 1 -8.920 10.356 13.113 
197 1 -7.030 4.762 13.060 
198 1 -1.548 5.677 12.478 
199 1 9.299 -0.581 2.477 
200 1 2.391 -9.844 -7.607 
ITEM: TIMESTEP
17000
ITEM: NUMBER OF ATOMS
200
ITEM: BOX BOUNDS pp pp pp
-15.145370694641318 15.145370694641318
-15.145370694641318 15.145370694641318
-15.145370694641318 15.145370694641318
ITEM: ATOMS id type x y z
1 1 9.328 6.100 2.483 
2 1 -0.246 9.007 -1.062 
3 1 3.148 4.019 -10.448 
4 1 0.525 7.129 9.152 
5 1 -11.404 -3.055 4.608 
6 1 2.462 13.402 5.043 
7 1 9.651 -5.660 7.781 
8 1 4.515 11.000 -13.686 
9 1 5.395 9.928 -0.330 
10 1 -8.497 11.746 -4.160 
11 1 -2.437 -11.104 6.359 
12 1 12.778 -12.831 7.453 
13 1 -10.150 -8.331 0.391 
14 1 14.393 -6.629 7.733 
15 1 3.875 2.664 -14.475 
16 1 -0.659 9.829 -13.166 
17 1 -1.703 -10.341 -0.229 
18 1 0.199 12.458 -8.812 
19 1 -4.725 3.609 5.053 
20 1 -3.586 0.222 0.718 
21 1 2.092 -3.781 -13.293 
22 1 -3.412 -10.176 -9.590 
23 1 14.299 8.407 -11.703 
24 1 12.804 8.722 -8.058 
25 1 -10.223 14.225 -11.114 
26 1 10.425 -13.625 -11.868 
27 1 -11.004 1.880 4.438 
28 1 -11.000 14.459 -6.785 
29 1 -1.573 9.049 -9.356 
30 1 -7.691 -1.466 6.575 
31 1 -7.270 1.897 -0.073 
32 1 4.125 10.252 2.900 
33 1 0.208 1.775 -8.500 
34 1 -12.803 6.880 12.861 
35 1 1.165 -11.988 9.156 
36 1 -11.412 1.863 14.840 
37 1 7.116 -0.150 13.429 
38 1 -4.905 -7.669 -0.308 
39 1 -9.609 5.608 10.249 
40 1 1.349 6.702 13.682 
41 1 0.057 -8.405 -3.359 
42 1 -14.158 -12.596 -3.309 
43 1 -14.561 -2.119 2.086 
44 1 4.531 0.176 -6.532 
45 1 11.356 -10.723 -6.397 
46 1 -7.223 14.779 10.157 
47 1 -6.752 -7.415 9.879 
48 1 4.603 -13.029 2.664 
49 1 3.615 2.216 12.183 
50 1 3.781 7.692 -10.069 
51 1 -0.715 12.056 4.466 
52 1 3.049 4.530 9.416 
53 1 7.128 -10.954 -10.718 
54 1 9.679 -13.899 -4.654 
55 1 -0.221 -6.137 -13.968 
56 1 -7.348 0.819 14.650 
57 1 6.887 9.091 5.636 
58 1 11.109 0.650 -14.170 
59 1 1.822 -9.981 -15.111 
60 1 -0.244 -1.833 -0.672 
61 1 11.257 12.080 5.536 
62 1 -9.955 -1.511 -8.881 
63 1 8.877 -14.210 3.935 
64 1 -7.679 -11.034 5.382 
65 1 -4.381 4.630 9.973 
66 1 -6.467 13.906 -0.157 
67 1 15.097 3.131 10.320 
68 1 8.239 3.594 -7.447 
69 1 2.144 -7.757 12.607 
70 1 -5.319 10.154 8.296 
71 1 -12.520 1.643 0.520 
72 1 8.445 -9.826 1.958 
73 1 -11.026 -14.330 0.905 
74 1 12.965 3.453 14.614 
75 1 1.257 -12.210 -0.478 
76 1 5.602 -13.499 11.660 
77 1 -5.116 -5.934 6.569 
78 1 2.809 -5.306 -8.911 
79 1 7.328 -11.322 -14.751 
80 1 -12.100 -0.379 7.985 
81 1 -2.319 -2.831 -10.431 
82 1 -5.869 14.418 5.980 
83 1 -5.101 -12.498 -2.190 
84 1 -9.848 -0.689 11.424 
85 1 -14.047 10.393 13.735 
86 1 -4.762 -14.608 -5.904 
87 1 -8.298 1.748 -11.275 
88 1 -0.605 4.879 -6.659 
89 1 0.215 -3.347 -4.992 
90 1 1.478 4.792 -0.978 
91 1 -12.874 -11.096 1.877 
92 1 -1.491 -14.392 5.723 
93 1 -11.078 2.235 -9.451 
94 1 13.308 8.000 14.219 
95 1 0.161 13.657 -2.443 
96 1 -12.374 6.640 -2.397 
97 1 -4.549 10.635 5.173 
98 1 -11.521 9.127 -7.651 
99 1 -2.873 -14.707 1.148 
100 1 6.824 -1.164 -4.111 
101 1 0.815 11.704 7.548 
102 1 -6.429 -10.542 0.775 
103 1 -11.169 -10.398 -11.864 
104 1 -7.802 9.623 -7.799 
105 1 -3.052 -14.115 8.775 
106 1 4.429 -6.395 -14.037 
107 1 -0.389 -5.169 1.347 
108 1 9.797 11.293 -12.373 
109 1 -7.330 7.476 4.843 
110 1 0.339 1.878 11.185 
111 1 0.376 -4.764 11.287 
112 1 4.819 11.169 11.411 
113 1 -12.263 5.180 -12.872 
114 1 4.775 6.558 12.093 
115 1 -5.545 -11.172 -12.017 
116 1 1.731 -4.540 4.855 
117 1 10.372 -3.930 1.961 
118 1 -6.505 -2.578 -0.896 
119 1 10.243 -13.479 -8.341 
120 1 -8.227 -5.003 8.342 
121 1 10.692 4.270 -12.431 
122 1 -5.192 6.352 -8.133 
123 1 -3.463 8.712 1.783 
124 1 -0.070 0.885 1.686 
125 1 5.399 -6.526 -4.726 
126 1 -9.611 -5.888 4.764 
127 1 -5.642 1.861 7.748 
128 1 14.915 -14.547 -7.429 
129 1 -5.257 11.569 -12.363 
130 1 8.945 -7.756 -12.979 
131 1 -4.651 -4.778 1.377 
132 1 -9.723 -14.735 8.264 
133 1 8.540 -7.947 -9.067 
134 1 14.713 -13.741 15.129 
135 1 12.338 -1.496 10.505 
136 1 -5.783 0.055 10.835 
137 1 -2.099 2.401 8.517 
138 1 -4.935 11.494 -3.873 
139 1 -4.475 -7.402 -14.638 
140 1 0.843 14.615 10.854 
141 1 -5.269 -5.438 -6.240 
142 1 -8.591 3.370 6.018 
143 1 -1.948 -10.806 -4.583 
144 1 -3.151 12.539 7.736 
145 1 -11.530 12.566 8.850 
146 1 -5.215 -8.828 -4.625 
147 1 -11.518 -0.194 -4.002 
148 1 -1.839 8.413 7.310 
149 1 -5.762 -1.194 -11.412 
150 1 -1.055 -7.380 8.229 
151 1 3.682 0.923 -2.436 
152 1 -11.962 12.716 2.127 
153 1 5.308 0.568 8.051 
154 1 -3.118 -14.188 -12.555 
155 1 -4.211 10.183 12.657 
156 1 0.517 9.026 -5.072 
157 1 10.971 10.087 15.115 
158 1 -6.753 -2.605 14.644 
159 1 -13.265 6.256 -8.702 
160 1 -5.344 -4.796 11.909 
161 1 -7.716 -13.409 -14.924 
162 1 3.615 -14.513 8.771 
163 1 -0.829 -5.587 -7.821 
164 1 1.410 10.496 14.105 
165 1 -7.164 13.190 -7.924 
166 1 -8.173 -4.283 -10.042 
167 1 -3.580 4.827 1.849 
168 1 0.818 9.205 2.914 
169 1 -8.143 5.661 -2.131 
170 1 -7.738 10.556 2.397 
171 1 0.707 0.671 -4.509 
172 1 2.582 8.750 6.719 
173 1 -2.671 5.964 -2.302 
174 1 14.495 -7.458 -13.372 
175 1 9.362 -4.315 10.882 
176 1 0.784 1.079 -15.118 
177 1 12.315 13.801 -8.732 
178 1 4.225 -3.128 1.276 
179 1 -10.348 12.626 5.521 
180 1 -3.109 -4.234 -3.101 
181 1 -12.611 -10.584 10.289 
182 1 -8.125 -6.229 1.741 
183 1 10.524 2.826 -0.462 
184 1 -4.843 8.788 -14.444 
185 1 10.260 -0.389 -1.439 
186 1 -3.084 13.801 -9.223 
187 1 -4.541 12.962 14.570 
188 1 6.969 5.307 7.787 
189 1 13.833 13.447 10.314 
190 1 2.627 -8.454 5.075 
191 1 -4.480 -12.406 3.901 
192 1 -3.560 -4.001 -13.887 
193 1 -7.434 -13.846 -10.433 
194 1 3.753 10.277 -8.005 
195 1 -11.614 3.911 7.532 
196 1 -9.113 9.748 14.064 
197 1 -6.363 4.800 13.283 
198 1 -1.340 5.419 11.510 
199 1 9.145 -0.378 2.356 
200 1 2.232 -9.129 -6.882 
ITEM: TIMESTEP
18000
ITEM: NUMBER OF ATOMS
200
ITEM: BOX BOUNDS pp pp pp
-15.145370694641318 15.145370694641318
-15.145370694641318 15.145370694641318
-15.145370694641318 15.145370694641318
ITEM: ATOMS id type x y z
1 1 9.042 5.344 3.879 
2 1 0.401 8.526 -0.695 
3 1 3.967 3.948 -11.240 
4 1 0.479 7.119 8.600 
5 1 -11.921 -3.097 5.035 
6 1 2.460 13.935 4.257 
7 1 10.096 -6.268 8.123 
8 1 4.149 11.674 -13.342 
9 1 5.764 8.935 -0.347 
10 1 -8.423 12.896 -3.821 
11 1 -2.243 -11.182 5.618 
12 1 12.931 -12.805 7.820 
13 1 -10.147 -7.081 0.049 
14 1 13.733 -6.469 7.887 
15 1 3.474 3.216 -14.792 
16 1 -0.608 9.759 -12.199 
17 1 -1.627 -10.864 -0.247 
18 1 0.251 12.924 -7.850 
19 1 -4.158 2.512 4.905 
20 1 -3.716 0.532 1.374 
21 1 1.974 -4.049 -13.010 
22 1 -2.442 -10.143 -9.851 
23 1 14.324 7.357 -12.270 
24 1 13.073 7.866 -8.321 
25 1 -10.177 14.966 -10.437 
26 1 9.306 -14.615 -12.835 
27 1 -10.557 0.058 3.550 
28 1 -10.654 14.523 -6.150 
29 1 -0.662 9.047 -8.575 
30 1 -7.872 -1.256 6.366 
31 1 -7.022 1.553 1.662 
32 1 5.082 12.408 2.876 
33 1 0.530 2.838 -8.986 
34 1 -12.753 6.466 12.657 
35 1 0.564 -12.779 8.380 
36 1 -11.969 2.734 15.079 
37 1 7.261 -0.801 13.420 
38 1 -3.847 -7.570 0.375 
39 1 -9.857 5.997 10.195 
40 1 1.580 5.972 14.146 
41 1 -0.769 -7.755 -2.881 
42 1 -13.004 -12.457 -3.025 
43 1 -13.989 -1.694 1.697 
44 1 3.937 0.385 -6.242 
45 1 12.172 -11.373 -5.725 
46 1 -7.808 13.756 8.951 
47 1 -7.281 -7.211 8.890 
48 1 3.457 -12.144 3.636 
49 1 4.404 2.036 12.071 
50 1 2.537 8.168 -11.816 
51 1 -0.895 11.883 4.227 
52 1 3.790 4.703 9.343 
53 1 8.155 -11.454 -11.158 
54 1 9.851 -14.499 -4.333 
55 1 0.098 -6.846 14.925 
56 1 -7.812 1.922 14.545 
57 1 7.511 8.960 5.442 
58 1 10.442 -0.023 -14.656 
59 1 3.105 -10.454 -14.900 
60 1 0.968 -1.799 -0.832 
61 1 11.887 12.448 5.481 
62 1 -10.424 -0.646 -9.312 
63 1 7.267 -14.715 4.319 
64 1 -8.022 -10.613 6.189 
65 1 -4.814 4.316 9.753 
66 1 -6.180 12.935 -0.715 
67 1 15.026 3.192 10.858 
68 1 8.775 2.865 -6.899 
69 1 3.125 -7.413 13.018 
70 1 -5.711 8.735 8.304 
71 1 -12.585 1.412 -0.024 
72 1 9.811 -10.443 1.909 
73 1 -10.093 -14.798 0.452 
74 1 13.355 2.045 -15.012 
75 1 1.377 -12.949 -0.401 
76 1 5.537 -13.547 11.288 
77 1 -4.794 -5.451 5.065 
78 1 2.141 -5.470 -9.381 
79 1 7.482 -11.115 -14.486 
80 1 -11.096 -0.014 7.331 
81 1 -2.984 -1.578 -9.408 
82 1 -5.614 14.248 6.213 
83 1 -5.541 -12.348 -1.692 
84 1 -8.831 -0.724 11.049 
85 1 -14.456 10.102 13.651 
86 1 -4.703 -13.520 -5.063 
87 1 -7.997 1.056 -11.657 
88 1 -1.060 5.158 -6.476 
89 1 0.875 -2.783 -4.562 
90 1 1.339 4.919 -1.457 
91 1 -12.187 -11.510 1.508 
92 1 -1.182 -14.620 4.127 
93 1 -11.057 2.613 -9.506 
94 1 12.822 8.088 13.687 
95 1 -0.157 13.742 -3.085 
96 1 -13.071 6.678 -3.780 
97 1 -4.037 10.395 4.763 
98 1 -10.076 7.885 -6.259 
99 1 -3.268 14.273 0.480 
100 1 6.374 -1.133 -4.677 
101 1 1.735 12.426 7.912 
102 1 -7.790 -9.339 1.666 
103 1 -10.515 -10.459 -11.089 
104 1 -7.038 9.257 -6.769 
105 1 -3.644 -13.982 9.151 
106 1 5.286 -6.533 -14.443 
107 1 0.443 -4.242 1.915 
108 1 9.313 11.785 -12.775 
109 1 -7.734 8.414 5.420 
110 1 1.258 3.117 12.323 
111 1 0.073 -4.508 10.806 
112 1 4.911 10.900 12.288 
113 1 -12.290 6.390 -13.653 
114 1 4.155 7.500 12.032 
115 1 -5.728 -10.807 -11.727 
116 1 0.087 -4.421 5.057 
117 1 10.001 -3.741 2.638 
118 1 -6.280 -1.847 -1.143 
119 1 10.380 -13.937 -7.814 
120 1 -8.969 -4.665 7.456 
121 1 10.028 5.419 -11.260 
122 1 -5.568 5.324 -7.869 
123 1 -3.352 8.441 2.323 
124 1 -1.376 2.915 0.880 
125 1 5.533 -6.056 -5.237 
126 1 -11.240 -6.184 3.869 
127 1 -5.604 0.892 7.874 
128 1 -14.429 14.720 -7.320 
129 1 -4.794 12.351 -12.840 
130 1 8.512 -8.355 -13.373 
131 1 -3.138 -4.145 0.753 
132 1 -10.214 -13.768 8.188 
133 1 7.789 -7.643 -9.473 
134 1 -14.119 -13.629 14.733 
135 1 11.376 -1.166 11.022 
136 1 -5.517 0.488 11.209 
137 1 -1.261 2.235 9.065 
138 1 -5.449 10.306 -3.893 
139 1 -5.863 -7.915 -14.939 
140 1 0.087 14.299 11.125 
141 1 -4.585 -5.792 -6.131 
142 1 -7.926 2.295 5.476 
143 1 -2.280 -10.699 -6.128 
144 1 -2.188 13.795 7.832 
145 1 -12.163 13.456 9.402 
146 1 -5.591 -8.885 -4.919 
147 1 -11.045 0.909 -3.989 
148 1 -1.587 7.204 5.647 
149 1 -5.882 -1.594 -11.012 
150 1 -1.960 -7.730 9.605 
151 1 4.830 2.011 -2.270 
152 1 -12.316 13.415 2.783 
153 1 5.450 1.925 8.455 
154 1 -3.056 -13.750 -13.279 
155 1 -3.518 9.242 11.786 
156 1 -0.521 9.589 -4.286 
157 1 11.209 10.435 15.071 
158 1 -5.322 -1.843 14.368 
159 1 -13.111 6.595 -7.945 
160 1 -6.009 -4.222 11.138 
161 1 -7.798 -14.181 -13.785 
162 1 3.692 15.025 9.269 
163 1 -0.689 -5.557 -7.008 
164 1 1.456 9.287 13.380 
165 1 -7.693 12.480 -8.386 
166 1 -8.480 -4.775 -11.259 
167 1 -3.988 5.649 1.071 
168 1 1.128 9.567 2.545 
169 1 -8.489 5.686 -2.147 
170 1 -6.873 9.909 2.452 
171 1 0.860 1.009 -4.464 
172 1 3.045 9.246 7.095 
173 1 -2.984 6.580 -3.390 
174 1 13.439 -7.371 -14.420 
175 1 8.608 -4.577 10.837 
176 1 0.703 -0.281 14.468 
177 1 12.813 13.478 -9.082 
178 1 4.057 -3.284 0.989 
179 1 -10.507 13.206 6.188 
180 1 -3.454 -3.999 -2.887 
181 1 -14.307 -8.676 10.044 
182 1 -7.394 -5.807 2.078 
183 1 11.002 2.859 0.215 
184 1 -6.005 8.958 -13.896 
185 1 11.542 -0.757 -1.256 
186 1 -3.699 14.138 -9.226 
187 1 -5.072 14.364 14.940 
188 1 7.395 5.641 7.615 
189 1 14.307 13.436 10.431 
190 1 2.579 -8.288 5.956 
191 1 -4.359 -12.159 3.332 
192 1 -4.923 -4.914 -13.174 
193 1 -6.623 -14.542 -10.559 
194 1 3.968 11.665 -7.896 
195 1 -12.604 4.302 6.837 
196 1 -10.594 9.242 14.854 
197 1 -6.115 4.991 12.730 
198 1 -1.719 6.025 10.644 
199 1 9.691 -0.292 2.602 
200 1 1.487 -9.072 -7.909 
ITEM: TIMESTEP
19000
ITEM: NUMBER OF ATOMS
200
ITEM: BOX BOUNDS pp pp pp
-15.145370694641318 15.145370694641318
-15.145370694641318 15.145370694641318
-15.145370694641318 15.145370694641318
ITEM: ATOMS id type x y z
1 1 9.308 6.545 5.185 
2 1 0.119 8.996 -1.381 
3 1 3.896 4.408 -11.661 
4 1 0.285 8.205 8.618 
5 1 -12.452 -3.019 4.934 
6 1 2.659 14.880 4.606 
7 1 9.218 -5.533 8.015 
8 1 4.687 11.268 -12.501 
9 1 5.548 8.728 -0.535 
10 1 -8.476 12.655 -3.912 
11 1 -2.287 -11.140 6.071 
12 1 13.825 -13.870 7.462 
13 1 -10.293 -8.004 -1.048 
14 1 12.401 -8.081 8.686 
15 1 3.038 1.590 -14.700 
16 1 -0.311 10.131 -11.368 
17 1 -1.596 -13.574 -0.930 
18 1 -0.305 13.225 -7.711 
19 1 -3.608 1.916 4.766 
20 1 -3.954 0.177 1.149 
21 1 2.522 -3.401 -13.642 
22 1 -2.677 -9.615 -10.024 
23 1 -14.885 6.615 -12.428 
24 1 13.708 7.837 -8.521 
25 1 -10.391 14.961 -10.388 
26 1 9.895 -14.568 -12.549 
27 1 -10.736 1.527 3.985 
28 1 -11.781 14.475 -6.361 
29 1 -0.403 8.553 -7.713 
30 1 -7.709 -2.102 6.227 
31 1 -8.022 0.604 1.476 
32 1 5.312 12.566 2.849 
33 1 0.128 2.282 -8.519 
34 1 -12.256 6.591 11.931 
35 1 0.552 -10.717 7.625 
36 1 -12.790 2.922 -14.004 
37 1 7.011 -1.749 13.717 
38 1 -4.072 -8.383 0.141 
39 1 -9.909 5.954 9.936 
40 1 1.583 6.136 14.643 
41 1 -1.675 -8.599 -2.792 
42 1 -12.802 -12.685 -2.903 
43 1 -12.945 -0.658 2.481 
44 1 3.870 -0.061 -5.547 
45 1 12.639 -10.254 -6.654 
46 1 -8.008 14.708 9.891 
47 1 -7.048 -7.144 8.663 
48 1 2.913 -11.509 3.622 
49 1 5.134 1.434 11.880 
50 1 1.888 7.636 -11.652 
51 1 -1.529 12.325 4.207 
52 1 3.479 4.666 9.002 
53 1 8.130 -11.689 -10.992 
54 1 10.148 -14.357 -3.747 
55 1 0.175 -6.690 15.093 
56 1 -7.574 1.928 14.926 
57 1 6.589 10.155 4.678 
58 1 10.852 -1.360 -14.410 
59 1 2.575 -9.702 -14.258 
60 1 0.454 -1.364 -1.074 
61 1 11.548 12.199 5.209 
62 1 -10.661 -0.228 -8.164 
63 1 9.475 -14.581 3.886 
64 1 -7.531 -10.845 7.040 
65 1 -5.370 4.692 8.993 
66 1 -6.442 12.066 -1.206 
67 1 -14.379 5.248 9.682 
68 1 8.662 2.403 -6.061 
69 1 2.808 -7.337 13.144 
70 1 -4.681 8.158 8.312 
71 1 -11.567 2.443 -0.039 
72 1 10.426 -9.527 0.373 
73 1 -10.076 -14.810 -0.487 
74 1 13.132 1.765 -13.771 
75 1 2.198 -14.038 -0.167 
76 1 5.569 -13.457 13.101 
77 1 -5.261 -5.012 6.329 
78 1 2.469 -4.728 -9.334 
79 1 8.016 -10.770 -14.235 
80 1 -11.581 -0.304 8.331 
81 1 -2.468 -1.784 -9.277 
82 1 -4.573 14.768 5.514 
83 1 -6.555 -10.187 -1.775 
84 1 -9.526 -0.342 12.134 
85 1 -13.957 10.683 13.652 
86 1 -4.468 -13.525 -5.416 
87 1 -8.125 1.963 -11.061 
88 1 -1.928 4.982 -6.386 
89 1 1.309 -3.110 -5.805 
90 1 1.649 4.231 -1.321 
91 1 -12.004 -11.267 1.449 
92 1 -0.322 -13.943 4.112 
93 1 -11.387 3.021 -8.329 
94 1 13.249 8.264 13.859 
95 1 -1.224 13.862 -3.656 
96 1 -13.211 8.245 -4.874 
97 1 -4.901 11.063 4.752 
98 1 -10.215 8.424 -6.824 
99 1 -2.031 13.424 0.809 
100 1 6.822 -1.567 -4.865 
101 1 0.910 11.952 7.512 
102 1 -8.554 -10.112 1.254 
103 1 -9.655 -9.885 -10.666 
104 1 -6.728 8.329 -6.246 
105 1 -3.602 -14.854 10.298 
106 1 4.912 -6.681 -13.738 
107 1 0.700 -4.535 0.601 
108 1 8.217 11.995 -13.114 
109 1 -7.879 9.399 5.157 
110 1 0.869 3.618 12.147 
111 1 -0.452 -4.910 10.446 
112 1 4.712 10.158 12.725 
113 1 -11.861 6.256 -13.435 
114 1 4.866 6.820 12.755 
115 1 -6.524 -10.270 -11.864 
116 1 1.387 -3.841 4.830 
117 1 10.619 -4.992 2.418 
118 1 -6.431 -2.426 -0.718 
119 1 10.497 -14.433 -9.138 
120 1 -9.738 -4.521 7.974 
121 1 9.647 5.789 -10.717 
122 1 -5.079 3.536 -8.692 
123 1 -2.951 9.244 2.838 
124 1 -0.952 2.658 1.099 
125 1 6.951 -5.451 -5.697 
126 1 -9.815 -6.342 5.112 
127 1 -5.586 0.746 8.416 
128 1 14.968 14.535 -6.147 
129 1 -6.264 12.460 -11.827 
130 1 8.688 -7.342 -13.045 
131 1 -3.031 -4.725 0.863 
132 1 -10.178 -13.564 8.166 
133 1 7.874 -7.795 -9.881 
134 1 -14.644 -13.405 14.741 
135 1 11.402 -1.177 12.081 
136 1 -5.608 1.699 12.176 
137 1 -1.382 2.259 8.971 
138 1 -4.953 10.151 -3.768 
139 1 -5.756 -7.915 -14.024 
140 1 0.631 13.955 10.911 
141 1 -3.793 -5.636 -6.233 
142 1 -7.545 2.163 5.616 
143 1 -1.443 -10.157 -5.994 
144 1 -2.031 13.318 8.197 
145 1 -11.410 13.524 9.501 
146 1 -6.353 -8.312 -4.537 
147 1 -11.668 0.484 -3.625 
148 1 -1.204 6.830 4.300 
149 1 -5.397 -1.511 -11.600 
150 1 -1.821 -8.311 9.098 
151 1 5.894 1.406 -1.849 
152 1 -12.269 14.262 2.079 
153 1 5.011 1.840 7.880 
154 1 -3.545 -14.311 -13.048 
155 1 -2.743 11.510 12.363 
156 1 0.163 9.954 -4.510 
157 1 11.486 10.842 -15.134 
158 1 -4.037 -1.410 13.502 
159 1 -13.018 5.997 -8.035 
160 1 -4.715 -5.172 11.242 
161 1 -8.560 -13.141 -13.852 
162 1 4.275 14.125 9.555 
163 1 -0.600 -5.899 -7.581 
164 1 0.756 9.852 12.418 
165 1 -7.490 13.009 -8.527 
166 1 -8.811 -5.077 -11.188 
167 1 -4.522 5.637 1.195 
168 1 2.077 8.498 2.961 
169 1 -8.249 4.766 -2.213 
170 1 -6.920 10.208 2.070 
171 1 0.275 1.097 -4.126 
172 1 2.514 7.188 6.433 
173 1 -3.063 6.789 -2.924 
174 1 13.381 -5.883 -14.337 
175 1 6.945 -4.975 11.253 
176 1 1.373 0.005 13.545 
177 1 13.163 13.398 -10.586 
178 1 3.625 -2.792 0.878 
179 1 -10.260 12.112 6.756 
180 1 -2.443 -4.410 -3.364 
181 1 -13.811 -8.208 9.630 
182 1 -7.013 -5.037 1.401 
183 1 10.941 2.983 0.625 
184 1 -5.497 8.885 14.995 
185 1 12.077 -2.245 -1.332 
186 1 -3.704 13.891 -8.791 
187 1 -4.859 14.266 13.515 
188 1 6.489 6.380 7.289 
189 1 -14.841 13.915 9.957 
190 1 2.754 -8.080 6.180 
191 1 -5.589 -12.505 3.012 
192 1 -5.330 -4.396 -13.573 
193 1 -6.121 -14.914 -10.288 
194 1 2.691 11.545 -7.455 
195 1 -12.679 4.999 6.791 
196 1 -10.516 9.304 14.353 
197 1 -6.314 5.163 12.960 
198 1 -1.725 6.039 10.855 
199 1 9.384 -0.968 3.507 
200 1 1.179 -8.873 -7.639 
ITEM: TIMESTEP
20000
ITEM: NUMBER OF ATOMS
200
ITEM: BOX BOUNDS pp pp pp
-15.145370694641318 15.145370694641318
-15.145370694641318 15.145370694641318
-15.145370694641318 15.145370694641318
ITEM: ATOMS id type x y z
1 1 9.503 6.468 5.871 
2 1 -0.019 9.118 -0.997 
3 1 3.943 3.978 -10.258 
4 1 0.172 7.209 8.621 
5 1 -12.044 -2.556 4.576 
6 1 2.525 15.120 3.159 
7 1 8.027 -5.393 8.037 
8 1 3.628 10.033 -12.561 
9 1 4.881 8.600 0.082 
10 1 -7.779 13.572 -4.871 
11 1 -2.287 -12.456 6.195 
12 1 13.347 -13.737 7.903 
13 1 -10.294 -8.047 -1.754 
14 1 12.312 -8.816 8.720 
15 1 3.391 2.026 -14.155 
16 1 -0.391 10.763 -10.038 
17 1 -2.159 -13.353 -0.025 
18 1 -0.706 13.931 -7.176 
19 1 -3.750 1.092 4.836 
20 1 -4.337 0.631 0.751 
21 1 1.685 -2.320 -13.096 
22 1 -2.221 -9.316 -9.467 
23 1 -14.329 6.707 -11.657 
24 1 14.314 7.791 -8.240 
25 1 -10.468 14.635 -10.635 
26 1 10.002 -14.210 -12.966 
27 1 -11.107 2.575 4.794 
28 1 -12.074 13.878 -6.996 
29 1 -1.549 8.771 -7.506 
30 1 -8.715 -2.471 6.662 
31 1 -7.010 -0.052 2.489 
32 1 4.812 13.014 2.080 
33 1 0.895 2.677 -8.404 
34 1 -12.039 6.067 13.050 
35 1 0.756 -11.330 8.694 
36 1 -12.501 2.142 -12.699 
37 1 6.908 -1.818 13.868 
38 1 -5.077 -8.126 -0.750 
39 1 -9.415 6.545 9.658 
40 1 2.210 4.716 14.580 
41 1 -1.986 -10.047 -1.329 
42 1 -12.631 -12.687 -2.098 
43 1 -13.571 0.135 1.580 
44 1 4.132 -0.135 -4.213 
45 1 14.406 -10.208 -6.863 
46 1 -7.816 -13.944 10.009 
47 1 -6.861 -7.556 9.137 
48 1 2.214 -10.849 3.499 
49 1 4.103 0.859 12.268 
50 1 0.729 8.547 -13.167 
51 1 -1.713 12.161 3.957 
52 1 3.082 4.140 9.388 
53 1 8.226 -12.107 -10.140 
54 1 8.937 -13.945 -3.269 
55 1 0.015 -6.962 14.970 
56 1 -7.342 2.547 -14.658 
57 1 8.462 9.995 4.152 
58 1 10.594 -1.573 -14.501 
59 1 3.595 -10.025 -13.868 
60 1 0.412 -1.547 -1.457 
61 1 12.317 12.926 4.955 
62 1 -10.301 -1.308 -9.774 
63 1 9.138 14.229 4.018 
64 1 -6.793 -10.718 7.872 
65 1 -5.681 4.973 8.593 
66 1 -5.697 12.449 -1.570 
67 1 14.750 6.227 9.984 
68 1 9.260 2.494 -5.683 
69 1 2.997 -7.473 12.433 
70 1 -4.321 8.722 9.347 
71 1 -10.985 3.499 0.125 
72 1 10.552 -9.856 -0.185 
73 1 -10.082 15.135 -0.656 
74 1 13.099 1.810 -14.126 
75 1 2.465 -13.970 -0.084 
76 1 5.285 -12.459 13.170 
77 1 -5.621 -5.383 6.949 
78 1 2.981 -2.927 -9.147 
79 1 6.656 -11.408 -13.672 
80 1 -11.534 -0.478 7.261 
81 1 -2.031 -1.703 -9.737 
82 1 -4.783 14.801 5.734 
83 1 -6.426 -10.830 -3.383 
84 1 -8.802 -0.471 12.643 
85 1 -13.057 10.084 12.837 
86 1 -4.155 -13.351 -5.436 
87 1 -8.832 3.184 -11.218 
88 1 -1.136 5.380 -7.430 
89 1 1.144 -3.174 -6.169 
90 1 1.050 2.625 -1.201 
91 1 -11.072 -10.988 1.186 
92 1 -0.659 -13.530 3.087 
93 1 -11.725 2.857 -7.613 
94 1 14.025 9.511 13.964 
95 1 -1.467 12.999 -3.785 
96 1 -12.979 7.729 -5.020 
97 1 -4.798 10.968 5.721 
98 1 -10.351 8.355 -6.746 
99 1 -1.623 12.833 0.379 
100 1 6.521 -2.181 -4.221 
101 1 0.998 11.390 6.136 
102 1 -7.914 -10.537 0.485 
103 1 -10.118 -10.194 -10.200 
104 1 -7.168 7.793 -6.083 
105 1 -3.799 -14.616 9.644 
106 1 4.429 -5.894 -14.630 
107 1 0.204 -3.861 1.972 
108 1 7.200 10.959 -12.996 
109 1 -8.092 9.296 4.982 
110 1 -0.069 3.472 12.307 
111 1 -0.433 -5.307 11.221 
112 1 3.807 11.311 12.525 
113 1 -11.876 6.236 -14.022 
114 1 5.519 7.158 11.856 
115 1 -6.507 -10.709 -11.051 
116 1 1.669 -3.736 5.083 
117 1 10.721 -4.280 2.358 
118 1 -6.654 -2.666 -0.722 
119 1 10.563 -14.866 -8.225 
120 1 -9.673 -5.079 9.268 
121 1 9.440 5.175 -11.948 
122 1 -3.022 3.230 -10.015 
123 1 -3.848 9.703 2.475 
124 1 -1.305 2.572 1.348 
125 1 7.088 -5.890 -5.584 
126 1 -8.656 -6.805 5.331 
127 1 -5.548 1.439 8.688 
128 1 14.932 -15.018 -5.079 
129 1 -6.242 12.316 -11.685 
130 1 7.569 -7.499 -13.100 
131 1 -2.821 -5.096 0.207 
132 1 -9.966 -13.970 6.760 
133 1 7.043 -8.481 -8.965 
134 1 -14.636 -13.834 14.348 
135 1 11.090 -2.094 12.313 
136 1 -5.650 1.687 12.132 
137 1 -2.153 2.419 8.499 
138 1 -5.280 9.640 -3.682 
139 1 -6.086 -8.217 -14.392 
140 1 -0.480 14.563 12.011 
141 1 -2.892 -5.798 -6.769 
142 1 -7.341 2.736 5.183 
143 1 -1.995 -9.634 -6.020 
144 1 -2.149 12.471 8.402 
145 1 -11.384 14.273 10.083 
146 1 -6.300 -7.475 -4.270 
147 1 -11.377 -0.125 -2.389 
148 1 0.406 6.636 4.314 
149 1 -5.512 -1.914 -12.159 
150 1 -3.359 -9.104 8.818 
151 1 4.712 0.507 -0.930 
152 1 -11.849 14.277 3.131 
153 1 4.365 0.390 8.061 
154 1 -3.391 -14.001 -12.968 
155 1 -3.349 11.285 12.719 
156 1 0.515 10.231 -5.101 
157 1 10.831 10.435 -14.830 
158 1 -4.146 -0.459 14.078 
159 1 -13.048 5.814 -8.403 
160 1 -3.574 -5.896 11.184 
161 1 -8.324 -13.338 -12.479 
162 1 4.402 14.299 9.873 
163 1 0.261 -6.163 -8.333 
164 1 0.136 10.825 12.916 
165 1 -7.778 12.000 -8.571 
166 1 -9.418 -5.603 -11.886 
167 1 -3.994 5.120 0.057 
168 1 2.265 9.280 2.357 
169 1 -7.453 6.043 -2.770 
170 1 -7.209 10.975 1.546 
171 1 1.330 1.869 -4.626 
172 1 2.529 7.037 6.487 
173 1 -2.902 7.151 -3.410 
174 1 13.261 -5.225 -13.877 
175 1 7.085 -4.293 11.251 
176 1 1.082 0.450 14.317 
177 1 14.170 13.079 -11.042 
178 1 4.220 -3.238 0.891 
179 1 -10.838 11.532 6.431 
180 1 -1.543 -5.208 -2.935 
181 1 -14.605 -8.234 9.987 
182 1 -7.948 -5.796 0.671 
183 1 10.034 3.941 1.317 
184 1 -5.777 9.806 -14.022 
185 1 12.213 -2.710 -1.411 
186 1 -3.744 13.051 -8.975 
187 1 -5.523 13.421 12.779 
188 1 6.266 4.823 7.170 
189 1 14.417 13.821 10.529 
190 1 2.778 -8.086 6.339 
191 1 -5.306 -12.931 2.592 
192 1 -4.816 -4.293 -14.364 
193 1 -6.664 -13.862 -9.126 
194 1 2.925 12.217 -7.881 
195 1 -12.413 5.037 7.099 
196 1 -9.652 8.857 14.463 
197 1 -6.145 5.127 13.015 
198 1 -1.656 6.513 11.361 
199 1 9.487 -1.058 3.861 
200 1 1.221 -9.601 -8.287 
