ITEM: TIMESTEP
0
ITEM: NUMBER OF ATOMS
200
ITEM: BOX BOUNDS pp pp pp
-13.898096441678897 13.898096441678897
-13.898096441678897 13.898096441678897
-13.898096441678897 13.898096441678897
ITEM: ATOMS id type x y z
1 1 4.462 4.726 2.335 
2 1 2.737 11.980 0.209 
3 1 1.277 1.166 -11.801 
4 1 -2.637 6.663 8.287 
5 1 -9.144 -2.861 3.405 
6 1 2.884 13.158 9.061 
7 1 5.010 -1.287 4.964 
8 1 1.329 9.711 10.092 
9 1 4.322 11.966 3.657 
10 1 -7.432 7.709 -0.298 
11 1 0.140 -11.055 4.847 
12 1 9.825 12.398 6.666 
13 1 -7.665 -6.286 0.535 
14 1 -12.873 -7.138 5.465 
15 1 5.880 1.815 11.012 
16 1 -0.421 13.339 -10.175 
17 1 -3.710 -10.376 -0.425 
18 1 -1.378 -11.295 -4.565 
19 1 -5.564 1.780 4.848 
20 1 -1.717 -0.446 -3.056 
21 1 0.842 -2.802 -11.988 
22 1 -1.642 -8.147 -9.067 
23 1 9.147 8.856 -9.239 
24 1 12.671 9.731 -8.469 
25 1 -8.370 9.391 10.040 
26 1 6.933 -13.420 -11.833 
27 1 -11.737 1.362 3.819 
28 1 -11.355 10.567 -7.605 
29 1 -1.806 6.711 -4.590 
30 1 -7.193 -2.896 6.594 
31 1 -8.283 0.792 2.286 
32 1 -0.138 10.136 3.827 
33 1 -0.388 -0.817 -9.031 
34 1 -9.963 5.832 9.988 
35 1 -2.668 -11.503 7.381 
36 1 -9.469 2.178 10.857 
37 1 3.229 -5.860 13.559 
38 1 -3.165 -10.077 3.347 
39 1 -7.869 3.504 7.804 
40 1 0.379 4.280 13.686 
41 1 -1.674 -8.007 -2.670 
42 1 13.826 13.182 -9.150 
43 1 -12.676 -1.946 2.226 
44 1 3.442 -1.241 -9.714 
45 1 4.024 -12.856 -1.838 
46 1 -6.923 13.045 8.881 
47 1 -8.629 -9.563 6.089 
48 1 3.796 -12.396 1.944 
49 1 4.042 1.277 7.646 
50 1 5.373 8.927 -9.732 
51 1 -3.562 8.435 4.988 
52 1 1.361 6.089 8.935 
53 1 6.663 -10.345 -9.599 
54 1 9.515 12.399 1.994 
55 1 3.750 -4.931 -10.652 
56 1 -7.006 -0.239 12.297 
57 1 6.231 9.448 5.778 
58 1 13.202 -1.742 -8.634 
59 1 3.772 -8.601 -11.519 
60 1 -0.608 1.815 0.239 
61 1 11.778 10.333 4.237 
62 1 -10.076 -4.791 -10.288 
63 1 6.156 12.997 6.946 
64 1 -6.697 -9.141 2.807 
65 1 -6.082 6.193 9.742 
66 1 -8.297 10.949 -5.073 
67 1 9.765 2.161 5.692 
68 1 12.367 3.040 -6.325 
69 1 0.485 -6.564 -11.739 
70 1 -5.458 9.364 7.497 
71 1 12.598 -0.100 4.616 
72 1 8.327 -12.730 4.404 
73 1 -5.534 -12.777 1.949 
74 1 -8.983 0.648 -12.310 
75 1 -0.295 -11.259 1.073 
76 1 10.000 13.221 -13.836 
77 1 -3.983 -6.853 0.914 
78 1 1.993 -7.518 -8.357 
79 1 6.779 -9.926 -13.409 
80 1 -11.869 -1.882 5.906 
81 1 -1.741 -4.434 -9.610 
82 1 -5.544 11.779 4.604 
83 1 -5.065 -11.282 -3.785 
84 1 -6.207 0.385 8.583 
85 1 -12.674 10.252 -11.228 
86 1 -3.701 -8.533 -5.929 
87 1 -6.247 8.822 -7.873 
88 1 0.141 2.783 -3.652 
89 1 -2.192 -2.672 -6.351 
90 1 2.622 3.661 -0.743 
91 1 11.812 -10.163 4.099 
92 1 0.009 13.304 6.572 
93 1 -8.775 5.992 -8.071 
94 1 11.886 6.076 -8.616 
95 1 0.834 13.527 3.005 
96 1 -9.519 5.485 -4.433 
97 1 -5.306 5.508 6.043 
98 1 -11.849 3.945 -7.125 
99 1 -5.857 10.780 -1.853 
100 1 1.121 -1.110 -5.394 
101 1 -1.204 9.891 7.391 
102 1 -9.628 -6.704 3.636 
103 1 -13.405 -5.359 -8.499 
104 1 -9.227 8.960 -10.308 
105 1 -6.192 -10.841 9.081 
106 1 7.119 -6.789 -11.011 
107 1 -2.284 -1.742 0.408 
108 1 7.673 10.716 -12.199 
109 1 -5.232 5.946 2.255 
110 1 -1.236 3.801 10.360 
111 1 0.393 -2.706 12.030 
112 1 7.759 12.721 10.348 
113 1 -10.782 4.133 -10.788 
114 1 6.568 4.007 7.993 
115 1 -7.641 -7.401 -12.092 
116 1 0.609 -3.258 -2.148 
117 1 9.171 -1.814 4.716 
118 1 -6.150 -3.852 -1.756 
119 1 10.080 -11.573 -11.130 
120 1 -3.784 -1.347 6.413 
121 1 3.940 3.033 -13.750 
122 1 -6.458 7.757 -4.193 
123 1 -4.531 9.831 1.488 
124 1 3.239 4.618 5.927 
125 1 1.445 -3.869 -7.920 
126 1 -9.349 -5.934 7.225 
127 1 -3.209 2.570 7.521 
128 1 13.547 11.849 -5.517 
129 1 -0.816 10.530 13.144 
130 1 10.778 -4.366 -10.224 
131 1 -2.068 0.555 3.634 
132 1 -8.776 10.895 6.421 
133 1 6.984 -2.997 -10.359 
134 1 11.399 13.439 10.134 
135 1 12.863 -3.888 4.592 
136 1 -2.529 -0.463 9.805 
137 1 0.766 4.619 2.454 
138 1 -3.046 13.416 -2.840 
139 1 -4.551 -9.328 -11.055 
140 1 -0.764 12.850 10.131 
141 1 -5.099 -1.484 -4.427 
142 1 -8.816 0.344 5.912 
143 1 -5.347 -7.481 -2.602 
144 1 -3.561 12.708 7.564 
145 1 -8.531 7.124 6.860 
146 1 -5.166 -5.083 -5.720 
147 1 -10.105 -4.223 -6.791 
148 1 -0.054 6.743 5.508 
149 1 -6.983 -2.849 -12.573 
150 1 -5.044 -8.553 6.200 
151 1 4.743 1.094 1.131 
152 1 -8.401 4.197 4.178 
153 1 1.249 -0.973 8.720 
154 1 -2.524 -11.159 -13.784 
155 1 -3.015 6.695 12.040 
156 1 -0.664 5.443 -1.103 
157 1 11.431 9.938 -12.109 
158 1 -3.651 -1.734 13.243 
159 1 -12.311 7.188 -8.970 
160 1 -5.548 -2.943 10.062 
161 1 -6.260 -10.697 13.545 
162 1 3.787 -9.523 4.413 
163 1 -0.885 -6.093 -5.967 
164 1 5.092 10.154 9.323 
165 1 -4.497 10.847 -5.263 
166 1 -4.297 -5.595 -12.055 
167 1 -2.505 4.236 4.122 
168 1 -1.623 7.233 1.701 
169 1 -5.529 -1.694 3.129 
170 1 -7.296 8.601 3.727 
171 1 2.083 0.136 -1.818 
172 1 2.502 10.385 6.532 
173 1 -3.844 7.453 -1.380 
174 1 -13.453 -3.569 -11.788 
175 1 9.620 -3.574 11.928 
176 1 2.134 2.363 10.725 
177 1 10.070 12.599 -9.887 
178 1 2.243 1.496 3.924 
179 1 -5.885 -12.343 5.672 
180 1 -2.751 -4.384 -3.009 
181 1 8.869 -12.129 8.137 
182 1 -6.108 -5.469 3.978 
183 1 5.939 2.247 4.605 
184 1 -2.197 9.350 -7.740 
185 1 11.999 -0.138 0.916 
186 1 -1.947 13.248 -6.612 
187 1 -4.012 -13.277 10.936 
188 1 7.043 5.841 4.822 
189 1 8.751 9.449 8.637 
190 1 3.230 -12.959 5.700 
191 1 -2.643 -13.688 4.147 
192 1 -5.262 -3.270 -9.066 
193 1 -7.933 -10.987 -10.709 
194 1 4.046 11.512 -3.437 
195 1 -11.464 2.439 7.501 
196 1 -3.389 10.178 10.463 
197 1 -4.583 2.498 11.182 
198 1 -0.733 0.803 12.787 
199 1 8.493 0.873 2.195 
200 1 5.442 -12.475 -6.211 
ITEM: TIMESTEP
1000
ITEM: NUMBER OF ATOMS
200
ITEM: BOX BOUNDS pp pp pp
-13.898096441678897 13.898096441678897
-13.898096441678897 13.898096441678897
-13.898096441678897 13.898096441678897
ITEM: ATOMS id type x y z
1 1 5.110 5.575 1.989 
2 1 2.366 11.656 -0.937 
3 1 1.042 1.147 -11.812 
4 1 -2.693 6.553 7.991 
5 1 -8.385 -2.277 2.771 
6 1 3.424 13.414 9.083 
7 1 4.726 -1.856 5.916 
8 1 1.867 10.558 10.483 
9 1 4.470 13.211 2.788 
10 1 -6.817 8.417 -0.336 
11 1 0.190 -11.613 4.890 
12 1 10.578 11.742 7.793 
13 1 -7.826 -5.466 0.226 
14 1 -12.294 -7.456 6.091 
15 1 5.792 1.888 11.142 
16 1 -0.463 13.452 -11.241 
17 1 -3.696 -10.392 -0.242 
18 1 -1.909 -11.930 -4.313 
19 1 -6.560 2.316 4.225 
20 1 -2.578 -0.542 -3.480 
21 1 1.070 -2.592 -12.420 
22 1 -1.950 -7.586 -8.962 
23 1 9.005 8.559 -9.949 
24 1 12.554 9.689 -7.831 
25 1 -9.255 10.558 10.043 
26 1 7.086 -12.990 -11.062 
27 1 -12.200 1.622 4.599 
28 1 -11.725 10.740 -7.553 
29 1 -1.781 7.309 -4.903 
30 1 -6.951 -3.626 6.391 
31 1 -8.859 1.085 1.653 
32 1 0.084 10.052 3.917 
33 1 -0.662 -1.103 -9.012 
34 1 -10.089 6.057 9.973 
35 1 -2.079 -10.696 7.835 
36 1 -9.556 1.727 10.835 
37 1 3.858 -5.051 13.867 
38 1 -2.923 -9.895 2.945 
39 1 -7.903 3.704 7.984 
40 1 1.263 4.860 13.368 
41 1 -1.517 -8.481 -2.830 
42 1 12.965 13.496 -9.173 
43 1 -12.982 -2.619 1.963 
44 1 3.330 -0.344 -9.270 
45 1 4.160 -12.803 -1.939 
46 1 -7.466 12.928 8.573 
47 1 -8.563 -9.761 6.735 
48 1 3.257 -11.680 1.118 
49 1 4.284 1.940 7.654 
50 1 5.125 8.698 -9.983 
51 1 -3.058 8.544 4.747 
52 1 1.188 5.987 8.456 
53 1 6.505 -10.409 -8.638 
54 1 8.694 11.960 3.219 
55 1 3.409 -4.871 -9.883 
56 1 -6.761 -0.177 12.467 
57 1 6.195 9.239 4.813 
58 1 12.434 -1.636 -9.712 
59 1 3.451 -8.898 -11.926 
60 1 -0.233 1.235 0.106 
61 1 11.390 10.269 4.273 
62 1 -10.617 -5.237 -9.986 
63 1 6.833 12.570 6.726 
64 1 -7.556 -9.977 2.897 
65 1 -6.112 7.007 10.177 
66 1 -8.841 10.381 -3.873 
67 1 9.944 2.426 5.528 
68 1 11.867 3.285 -6.065 
69 1 0.535 -6.839 -11.587 
70 1 -5.517 9.501 7.276 
71 1 12.106 0.113 4.378 
72 1 7.984 -12.525 5.259 
73 1 -5.435 -12.360 1.850 
74 1 -8.471 0.483 -12.205 
75 1 -0.088 -11.061 0.367 
76 1 10.322 13.771 -13.540 
77 1 -3.571 -6.170 0.765 
78 1 2.565 -8.276 -8.862 
79 1 6.509 -10.276 -13.667 
80 1 -11.551 -1.180 6.577 
81 1 -0.800 -4.383 -9.416 
82 1 -5.314 11.736 4.625 
83 1 -5.225 -11.179 -3.678 
84 1 -7.293 0.072 8.774 
85 1 -12.491 9.448 -12.036 
86 1 -3.388 -7.986 -5.868 
87 1 -6.061 8.361 -8.563 
88 1 -0.202 3.075 -4.020 
89 1 -2.685 -2.357 -6.644 
90 1 3.026 3.533 -1.397 
91 1 12.477 -11.508 4.730 
92 1 0.742 13.616 6.798 
93 1 -9.530 5.867 -8.336 
94 1 11.931 6.491 -8.930 
95 1 0.955 13.201 2.505 
96 1 -9.666 5.374 -4.566 
97 1 -5.276 6.057 6.031 
98 1 -12.555 5.137 -6.412 
99 1 -5.019 11.259 -0.964 
100 1 1.693 -0.452 -5.676 
101 1 -0.627 9.654 7.806 
102 1 -9.694 -6.533 3.755 
103 1 13.755 -5.242 -8.627 
104 1 -9.250 9.103 -9.613 
105 1 -5.730 -11.500 8.889 
106 1 6.472 -7.372 -11.077 
107 1 -1.883 -3.242 0.905 
108 1 7.944 10.268 -13.008 
109 1 -5.606 5.683 2.117 
110 1 -0.835 3.312 10.128 
111 1 0.745 -2.626 12.077 
112 1 7.596 12.969 10.078 
113 1 -11.406 3.954 -11.209 
114 1 6.365 4.607 8.582 
115 1 -8.042 -8.596 -11.909 
116 1 1.808 -4.810 -1.950 
117 1 8.766 -1.414 5.108 
118 1 -5.424 -3.301 -1.400 
119 1 10.068 -11.792 -10.396 
120 1 -3.409 -1.802 7.042 
121 1 4.942 3.296 -13.707 
122 1 -7.162 7.767 -5.220 
123 1 -3.955 10.206 1.968 
124 1 3.816 4.747 5.852 
125 1 1.720 -3.654 -7.292 
126 1 -9.343 -6.208 7.328 
127 1 -3.691 2.929 7.504 
128 1 12.426 11.531 -5.334 
129 1 -2.005 10.050 13.779 
130 1 10.615 -5.027 -10.803 
131 1 -2.439 0.860 4.555 
132 1 -8.693 11.495 5.640 
133 1 7.213 -3.787 -10.217 
134 1 12.083 12.435 10.821 
135 1 12.280 -4.093 4.425 
136 1 -2.213 0.434 10.172 
137 1 0.755 4.273 3.372 
138 1 -3.074 13.256 -2.439 
139 1 -4.828 -9.856 -10.671 
140 1 -0.790 13.229 11.566 
141 1 -5.567 -1.407 -4.314 
142 1 -8.892 0.379 5.298 
143 1 -5.087 -8.069 -2.357 
144 1 -3.869 12.924 7.328 
145 1 -8.446 8.085 7.552 
146 1 -6.107 -5.909 -5.243 
147 1 -9.160 -4.085 -5.574 
148 1 0.217 6.943 5.155 
149 1 -6.831 -2.763 -12.573 
150 1 -4.753 -8.806 6.469 
151 1 4.781 1.531 0.975 
152 1 -9.521 4.059 4.482 
153 1 0.826 -1.351 7.377 
154 1 -3.293 -11.942 13.786 
155 1 -2.717 5.552 11.688 
156 1 0.104 5.507 -1.571 
157 1 11.561 9.747 -12.389 
158 1 -3.394 -2.411 13.471 
159 1 -12.543 7.728 -9.006 
160 1 -5.145 -3.171 10.072 
161 1 -6.367 -10.961 13.005 
162 1 4.108 -9.460 5.430 
163 1 -0.184 -6.093 -5.859 
164 1 5.145 10.533 10.005 
165 1 -5.571 10.829 -5.923 
166 1 -3.863 -5.378 -12.095 
167 1 -3.172 4.199 4.431 
168 1 -0.890 7.483 1.098 
169 1 -5.077 -1.131 2.509 
170 1 -7.136 8.277 3.492 
171 1 2.506 0.243 -2.294 
172 1 2.554 9.293 6.979 
173 1 -3.592 7.261 -1.325 
174 1 -13.704 -3.513 -12.821 
175 1 9.509 -3.174 12.392 
176 1 1.838 2.069 11.443 
177 1 8.767 12.556 -7.869 
178 1 2.188 0.946 3.305 
179 1 -6.620 -12.513 5.356 
180 1 -2.739 -4.202 -3.537 
181 1 9.378 -11.499 9.022 
182 1 -5.836 -6.967 3.421 
183 1 6.276 2.678 4.592 
184 1 -2.491 9.224 -7.691 
185 1 12.466 0.081 0.127 
186 1 -1.889 12.957 -6.199 
187 1 -4.530 -13.543 10.892 
188 1 7.204 6.003 4.903 
189 1 7.703 8.511 9.565 
190 1 4.168 -12.625 5.968 
191 1 -2.259 13.185 3.739 
192 1 -5.096 -3.352 -9.713 
193 1 -7.649 -12.190 -11.393 
194 1 3.381 11.658 -3.897 
195 1 -11.644 2.690 8.013 
196 1 -3.915 10.753 10.039 
197 1 -5.596 2.742 11.033 
198 1 -0.803 0.528 13.102 
199 1 7.920 0.590 2.439 
200 1 3.998 -11.512 -5.148 
ITEM: TIMESTEP
2000
ITEM: NUMBER OF ATOMS
200
ITEM: BOX BOUNDS pp pp pp
-13.898096441678897 13.898096441678897
-13.898096441678897 13.898096441678897
-13.898096441678897 13.898096441678897
ITEM: ATOMS id type x y z
1 1 3.700 5.972 1.620 
2 1 2.086 12.176 -0.414 
3 1 0.981 1.480 -11.708 
4 1 -2.595 6.751 8.532 
5 1 -9.155 -2.200 2.494 
6 1 2.689 13.324 9.574 
7 1 4.536 -2.629 4.651 
8 1 1.755 8.698 10.882 
9 1 4.639 12.970 2.920 
10 1 -7.374 8.593 -1.497 
11 1 -0.521 -11.823 4.831 
12 1 10.709 10.159 8.732 
13 1 -8.294 -6.498 -1.019 
14 1 -12.226 -7.663 7.298 
15 1 5.243 1.921 11.092 
16 1 -0.716 12.496 -11.171 
17 1 -3.890 -10.892 -0.339 
18 1 -2.144 -11.650 -3.986 
19 1 -6.378 2.387 5.112 
20 1 -1.778 -0.450 -3.624 
21 1 1.394 -2.185 -11.751 
22 1 -1.920 -8.390 -8.831 
23 1 9.036 8.805 -9.461 
24 1 11.935 9.219 -8.259 
25 1 -8.699 11.053 11.194 
26 1 7.185 13.712 -10.909 
27 1 -11.907 1.608 4.954 
28 1 -12.039 11.848 -7.206 
29 1 -2.692 6.899 -5.214 
30 1 -5.622 -4.193 5.132 
31 1 -9.728 1.557 1.434 
32 1 -0.247 9.894 4.016 
33 1 -1.086 -0.067 -9.525 
34 1 -10.259 6.575 10.367 
35 1 -2.031 -10.404 7.768 
36 1 -10.116 2.232 12.249 
37 1 4.348 -4.051 -13.405 
38 1 -3.775 -10.063 3.505 
39 1 -8.194 4.387 8.480 
40 1 1.522 5.105 13.857 
41 1 -2.016 -8.312 -2.674 
42 1 12.829 12.892 -8.533 
43 1 -13.388 -2.221 1.749 
44 1 4.103 -0.227 -9.024 
45 1 3.328 -12.749 -1.937 
46 1 -8.081 13.278 8.568 
47 1 -9.344 -10.358 7.235 
48 1 2.508 -11.848 2.070 
49 1 3.846 1.557 7.799 
50 1 5.107 9.296 -10.875 
51 1 -3.046 8.657 5.612 
52 1 1.365 5.923 8.573 
53 1 3.773 -12.147 -9.449 
54 1 8.086 11.381 1.784 
55 1 3.323 -4.774 -9.601 
56 1 -6.685 -0.116 13.084 
57 1 6.011 9.117 4.709 
58 1 13.225 -1.052 -9.968 
59 1 2.661 -9.151 -12.247 
60 1 -0.878 1.010 -0.031 
61 1 11.243 11.086 4.749 
62 1 -10.813 -4.648 -9.564 
63 1 6.416 13.282 6.564 
64 1 -8.018 -9.945 2.575 
65 1 -6.365 6.935 10.225 
66 1 -9.655 10.004 -3.721 
67 1 9.739 2.699 6.084 
68 1 11.475 4.371 -5.047 
69 1 -0.243 -7.153 -11.541 
70 1 -5.839 9.267 7.319 
71 1 11.260 0.160 3.566 
72 1 9.131 -12.962 5.323 
73 1 -5.831 -12.354 1.726 
74 1 -8.965 0.762 -11.942 
75 1 -0.170 -10.834 0.179 
76 1 11.312 -12.803 13.022 
77 1 -3.676 -6.766 0.451 
78 1 1.991 -8.653 -8.207 
79 1 6.328 -9.730 -13.408 
80 1 -10.842 -1.373 7.642 
81 1 -0.189 -4.117 -9.490 
82 1 -6.109 11.434 5.326 
83 1 -5.804 -11.296 -3.959 
84 1 -7.168 -0.547 9.588 
85 1 -12.203 9.934 -12.205 
86 1 -3.735 -8.275 -5.699 
87 1 -6.253 8.390 -8.972 
88 1 0.368 2.751 -4.367 
89 1 -2.256 -2.899 -6.940 
90 1 2.826 3.919 -1.988 
91 1 13.029 -11.735 4.894 
92 1 0.066 13.520 7.093 
93 1 -9.297 4.957 -7.462 
94 1 11.456 5.926 -9.640 
95 1 0.455 13.306 3.089 
96 1 -10.712 5.445 -3.623 
97 1 -5.983 5.845 6.059 
98 1 -12.885 6.312 -5.962 
99 1 -5.912 12.284 -0.984 
100 1 1.587 -0.980 -5.411 
101 1 -0.609 10.113 7.821 
102 1 -9.668 -6.492 3.121 
103 1 13.717 -4.969 -8.455 
104 1 -10.128 9.320 -9.655 
105 1 -6.203 -11.788 8.585 
106 1 6.991 -7.746 -10.538 
107 1 -0.724 -2.538 0.852 
108 1 7.984 9.854 -12.488 
109 1 -6.190 5.010 2.188 
110 1 -0.722 3.320 9.599 
111 1 0.833 -2.631 12.583 
112 1 8.719 12.700 10.287 
113 1 -11.225 4.203 -11.385 
114 1 6.514 4.278 9.148 
115 1 -8.280 -8.193 -12.061 
116 1 1.224 -4.853 -0.855 
117 1 9.101 -2.206 4.298 
118 1 -5.938 -3.123 -1.702 
119 1 11.120 -12.008 -9.515 
120 1 -2.970 -1.856 6.696 
121 1 4.406 3.751 -13.223 
122 1 -7.403 7.186 -4.581 
123 1 -2.812 10.684 1.490 
124 1 3.488 4.655 6.253 
125 1 2.237 -3.441 -7.048 
126 1 -9.176 -6.118 6.938 
127 1 -3.968 2.953 7.358 
128 1 13.040 11.793 -5.013 
129 1 -2.881 10.168 13.822 
130 1 10.797 -5.185 -11.133 
131 1 -3.455 0.403 3.483 
132 1 -9.566 11.319 5.569 
133 1 6.938 -3.807 -8.900 
134 1 12.414 12.331 11.226 
135 1 12.574 -3.499 5.302 
136 1 -2.105 0.292 9.651 
137 1 -0.386 4.060 2.852 
138 1 -2.685 12.244 -2.348 
139 1 -5.555 -9.294 -9.745 
140 1 -0.535 -13.872 10.784 
141 1 -5.327 -1.643 -4.869 
142 1 -8.512 -0.587 5.225 
143 1 -5.417 -8.082 -2.809 
144 1 -3.399 13.338 7.782 
145 1 -8.953 8.323 7.254 
146 1 -6.508 -6.215 -4.982 
147 1 -9.725 -3.474 -5.200 
148 1 0.112 7.003 5.424 
149 1 -6.658 -2.833 -12.657 
150 1 -4.754 -8.153 7.539 
151 1 4.824 1.740 0.903 
152 1 -9.581 4.202 5.281 
153 1 0.890 -1.695 5.433 
154 1 -2.412 -12.365 -13.046 
155 1 -3.665 6.495 12.702 
156 1 0.259 5.458 -2.495 
157 1 10.896 7.754 -12.904 
158 1 -2.303 -2.114 13.755 
159 1 -12.847 7.215 -9.416 
160 1 -4.804 -3.290 10.529 
161 1 -6.005 -11.066 13.148 
162 1 4.267 -9.008 4.543 
163 1 -0.215 -6.102 -5.958 
164 1 5.689 11.340 10.983 
165 1 -5.420 10.166 -5.688 
166 1 -4.380 -5.684 -12.188 
167 1 -3.413 4.158 4.173 
168 1 -0.218 8.073 0.664 
169 1 -6.657 0.335 1.772 
170 1 -8.147 8.502 3.863 
171 1 2.387 -1.028 -1.567 
172 1 3.111 9.576 7.202 
173 1 -3.814 7.484 -2.306 
174 1 -12.979 -4.042 -13.256 
175 1 9.348 -2.429 11.277 
176 1 1.769 2.185 11.671 
177 1 8.669 12.262 -8.113 
178 1 1.962 0.438 2.746 
179 1 -6.839 -13.048 5.415 
180 1 -3.389 -5.260 -4.194 
181 1 10.408 -11.280 9.606 
182 1 -6.135 -7.032 3.670 
183 1 6.724 2.370 4.513 
184 1 -2.770 9.784 -8.323 
185 1 11.531 -0.706 -0.467 
186 1 -1.828 13.204 -6.920 
187 1 -3.794 -13.195 10.822 
188 1 7.955 5.784 5.118 
189 1 7.592 8.235 9.470 
190 1 3.612 -13.125 6.049 
191 1 -3.763 13.692 3.906 
192 1 -5.075 -2.736 -9.552 
193 1 -9.394 -12.420 -11.686 
194 1 2.715 10.655 -3.500 
195 1 -12.667 3.297 8.073 
196 1 -4.276 10.240 10.399 
197 1 -4.007 3.052 10.987 
198 1 -1.248 1.634 13.032 
199 1 7.217 -0.124 1.957 
200 1 4.486 -11.075 -5.822 
ITEM: TIMESTEP
3000
ITEM: NUMBER OF ATOMS
200
ITEM: BOX BOUNDS pp pp pp
-13.898096441678897 13.898096441678897
-13.898096441678897 13.898096441678897
-13.898096441678897 13.898096441678897
ITEM: ATOMS id type x y z
1 1 4.092 5.993 1.937 
2 1 1.577 12.745 -0.342 
3 1 0.603 1.619 -11.368 
4 1 -3.433 7.019 8.294 
5 1 -9.151 -2.298 2.712 
6 1 2.896 -13.841 9.965 
7 1 4.688 -3.827 4.013 
8 1 1.120 8.873 11.135 
9 1 3.912 12.303 2.492 
10 1 -7.668 7.806 -1.549 
11 1 -0.497 -11.262 4.467 
12 1 11.046 10.772 7.570 
13 1 -9.405 -6.234 -0.391 
14 1 -13.857 -7.530 7.947 
15 1 5.058 2.302 11.326 
16 1 0.107 12.182 -12.647 
17 1 -4.190 -11.225 -0.407 
18 1 -2.776 -12.463 -3.163 
19 1 -5.938 2.479 5.918 
20 1 -2.855 0.293 -2.884 
21 1 1.806 -1.280 -11.004 
22 1 -1.940 -8.039 -9.095 
23 1 9.182 9.915 -9.435 
24 1 12.075 8.727 -8.240 
25 1 -8.248 10.822 11.396 
26 1 6.806 13.658 -10.525 
27 1 -11.954 1.494 5.487 
28 1 -12.166 13.115 -6.495 
29 1 -3.312 6.664 -5.183 
30 1 -5.931 -4.046 5.864 
31 1 -9.623 1.321 2.040 
32 1 0.566 10.346 3.320 
33 1 -0.823 -0.378 -8.581 
34 1 -10.110 6.949 11.239 
35 1 -2.582 -10.309 8.405 
36 1 -10.383 0.589 12.229 
37 1 4.107 -3.904 -13.633 
38 1 -3.718 -9.485 2.955 
39 1 -7.521 3.993 8.303 
40 1 0.752 5.615 12.630 
41 1 -1.524 -8.036 -1.810 
42 1 13.094 12.494 -8.723 
43 1 -12.692 -1.615 0.903 
44 1 3.833 0.062 -8.433 
45 1 3.222 -11.233 -1.375 
46 1 -8.861 13.043 9.173 
47 1 -8.944 -10.324 6.991 
48 1 3.191 -12.084 2.706 
49 1 4.184 1.382 7.078 
50 1 5.257 10.213 -10.820 
51 1 -2.657 9.604 5.023 
52 1 1.602 5.861 9.212 
53 1 4.185 -11.440 -9.440 
54 1 8.317 12.074 2.056 
55 1 2.956 -5.874 -10.519 
56 1 -7.069 -0.768 12.747 
57 1 6.624 9.631 4.501 
58 1 13.008 -0.422 -9.948 
59 1 2.068 -9.225 -11.262 
60 1 -0.964 0.319 0.353 
61 1 11.548 10.833 3.680 
62 1 -10.580 -3.984 -10.387 
63 1 5.759 13.381 7.011 
64 1 -8.181 -10.004 1.438 
65 1 -6.532 6.845 10.227 
66 1 -9.138 9.968 -3.855 
67 1 10.457 2.711 5.981 
68 1 11.693 3.345 -6.006 
69 1 -0.845 -6.681 -11.937 
70 1 -5.573 9.374 7.369 
71 1 12.177 0.676 3.291 
72 1 9.077 -12.410 4.088 
73 1 -5.944 -12.790 1.753 
74 1 -9.290 0.860 -12.098 
75 1 -0.470 -12.211 0.018 
76 1 10.837 -11.856 12.990 
77 1 -3.501 -5.900 1.087 
78 1 1.763 -8.678 -7.326 
79 1 5.882 -10.148 -12.268 
80 1 -11.415 -1.691 7.126 
81 1 -0.151 -4.476 -9.439 
82 1 -5.184 11.253 3.715 
83 1 -5.759 -11.683 -4.685 
84 1 -7.176 -1.169 9.335 
85 1 -12.453 11.182 -12.726 
86 1 -3.582 -8.964 -5.038 
87 1 -6.026 8.115 -9.433 
88 1 0.066 2.251 -4.014 
89 1 -1.784 -2.426 -6.055 
90 1 2.714 3.714 -1.683 
91 1 13.591 -12.072 4.823 
92 1 -0.045 13.699 6.981 
93 1 -8.706 4.586 -7.426 
94 1 11.638 5.982 -10.135 
95 1 0.232 13.496 2.750 
96 1 -10.831 5.962 -3.557 
97 1 -5.578 5.885 5.729 
98 1 -12.689 6.808 -6.244 
99 1 -6.804 12.073 -0.391 
100 1 1.227 -0.725 -5.202 
101 1 -0.617 9.007 7.998 
102 1 -10.220 -7.735 3.117 
103 1 -13.664 -5.447 -9.663 
104 1 -9.105 8.551 -10.837 
105 1 -6.077 -11.733 8.503 
106 1 6.413 -6.358 -10.676 
107 1 -1.398 -2.871 1.065 
108 1 8.496 10.685 -13.109 
109 1 -6.494 5.511 1.715 
110 1 -1.186 4.015 9.769 
111 1 0.844 -3.004 12.251 
112 1 7.731 12.973 9.994 
113 1 -10.294 4.962 -11.536 
114 1 6.005 4.345 8.548 
115 1 -7.602 -8.413 -12.216 
116 1 1.498 -5.386 -1.702 
117 1 9.628 -2.248 4.797 
118 1 -5.964 -3.320 -2.755 
119 1 11.530 -11.989 -8.521 
120 1 -3.042 -1.630 6.262 
121 1 5.427 3.801 -13.162 
122 1 -6.485 5.844 -5.171 
123 1 -2.413 10.537 1.292 
124 1 4.064 3.853 4.460 
125 1 3.079 -3.731 -5.692 
126 1 -8.445 -5.044 8.050 
127 1 -3.842 3.057 8.597 
128 1 12.668 11.292 -4.827 
129 1 -3.830 10.571 -13.636 
130 1 10.395 -5.461 -11.146 
131 1 -3.338 0.536 3.568 
132 1 -9.114 11.541 5.284 
133 1 6.225 -3.156 -8.536 
134 1 12.456 12.104 12.004 
135 1 12.696 -3.656 5.250 
136 1 -0.883 -0.355 10.508 
137 1 0.107 3.992 2.266 
138 1 -2.037 11.895 -2.552 
139 1 -6.072 -9.787 -9.731 
140 1 -1.008 -13.037 10.629 
141 1 -5.338 -1.434 -5.944 
142 1 -7.821 -0.741 5.637 
143 1 -5.369 -8.500 -2.215 
144 1 -2.995 12.761 8.030 
145 1 -9.411 8.536 7.900 
146 1 -6.532 -5.746 -5.203 
147 1 -9.415 -3.330 -4.704 
148 1 0.280 6.785 5.607 
149 1 -7.434 -3.823 -12.161 
150 1 -4.866 -7.778 8.343 
151 1 4.523 2.487 1.080 
152 1 -9.021 5.201 4.430 
153 1 1.224 -1.568 5.497 
154 1 -3.857 -12.478 -13.025 
155 1 -2.758 6.786 12.020 
156 1 -0.024 5.476 -1.876 
157 1 10.003 7.254 13.509 
158 1 -3.374 -1.916 13.468 
159 1 -12.907 7.252 -9.589 
160 1 -4.635 -4.366 9.847 
161 1 -4.854 -9.391 12.897 
162 1 5.419 -9.315 4.250 
163 1 0.350 -6.150 -5.235 
164 1 5.758 11.043 12.112 
165 1 -5.772 10.469 -5.712 
166 1 -4.853 -6.026 -11.344 
167 1 -3.385 4.014 3.556 
168 1 0.117 7.199 1.193 
169 1 -5.746 -0.003 1.730 
170 1 -7.536 8.529 4.106 
171 1 2.241 -0.626 -1.606 
172 1 3.240 9.293 6.201 
173 1 -1.986 8.519 -1.934 
174 1 -13.487 -5.949 -13.039 
175 1 9.094 -2.306 10.160 
176 1 1.510 1.852 11.582 
177 1 9.453 12.630 -7.147 
178 1 2.370 -0.930 1.976 
179 1 -6.786 -13.819 5.635 
180 1 -2.832 -5.245 -4.262 
181 1 8.716 -11.586 9.209 
182 1 -6.657 -7.511 3.210 
183 1 7.350 3.043 4.087 
184 1 -2.802 9.879 -8.413 
185 1 12.270 -1.315 -1.415 
186 1 -2.205 13.033 -7.471 
187 1 -4.436 -13.854 11.248 
188 1 7.713 5.949 5.504 
189 1 8.127 8.389 9.757 
190 1 2.825 -11.850 6.561 
191 1 -3.126 -13.803 3.685 
192 1 -4.074 -2.517 -10.215 
193 1 -8.502 -11.439 -11.522 
194 1 1.992 10.626 -3.282 
195 1 -12.663 4.715 8.068 
196 1 -4.569 10.427 10.543 
197 1 -3.680 2.701 11.976 
198 1 -1.474 0.916 -13.547 
199 1 6.692 -0.833 0.919 
200 1 5.099 -10.918 -5.752 
ITEM: TIMESTEP
4000
ITEM: NUMBER OF ATOMS
200
ITEM: BOX BOUNDS pp pp pp
-13.898096441678897 13.898096441678897
-13.898096441678897 13.898096441678897
-13.898096441678897 13.898096441678897
ITEM: ATOMS id type x y z
1 1 4.913 6.323 1.460 
2 1 1.532 11.353 -0.046 
3 1 0.731 1.609 -11.428 
4 1 -3.149 6.196 8.114 
5 1 -10.069 -3.206 2.673 
6 1 4.108 13.611 10.187 
7 1 4.775 -4.506 5.250 
8 1 0.992 9.247 11.393 
9 1 4.538 11.268 2.278 
10 1 -6.721 6.808 -1.729 
11 1 -0.717 -10.983 4.832 
12 1 11.182 11.451 7.366 
13 1 -10.062 -5.147 -1.326 
14 1 -13.414 -7.826 7.592 
15 1 4.293 2.787 11.805 
16 1 -0.172 12.031 -13.137 
17 1 -4.424 -10.569 -0.619 
18 1 -1.304 -11.232 -2.690 
19 1 -6.420 1.869 4.632 
20 1 -2.793 0.071 -3.339 
21 1 1.503 -2.383 -10.565 
22 1 -1.777 -9.488 -9.135 
23 1 8.676 9.493 -8.259 
24 1 11.842 8.820 -7.635 
25 1 -8.580 10.654 12.582 
26 1 7.351 13.459 -10.858 
27 1 -11.939 1.833 5.560 
28 1 -12.393 13.562 -6.546 
29 1 -3.520 5.498 -6.103 
30 1 -5.401 -3.406 7.064 
31 1 -9.960 1.294 2.711 
32 1 0.275 10.556 3.034 
33 1 -1.113 0.250 -8.688 
34 1 -10.132 6.544 9.654 
35 1 -2.751 -11.112 9.363 
36 1 -9.811 0.591 12.708 
37 1 4.106 -4.247 -13.342 
38 1 -2.765 -9.389 2.878 
39 1 -7.994 3.997 7.508 
40 1 1.477 5.140 12.786 
41 1 -1.454 -7.907 -1.918 
42 1 13.010 12.934 -8.775 
43 1 -11.687 -1.204 0.678 
44 1 4.500 0.214 -8.323 
45 1 5.210 -10.146 -2.387 
46 1 -9.040 13.535 8.777 
47 1 -10.510 -9.491 7.946 
48 1 3.186 -12.134 3.558 
49 1 3.487 1.556 8.471 
50 1 5.822 10.489 -10.956 
51 1 -2.999 7.957 5.231 
52 1 2.100 5.561 9.140 
53 1 5.160 -11.601 -9.705 
54 1 8.703 11.238 1.935 
55 1 2.834 -5.596 -10.554 
56 1 -6.281 0.020 13.004 
57 1 7.061 8.965 4.328 
58 1 13.570 -0.361 -8.462 
59 1 2.596 -9.348 -10.708 
60 1 -0.955 1.047 0.504 
61 1 11.368 10.634 3.824 
62 1 -9.861 -2.567 -8.885 
63 1 6.431 12.903 5.599 
64 1 -8.901 -10.235 1.897 
65 1 -6.327 6.200 10.827 
66 1 -9.312 10.449 -3.968 
67 1 10.342 3.412 6.322 
68 1 11.180 2.516 -6.553 
69 1 -0.488 -7.436 -12.680 
70 1 -4.992 9.773 7.113 
71 1 12.352 0.851 4.183 
72 1 9.559 -12.748 3.225 
73 1 -5.707 -12.369 2.269 
74 1 -9.406 0.154 -12.031 
75 1 -0.356 -12.119 0.506 
76 1 9.809 -10.880 12.393 
77 1 -3.113 -5.036 2.701 
78 1 1.342 -8.392 -7.236 
79 1 5.598 -10.337 -13.502 
80 1 -10.871 -1.082 6.781 
81 1 -0.056 -3.776 -7.546 
82 1 -5.898 11.643 3.311 
83 1 -5.622 -11.554 -3.747 
84 1 -6.980 -1.801 9.905 
85 1 -12.746 11.309 -12.821 
86 1 -3.438 -8.997 -5.425 
87 1 -6.021 7.711 -9.766 
88 1 0.353 1.998 -4.825 
89 1 -2.012 -2.237 -5.421 
90 1 2.681 4.991 -1.377 
91 1 13.525 -12.025 4.992 
92 1 0.785 13.662 6.660 
93 1 -8.561 4.150 -7.452 
94 1 10.667 6.236 -10.556 
95 1 0.744 13.803 2.826 
96 1 -11.153 5.607 -3.482 
97 1 -5.656 6.089 5.824 
98 1 -12.321 7.450 -6.473 
99 1 -6.476 13.569 -1.085 
100 1 1.616 -1.209 -5.450 
101 1 -0.714 9.014 7.554 
102 1 -9.937 -7.229 3.114 
103 1 -13.875 -5.651 -9.803 
104 1 -9.238 9.299 -10.900 
105 1 -6.191 -11.933 8.204 
106 1 6.468 -6.783 -10.649 
107 1 -1.039 -2.942 1.201 
108 1 8.988 11.535 -13.800 
109 1 -6.138 5.370 1.743 
110 1 -0.860 4.333 10.209 
111 1 1.317 -3.840 11.884 
112 1 8.518 12.604 9.869 
113 1 -11.439 5.067 -11.632 
114 1 6.019 4.690 8.845 
115 1 -8.327 -8.223 -12.159 
116 1 2.870 -6.948 -1.332 
117 1 9.805 -3.698 4.248 
118 1 -4.873 -3.332 -2.901 
119 1 11.499 -11.991 -9.478 
120 1 -2.316 -1.801 6.343 
121 1 5.616 4.875 13.814 
122 1 -6.630 4.997 -4.846 
123 1 -2.858 10.173 1.657 
124 1 4.339 3.950 4.418 
125 1 3.116 -4.140 -5.307 
126 1 -8.708 -5.799 7.091 
127 1 -4.034 2.542 8.291 
128 1 12.212 12.318 -4.025 
129 1 -4.421 10.485 13.816 
130 1 9.579 -6.561 -12.203 
131 1 -2.841 -0.146 3.637 
132 1 -9.030 11.861 4.128 
133 1 6.400 -3.281 -9.349 
134 1 11.423 12.224 11.355 
135 1 12.876 -2.714 5.688 
136 1 -2.089 -0.137 11.005 
137 1 0.616 4.276 2.664 
138 1 -1.930 12.282 -2.274 
139 1 -5.923 -10.582 -7.907 
140 1 0.030 -12.973 10.200 
141 1 -5.982 -1.289 -5.768 
142 1 -7.944 -1.601 5.493 
143 1 -5.616 -8.121 -3.145 
144 1 -3.016 12.630 7.959 
145 1 -9.169 9.384 7.515 
146 1 -6.329 -6.103 -6.333 
147 1 -10.502 -2.839 -5.098 
148 1 0.021 6.434 5.494 
149 1 -7.443 -3.038 -12.660 
150 1 -5.723 -7.610 7.299 
151 1 3.754 2.067 1.342 
152 1 -9.499 5.631 4.674 
153 1 1.631 -1.099 5.743 
154 1 -2.773 -13.081 -12.172 
155 1 -3.004 7.502 12.129 
156 1 -0.207 5.806 -3.300 
157 1 9.600 7.313 13.173 
158 1 -3.625 -1.720 -13.641 
159 1 -12.333 7.787 -9.601 
160 1 -3.932 -4.771 11.401 
161 1 -4.810 -9.435 13.117 
162 1 5.490 -9.167 5.091 
163 1 0.160 -6.318 -5.142 
164 1 5.581 10.607 11.110 
165 1 -6.073 9.235 -6.058 
166 1 -5.024 -6.022 -11.131 
167 1 -2.883 3.583 3.110 
168 1 0.555 7.414 1.218 
169 1 -6.066 0.606 -0.384 
170 1 -7.686 8.605 4.035 
171 1 1.857 -0.420 -1.437 
172 1 3.439 8.936 5.873 
173 1 -2.111 8.582 -1.729 
174 1 -13.464 -5.652 13.852 
175 1 8.686 -3.361 10.558 
176 1 0.827 1.933 11.735 
177 1 8.696 13.518 -7.680 
178 1 2.744 -2.104 2.359 
179 1 -7.191 13.779 5.674 
180 1 -3.429 -5.527 -4.999 
181 1 9.304 -12.014 8.488 
182 1 -6.253 -7.334 3.420 
183 1 7.226 2.927 3.087 
184 1 -3.377 9.509 -10.328 
185 1 12.027 -0.595 -1.987 
186 1 -2.008 12.753 -7.813 
187 1 -4.130 13.750 11.713 
188 1 7.505 6.264 5.500 
189 1 8.438 8.250 8.344 
190 1 3.310 -11.471 6.902 
191 1 -2.980 13.557 3.347 
192 1 -3.433 -2.659 -10.297 
193 1 -7.570 -12.666 -11.069 
194 1 2.844 11.207 -3.559 
195 1 -13.521 4.798 9.613 
196 1 -5.648 10.562 10.638 
197 1 -4.049 3.084 11.869 
198 1 -1.423 1.276 13.889 
199 1 7.238 -0.310 1.691 
200 1 4.718 -10.158 -6.154 
ITEM: TIMESTEP
5000
ITEM: NUMBER OF ATOMS
200
ITEM: BOX BOUNDS pp pp pp
-13.898096441678897 13.898096441678897
-13.898096441678897 13.898096441678897
-13.898096441678897 13.898096441678897
ITEM: ATOMS id type x y z
1 1 5.309 6.836 1.467 
2 1 1.665 10.615 -0.717 
3 1 1.444 1.722 -11.059 
4 1 -2.547 6.503 8.129 
5 1 -9.549 -3.481 2.525 
6 1 4.820 13.788 8.150 
7 1 4.999 -3.576 4.673 
8 1 2.164 9.106 10.672 
9 1 4.024 10.728 1.674 
10 1 -7.606 7.891 -0.560 
11 1 0.391 -11.126 5.232 
12 1 12.008 11.541 8.804 
13 1 -9.812 -6.138 -1.938 
14 1 13.684 -7.134 7.382 
15 1 4.400 2.278 13.056 
16 1 -0.544 11.409 -13.021 
17 1 -3.469 -11.447 -0.162 
18 1 -0.118 -11.289 -3.289 
19 1 -5.513 2.389 5.199 
20 1 -2.060 0.214 -3.010 
21 1 1.504 -2.412 -10.098 
22 1 -2.050 -8.183 -8.686 
23 1 8.189 9.379 -8.159 
24 1 12.172 10.102 -6.977 
25 1 -8.829 10.074 13.704 
26 1 7.166 13.643 -11.130 
27 1 -11.224 2.326 4.708 
28 1 -11.436 13.138 -5.478 
29 1 -1.376 4.254 -6.636 
30 1 -5.714 -2.759 6.704 
31 1 -9.694 0.066 1.604 
32 1 -0.329 9.926 3.211 
33 1 0.202 0.245 -8.220 
34 1 -10.218 5.804 10.862 
35 1 -1.921 -10.466 10.122 
36 1 -10.128 0.540 12.442 
37 1 4.001 -2.842 13.573 
38 1 -2.242 -7.903 2.294 
39 1 -8.007 3.639 7.638 
40 1 1.130 5.817 13.052 
41 1 -1.656 -7.430 -2.178 
42 1 -13.688 13.535 -8.520 
43 1 -12.514 -1.985 1.065 
44 1 4.893 -0.387 -8.827 
45 1 5.321 -8.979 -3.739 
46 1 -9.133 -13.691 9.952 
47 1 -10.602 -9.310 8.381 
48 1 3.556 -12.396 4.022 
49 1 3.920 2.181 8.374 
50 1 5.775 9.359 -11.549 
51 1 -2.707 8.402 4.982 
52 1 2.417 5.974 8.610 
53 1 5.397 -11.754 -8.881 
54 1 8.571 11.534 1.656 
55 1 2.240 -5.560 -11.164 
56 1 -6.346 0.109 12.618 
57 1 6.214 9.359 4.888 
58 1 13.301 -0.298 -8.706 
59 1 2.431 -9.505 -10.888 
60 1 -1.095 1.824 0.192 
61 1 12.707 11.538 4.609 
62 1 -10.293 -2.591 -9.036 
63 1 7.170 12.554 4.742 
64 1 -10.375 -11.107 2.346 
65 1 -5.861 6.352 11.268 
66 1 -9.088 10.955 -3.301 
67 1 10.642 3.880 7.311 
68 1 11.549 3.421 -6.573 
69 1 -0.291 -7.239 -13.634 
70 1 -5.018 9.813 7.131 
71 1 12.152 0.031 3.923 
72 1 10.394 -12.232 3.391 
73 1 -6.136 -12.853 1.791 
74 1 -8.394 0.857 -10.890 
75 1 0.660 -11.077 0.547 
76 1 10.212 -11.431 12.164 
77 1 -3.809 -4.497 3.796 
78 1 1.421 -8.841 -7.228 
79 1 6.717 -11.519 -13.722 
80 1 -11.034 -1.701 6.541 
81 1 0.193 -4.032 -7.449 
82 1 -5.409 10.750 3.737 
83 1 -6.012 -11.277 -3.525 
84 1 -7.252 -2.206 9.660 
85 1 -12.325 10.681 -12.497 
86 1 -2.611 -8.481 -5.108 
87 1 -5.141 6.394 -11.825 
88 1 0.470 1.817 -4.944 
89 1 -1.735 -2.188 -5.623 
90 1 2.400 4.348 -1.154 
91 1 13.510 -12.117 4.682 
92 1 1.937 13.299 6.351 
93 1 -8.176 3.259 -7.764 
94 1 10.336 6.139 -11.276 
95 1 0.702 13.604 2.954 
96 1 -10.658 5.713 -2.920 
97 1 -5.986 6.308 5.444 
98 1 -12.121 7.206 -5.893 
99 1 -6.002 13.820 -1.327 
100 1 2.279 -1.292 -5.920 
101 1 -0.197 9.738 8.158 
102 1 -9.265 -7.080 2.225 
103 1 -13.111 -6.430 -9.083 
104 1 -8.432 9.949 -9.625 
105 1 -5.924 -12.091 8.506 
106 1 5.876 -6.691 -10.603 
107 1 -1.606 -2.749 0.354 
108 1 8.070 11.422 13.310 
109 1 -6.015 5.569 1.402 
110 1 -0.656 4.042 10.084 
111 1 1.888 -4.154 11.259 
112 1 8.102 12.176 10.144 
113 1 -10.888 5.265 -11.089 
114 1 6.145 4.900 9.641 
115 1 -7.971 -7.944 -11.077 
116 1 2.961 -6.144 -1.272 
117 1 9.468 -2.933 3.878 
118 1 -5.746 -2.394 -2.660 
119 1 10.271 -11.514 -9.136 
120 1 -2.272 -2.610 6.330 
121 1 6.142 5.458 13.784 
122 1 -7.210 5.461 -3.821 
123 1 -2.401 10.595 0.900 
124 1 4.089 4.106 3.895 
125 1 4.010 -4.253 -5.520 
126 1 -9.462 -5.746 7.696 
127 1 -4.453 3.092 8.841 
128 1 12.213 12.448 -4.161 
129 1 -4.876 9.481 -13.808 
130 1 10.090 -7.203 -11.505 
131 1 -3.879 -0.655 4.022 
132 1 -9.589 11.648 4.292 
133 1 6.846 -3.345 -9.255 
134 1 12.137 13.329 11.671 
135 1 13.146 -2.665 6.471 
136 1 -2.634 0.074 10.434 
137 1 0.374 4.378 2.440 
138 1 -1.361 12.001 -2.110 
139 1 -5.281 -10.372 -7.517 
140 1 0.291 -13.602 9.191 
141 1 -7.304 -1.195 -6.090 
142 1 -8.021 -0.826 5.270 
143 1 -6.733 -7.949 -4.293 
144 1 -2.910 12.840 7.410 
145 1 -9.389 9.496 9.089 
146 1 -6.507 -5.724 -7.083 
147 1 -11.012 -3.360 -4.406 
148 1 0.066 5.830 5.407 
149 1 -6.995 -2.802 -12.054 
150 1 -6.703 -8.358 7.841 
151 1 3.703 2.165 1.359 
152 1 -10.410 5.783 4.190 
153 1 1.998 -1.801 5.804 
154 1 -2.383 -12.267 -10.978 
155 1 -2.759 7.366 12.574 
156 1 -1.532 5.691 -3.075 
157 1 8.699 7.699 12.838 
158 1 -3.539 -1.808 13.458 
159 1 -12.777 8.025 -9.886 
160 1 -4.066 -4.851 10.941 
161 1 -5.349 -8.738 13.729 
162 1 5.998 -8.669 6.255 
163 1 0.521 -6.340 -4.538 
164 1 5.213 10.335 10.363 
165 1 -6.178 9.512 -5.745 
166 1 -4.671 -6.588 -9.887 
167 1 -3.177 3.776 2.515 
168 1 0.839 7.171 0.090 
169 1 -4.848 2.611 -0.876 
170 1 -8.477 8.613 4.177 
171 1 1.844 0.400 -0.663 
172 1 3.247 8.387 5.678 
173 1 -2.989 8.886 -1.788 
174 1 13.177 -5.426 13.004 
175 1 8.432 -2.477 11.931 
176 1 1.506 1.566 11.076 
177 1 8.516 13.541 -7.432 
178 1 2.836 -1.738 2.693 
179 1 -7.159 -13.235 5.424 
180 1 -3.251 -5.474 -5.516 
181 1 10.468 -12.037 8.816 
182 1 -6.069 -7.128 3.808 
183 1 7.038 3.080 2.528 
184 1 -2.360 9.330 -10.639 
185 1 11.070 -0.490 -1.518 
186 1 -2.940 12.202 -8.693 
187 1 -4.008 13.368 11.959 
188 1 7.539 6.280 4.928 
189 1 7.732 8.486 8.908 
190 1 2.998 -11.353 7.692 
191 1 -3.049 13.639 3.391 
192 1 -3.368 -2.993 -10.964 
193 1 -8.244 -12.285 -11.151 
194 1 3.256 10.739 -6.255 
195 1 -13.460 5.714 8.657 
196 1 -5.951 10.378 10.342 
197 1 -4.052 2.995 12.173 
198 1 -0.890 1.781 -13.813 
199 1 5.973 -0.505 1.248 
200 1 4.129 -12.065 -5.186 
ITEM: TIMESTEP
6000
ITEM: NUMBER OF ATOMS
200
ITEM: BOX BOUNDS pp pp pp
-13.898096441678897 13.898096441678897
-13.898096441678897 13.898096441678897
-13.898096441678897 13.898096441678897
ITEM: ATOMS id type x y z
1 1 5.290 6.538 1.125 
2 1 0.829 10.431 0.081 
3 1 1.447 2.811 -11.317 
4 1 -1.720 6.627 8.240 
5 1 -9.005 -4.232 3.733 
6 1 4.173 13.259 8.094 
7 1 6.215 -3.343 5.068 
8 1 1.747 9.514 10.587 
9 1 4.847 12.610 1.312 
10 1 -8.590 7.177 -0.426 
11 1 0.019 -9.614 5.511 
12 1 12.379 11.596 9.636 
13 1 -9.686 -5.928 -1.566 
14 1 12.369 -7.341 7.295 
15 1 4.366 2.066 13.615 
16 1 0.028 10.800 -12.968 
17 1 -3.202 -11.186 0.370 
18 1 -0.104 -11.288 -3.972 
19 1 -5.866 2.705 4.925 
20 1 -2.090 0.815 -2.681 
21 1 1.214 -1.514 -11.460 
22 1 -0.985 -8.900 -9.387 
23 1 8.630 9.771 -7.796 
24 1 12.118 9.576 -6.686 
25 1 -9.244 10.342 12.408 
26 1 7.332 13.503 -11.125 
27 1 -10.829 2.576 5.860 
28 1 -11.611 13.220 -5.972 
29 1 -1.172 3.739 -6.536 
30 1 -6.178 -2.740 5.858 
31 1 -8.948 -0.270 0.893 
32 1 0.778 10.681 3.625 
33 1 0.846 0.555 -8.782 
34 1 -10.494 5.746 11.974 
35 1 -0.706 -10.653 10.000 
36 1 -11.002 1.242 11.692 
37 1 3.884 -1.526 -13.551 
38 1 -2.299 -7.874 1.395 
39 1 -8.958 5.143 7.040 
40 1 1.095 4.838 13.022 
41 1 -1.723 -6.635 -1.976 
42 1 13.257 13.413 -7.968 
43 1 -12.471 -2.428 1.523 
44 1 5.443 0.846 -9.196 
45 1 6.348 -9.350 -3.562 
46 1 -8.699 13.369 11.058 
47 1 -10.245 -8.008 9.483 
48 1 3.633 -11.489 3.610 
49 1 3.427 2.410 8.233 
50 1 5.911 10.678 -11.481 
51 1 -2.130 9.160 4.904 
52 1 2.843 5.713 8.029 
53 1 6.243 -11.367 -8.903 
54 1 8.556 12.061 0.675 
55 1 2.749 -5.212 -11.763 
56 1 -6.639 0.200 12.473 
57 1 6.712 9.058 4.721 
58 1 12.859 -0.229 -8.290 
59 1 2.349 -9.335 -11.361 
60 1 -1.492 1.505 0.668 
61 1 13.028 12.521 3.814 
62 1 -10.299 -2.279 -9.244 
63 1 6.572 12.783 4.311 
64 1 -10.308 -10.895 2.299 
65 1 -6.064 6.573 11.034 
66 1 -8.726 11.829 -4.323 
67 1 11.256 4.013 8.354 
68 1 12.152 3.359 -7.468 
69 1 1.724 -7.035 13.597 
70 1 -4.964 8.955 7.004 
71 1 13.728 -0.076 3.760 
72 1 9.437 -10.372 1.365 
73 1 -6.405 -12.880 2.071 
74 1 -8.535 0.885 -10.947 
75 1 1.034 -10.905 0.884 
76 1 10.541 -11.909 11.967 
77 1 -3.201 -4.087 3.394 
78 1 2.034 -8.102 -7.971 
79 1 7.668 -11.327 13.773 
80 1 -11.534 -2.272 5.480 
81 1 1.071 -4.871 -7.895 
82 1 -5.696 11.584 4.442 
83 1 -5.229 -11.358 -2.847 
84 1 -6.936 -1.202 8.846 
85 1 -12.639 10.669 -13.234 
86 1 -2.886 -9.819 -5.493 
87 1 -6.162 5.735 -11.555 
88 1 1.325 2.454 -3.806 
89 1 -1.022 -2.366 -6.660 
90 1 2.933 4.338 -1.343 
91 1 -12.874 -11.913 4.704 
92 1 1.551 13.229 5.881 
93 1 -7.462 2.613 -8.282 
94 1 10.147 5.810 -11.044 
95 1 1.106 13.521 2.472 
96 1 -11.257 5.281 -2.959 
97 1 -5.181 6.098 5.490 
98 1 -12.573 8.208 -5.811 
99 1 -6.523 13.570 -1.017 
100 1 3.425 -1.354 -6.672 
101 1 0.386 10.360 7.607 
102 1 -9.868 -6.866 1.659 
103 1 -12.067 -6.484 -9.238 
104 1 -8.036 8.358 -9.156 
105 1 -5.246 -12.135 8.611 
106 1 6.010 -7.108 -10.957 
107 1 -1.910 -2.903 -1.342 
108 1 9.202 11.530 -13.693 
109 1 -6.096 5.432 1.702 
110 1 -0.110 3.618 10.023 
111 1 1.018 -4.045 11.688 
112 1 7.528 12.373 9.756 
113 1 -11.502 4.628 -10.703 
114 1 6.207 6.175 9.897 
115 1 -8.602 -7.814 -10.957 
116 1 2.050 -6.287 -0.791 
117 1 9.883 -3.417 4.623 
118 1 -5.645 -1.888 -3.318 
119 1 9.903 -10.883 -9.289 
120 1 -2.507 -1.935 6.636 
121 1 5.616 5.774 13.359 
122 1 -7.209 4.855 -4.290 
123 1 -2.289 11.471 1.490 
124 1 3.144 4.807 4.337 
125 1 3.449 -5.088 -4.229 
126 1 -9.455 -5.142 6.906 
127 1 -4.007 3.019 8.517 
128 1 12.723 11.802 -4.130 
129 1 -5.521 9.612 13.292 
130 1 9.259 -7.426 -13.106 
131 1 -3.077 -0.566 3.291 
132 1 -9.080 12.357 3.417 
133 1 7.114 -3.994 -8.514 
134 1 13.185 13.360 12.674 
135 1 12.554 -1.832 7.119 
136 1 -2.733 0.441 11.155 
137 1 0.545 3.683 2.997 
138 1 -1.318 11.745 -2.375 
139 1 -5.832 -9.136 -7.426 
140 1 0.952 -13.685 10.376 
141 1 -8.690 -2.737 -6.332 
142 1 -9.097 -0.142 4.970 
143 1 -6.339 -8.185 -4.664 
144 1 -3.697 13.075 6.766 
145 1 -9.895 9.600 8.914 
146 1 -6.511 -5.605 -6.716 
147 1 -11.470 -2.588 -4.808 
148 1 0.145 6.394 5.279 
149 1 -7.205 -2.867 -13.315 
150 1 -5.962 -7.771 8.515 
151 1 4.041 2.124 2.166 
152 1 -9.773 5.538 3.917 
153 1 2.386 -0.588 6.628 
154 1 -2.183 -12.245 -11.193 
155 1 -1.880 7.342 12.792 
156 1 -1.212 5.167 -3.266 
157 1 9.038 7.545 12.341 
158 1 -3.543 -2.278 13.688 
159 1 -13.334 8.825 -10.428 
160 1 -5.215 -5.609 11.711 
161 1 -5.131 -8.894 -12.949 
162 1 5.773 -7.773 6.773 
163 1 -0.016 -6.523 -5.360 
164 1 4.595 10.543 10.123 
165 1 -5.546 10.346 -5.780 
166 1 -5.745 -5.913 -10.077 
167 1 -3.200 4.406 2.821 
168 1 0.643 6.659 0.666 
169 1 -4.540 3.665 -1.068 
170 1 -8.597 8.563 4.312 
171 1 2.253 -1.554 -1.396 
172 1 3.618 10.432 6.424 
173 1 -3.144 8.706 -0.405 
174 1 12.566 -6.303 13.124 
175 1 9.418 -2.476 11.959 
176 1 2.049 1.171 11.070 
177 1 9.958 13.817 -7.333 
178 1 2.184 -0.386 3.351 
179 1 -7.677 -13.261 6.058 
180 1 -3.606 -5.961 -4.644 
181 1 10.856 -12.144 8.864 
182 1 -5.054 -8.583 4.435 
183 1 7.355 2.462 2.572 
184 1 -1.885 9.215 -10.506 
185 1 9.058 -0.518 -0.237 
186 1 -2.669 12.127 -7.502 
187 1 -4.072 13.102 12.546 
188 1 6.887 5.665 4.437 
189 1 8.602 8.743 8.524 
190 1 3.762 -9.883 8.874 
191 1 -2.986 -13.451 3.228 
192 1 -1.958 -3.003 -11.132 
193 1 -7.579 -10.774 -10.249 
194 1 3.457 10.337 -7.016 
195 1 -13.217 6.143 8.925 
196 1 -6.017 10.258 10.204 
197 1 -3.744 3.592 12.828 
198 1 -0.373 1.931 -13.863 
199 1 5.968 -0.526 1.124 
200 1 4.496 -12.357 -4.969 
ITEM: TIMESTEP
7000
ITEM: NUMBER OF ATOMS
200
ITEM: BOX BOUNDS pp pp pp
-13.898096441678897 13.898096441678897
-13.898096441678897 13.898096441678897
-13.898096441678897 13.898096441678897
ITEM: ATOMS id type x y z
1 1 5.762 6.388 1.446 
2 1 0.577 10.254 -0.504 
3 1 2.612 4.244 -11.438 
4 1 -1.333 6.747 7.693 
5 1 -8.902 -4.391 4.087 
6 1 4.516 -13.280 6.947 
7 1 5.764 -2.574 5.197 
8 1 2.394 9.168 11.404 
9 1 4.504 11.568 0.913 
10 1 -8.392 6.983 -0.896 
11 1 -1.040 -9.180 4.089 
12 1 11.882 11.286 9.690 
13 1 -9.839 -6.311 -1.088 
14 1 12.475 -6.281 7.636 
15 1 5.376 3.161 13.336 
16 1 -0.309 10.419 -13.785 
17 1 -4.109 -10.685 0.081 
18 1 0.376 -12.082 -4.097 
19 1 -5.990 2.194 4.054 
20 1 -1.089 0.425 -3.557 
21 1 1.126 -1.068 -11.451 
22 1 -1.396 -9.242 -8.804 
23 1 8.400 9.634 -7.773 
24 1 11.721 10.116 -7.522 
25 1 -9.234 10.514 12.322 
26 1 7.444 13.645 -10.454 
27 1 -11.193 2.560 5.392 
28 1 -11.959 13.461 -6.299 
29 1 -2.227 3.899 -6.536 
30 1 -6.133 -2.232 5.964 
31 1 -9.248 0.318 0.550 
32 1 1.070 10.141 3.276 
33 1 -0.673 0.342 -8.494 
34 1 -10.985 6.279 12.051 
35 1 -1.500 -10.766 9.916 
36 1 -12.461 0.676 12.058 
37 1 4.462 -1.438 -13.394 
38 1 -2.785 -7.541 1.519 
39 1 -8.527 5.660 7.442 
40 1 0.863 5.526 12.456 
41 1 -1.941 -6.869 -1.955 
42 1 12.812 13.391 -8.099 
43 1 -12.374 -2.854 1.410 
44 1 4.630 1.846 -9.191 
45 1 5.429 -8.603 -3.984 
46 1 -7.137 13.426 11.563 
47 1 -9.875 -7.939 8.693 
48 1 2.740 -11.638 3.284 
49 1 3.500 1.571 7.418 
50 1 5.838 10.262 -10.880 
51 1 -1.976 9.143 5.558 
52 1 2.304 5.051 7.541 
53 1 7.204 -10.719 -8.798 
54 1 8.514 12.184 -0.470 
55 1 2.703 -4.359 -12.420 
56 1 -6.218 1.497 11.737 
57 1 6.401 8.940 4.786 
58 1 13.566 -0.479 -7.857 
59 1 2.396 -9.025 -12.339 
60 1 -1.507 1.713 0.379 
61 1 12.256 11.655 4.031 
62 1 -10.668 -2.352 -9.559 
63 1 6.790 12.900 4.927 
64 1 -10.110 -11.340 2.744 
65 1 -6.405 6.230 11.569 
66 1 -8.365 12.909 -3.507 
67 1 10.563 4.450 8.093 
68 1 10.585 3.393 -7.177 
69 1 0.955 -6.933 12.483 
70 1 -4.874 9.367 7.197 
71 1 13.578 0.759 3.012 
72 1 8.658 -10.316 0.406 
73 1 -6.975 -12.449 2.802 
74 1 -9.538 2.122 -11.104 
75 1 0.898 -11.028 0.516 
76 1 10.592 -11.452 12.743 
77 1 -4.355 -4.897 4.466 
78 1 3.129 -8.641 -8.386 
79 1 7.268 -11.648 -13.349 
80 1 -11.445 -1.951 5.570 
81 1 1.059 -4.699 -7.585 
82 1 -5.582 11.547 4.024 
83 1 -5.668 -11.002 -3.713 
84 1 -7.148 -1.007 9.175 
85 1 -12.213 9.736 -12.988 
86 1 -3.070 -8.681 -4.859 
87 1 -5.660 6.215 -12.610 
88 1 2.676 2.225 -4.374 
89 1 -2.148 -1.978 -5.749 
90 1 3.215 3.977 -0.936 
91 1 -13.667 -12.212 4.852 
92 1 1.043 13.278 5.691 
93 1 -7.852 2.226 -7.862 
94 1 10.037 7.807 -10.376 
95 1 1.204 13.698 1.252 
96 1 -11.354 4.855 -2.391 
97 1 -4.490 5.719 6.354 
98 1 -12.577 9.167 -6.161 
99 1 -6.046 -13.846 -0.692 
100 1 3.727 -1.447 -7.358 
101 1 -0.306 11.052 8.119 
102 1 -9.925 -8.173 1.928 
103 1 -11.695 -6.449 -9.154 
104 1 -7.807 9.013 -9.061 
105 1 -5.604 -11.777 8.635 
106 1 5.223 -7.890 -10.774 
107 1 -1.151 -3.672 -1.635 
108 1 8.442 11.628 -13.114 
109 1 -7.200 5.202 2.572 
110 1 -0.158 3.812 9.689 
111 1 0.359 -3.761 11.618 
112 1 7.687 11.402 9.438 
113 1 -11.748 4.963 -10.788 
114 1 5.243 6.082 8.414 
115 1 -8.492 -7.718 -10.479 
116 1 3.077 -5.635 -0.092 
117 1 9.807 -3.968 4.210 
118 1 -5.262 -2.189 -2.791 
119 1 11.034 -11.555 -9.118 
120 1 -1.964 -3.113 6.700 
121 1 5.340 7.095 13.593 
122 1 -7.351 3.924 -3.824 
123 1 -2.464 11.474 1.405 
124 1 3.214 5.272 4.341 
125 1 4.441 -3.759 -4.150 
126 1 -8.788 -5.439 7.087 
127 1 -3.470 2.725 8.597 
128 1 13.293 11.754 -4.961 
129 1 -5.553 9.244 13.592 
130 1 8.729 -8.382 -13.341 
131 1 -3.636 -0.467 2.309 
132 1 -10.263 12.334 3.020 
133 1 5.763 -4.054 -8.054 
134 1 12.975 -13.886 13.503 
135 1 12.831 -1.540 7.254 
136 1 -2.164 0.166 10.936 
137 1 0.958 3.281 2.602 
138 1 -2.162 11.073 -2.758 
139 1 -5.870 -8.899 -8.096 
140 1 1.492 -13.409 10.403 
141 1 -7.696 -1.343 -6.230 
142 1 -8.663 0.273 4.714 
143 1 -5.923 -7.494 -2.913 
144 1 -3.239 -13.866 6.512 
145 1 -10.096 10.026 9.154 
146 1 -6.772 -4.711 -7.061 
147 1 -10.726 -1.866 -4.472 
148 1 0.095 6.324 4.916 
149 1 -7.199 -2.728 -13.685 
150 1 -5.794 -7.921 8.269 
151 1 4.155 2.412 1.839 
152 1 -10.678 5.563 4.311 
153 1 0.630 -0.363 7.133 
154 1 -2.283 -13.038 -10.981 
155 1 -1.954 7.420 12.530 
156 1 -1.588 5.957 -3.683 
157 1 8.647 8.304 12.048 
158 1 -3.717 -1.476 -13.783 
159 1 -13.346 7.962 -9.567 
160 1 -4.958 -5.597 12.125 
161 1 -4.987 -10.169 -12.469 
162 1 6.635 -8.357 7.603 
163 1 0.551 -6.275 -4.713 
164 1 4.730 10.040 9.486 
165 1 -5.806 11.166 -4.587 
166 1 -5.790 -6.093 -10.425 
167 1 -2.754 4.096 4.029 
168 1 1.307 6.847 0.258 
169 1 -5.056 3.669 -0.501 
170 1 -7.673 8.674 3.800 
171 1 1.874 -1.776 -1.791 
172 1 3.071 9.653 6.534 
173 1 -2.194 8.300 -0.575 
174 1 -13.881 -5.197 12.412 
175 1 9.666 -3.248 11.586 
176 1 2.717 1.729 11.539 
177 1 9.554 12.954 -7.045 
178 1 2.412 -0.856 2.791 
179 1 -8.844 -12.653 5.920 
180 1 -3.735 -5.289 -4.260 
181 1 10.370 -12.190 8.650 
182 1 -5.175 -8.588 3.883 
183 1 7.948 2.442 3.059 
184 1 -2.131 8.793 -10.556 
185 1 9.494 0.228 0.431 
186 1 -1.132 12.314 -7.221 
187 1 -4.010 12.923 13.338 
188 1 6.632 4.937 5.595 
189 1 9.555 8.838 8.592 
190 1 3.350 -10.167 7.614 
191 1 -3.614 -13.851 2.955 
192 1 -2.434 -2.632 -9.789 
193 1 -7.755 -11.266 -11.532 
194 1 2.281 9.980 -7.268 
195 1 -13.225 6.234 9.157 
196 1 -5.777 10.364 10.395 
197 1 -4.371 3.833 13.233 
198 1 -0.906 1.963 -13.488 
199 1 6.725 -0.926 1.622 
200 1 4.849 -12.236 -5.918 
ITEM: TIMESTEP
8000
ITEM: NUMBER OF ATOMS
200
ITEM: BOX BOUNDS pp pp pp
-13.898096441678897 13.898096441678897
-13.898096441678897 13.898096441678897
-13.898096441678897 13.898096441678897
ITEM: ATOMS id type x y z
1 1 7.529 7.421 2.044 
2 1 0.665 9.575 -0.919 
3 1 2.770 4.919 -11.239 
4 1 -1.142 6.288 7.884 
5 1 -9.555 -4.074 3.368 
6 1 4.522 -13.378 6.377 
7 1 4.930 -3.416 5.275 
8 1 2.905 9.521 12.628 
9 1 5.382 11.665 0.861 
10 1 -8.473 8.638 -1.042 
11 1 -0.806 -9.565 4.332 
12 1 11.991 12.315 9.524 
13 1 -9.189 -6.703 -1.615 
14 1 13.779 -5.379 7.499 
15 1 5.471 3.460 12.619 
16 1 0.788 9.346 -12.359 
17 1 -5.033 -10.912 0.531 
18 1 1.502 -12.648 -4.499 
19 1 -6.097 2.420 4.998 
20 1 -2.042 0.252 -3.507 
21 1 2.099 -0.058 -11.557 
22 1 -1.426 -8.662 -8.954 
23 1 8.532 10.020 -8.386 
24 1 12.015 9.321 -7.461 
25 1 -9.214 12.130 13.676 
26 1 7.748 13.565 -10.093 
27 1 -11.731 2.397 5.766 
28 1 -10.979 13.784 -6.283 
29 1 -2.780 3.423 -6.343 
30 1 -7.020 -2.168 5.906 
31 1 -9.257 0.043 -0.561 
32 1 1.556 9.503 2.948 
33 1 -1.073 1.317 -8.402 
34 1 -9.679 6.014 12.561 
35 1 -0.950 -9.089 10.073 
36 1 -12.150 1.536 10.608 
37 1 4.775 -0.128 12.894 
38 1 -2.671 -6.667 2.179 
39 1 -8.121 5.987 8.289 
40 1 0.929 5.572 12.277 
41 1 -1.717 -7.249 -0.887 
42 1 13.373 13.472 -7.367 
43 1 -12.532 -3.324 1.053 
44 1 4.541 2.791 -9.060 
45 1 7.120 -8.296 -5.625 
46 1 -7.412 13.809 11.119 
47 1 -9.531 -8.750 9.034 
48 1 3.101 -11.501 3.591 
49 1 4.454 2.078 7.505 
50 1 4.906 9.513 -11.678 
51 1 -1.662 10.263 4.772 
52 1 2.207 5.752 7.443 
53 1 6.933 -10.512 -8.475 
54 1 9.084 12.220 -0.600 
55 1 3.204 -3.592 -13.545 
56 1 -6.371 1.278 12.015 
57 1 5.567 8.657 4.929 
58 1 12.475 -0.885 -8.648 
59 1 2.184 -9.576 -12.141 
60 1 -1.366 1.961 0.465 
61 1 11.952 11.035 5.346 
62 1 -10.107 -1.879 -9.509 
63 1 7.592 11.979 4.597 
64 1 -10.388 -11.686 2.976 
65 1 -6.386 6.406 11.596 
66 1 -8.790 13.255 -3.008 
67 1 10.795 4.003 7.175 
68 1 10.370 3.101 -7.512 
69 1 1.385 -6.600 12.417 
70 1 -5.163 9.088 7.201 
71 1 -13.295 0.953 2.250 
72 1 9.052 -11.186 0.935 
73 1 -7.034 -12.673 2.763 
74 1 -9.732 2.680 -10.619 
75 1 0.849 -10.922 -0.336 
76 1 9.325 -10.792 12.446 
77 1 -4.051 -4.262 4.257 
78 1 2.083 -8.530 -8.538 
79 1 6.581 -10.947 -12.452 
80 1 -10.470 -1.201 7.043 
81 1 2.081 -4.015 -7.838 
82 1 -5.703 12.014 4.091 
83 1 -4.466 -11.702 -3.106 
84 1 -6.719 -0.413 8.985 
85 1 -12.988 9.843 -13.227 
86 1 -2.371 -9.028 -5.359 
87 1 -6.049 5.435 -12.166 
88 1 1.757 3.006 -4.587 
89 1 -1.275 -2.619 -5.835 
90 1 2.876 3.865 -1.239 
91 1 -12.901 -12.529 5.301 
92 1 1.283 13.333 5.370 
93 1 -8.165 1.618 -7.912 
94 1 11.117 6.874 -10.337 
95 1 1.625 13.437 0.876 
96 1 -11.731 4.963 -2.040 
97 1 -4.920 5.813 5.847 
98 1 -12.096 8.331 -6.318 
99 1 -5.663 13.693 -1.171 
100 1 3.876 -1.048 -7.183 
101 1 -1.139 11.047 8.815 
102 1 -9.885 -8.026 1.938 
103 1 -11.240 -5.722 -8.084 
104 1 -7.136 9.219 -7.284 
105 1 -5.258 -11.231 7.962 
106 1 5.697 -7.352 -10.377 
107 1 -1.252 -3.905 -2.752 
108 1 8.217 12.209 -12.826 
109 1 -7.720 5.082 2.366 
110 1 -0.239 2.991 8.844 
111 1 -1.408 -3.398 11.567 
112 1 7.562 12.502 11.202 
113 1 -12.717 4.245 -10.310 
114 1 5.296 6.224 9.208 
115 1 -8.259 -7.678 -9.205 
116 1 2.830 -6.116 -0.041 
117 1 9.566 -3.084 4.582 
118 1 -5.016 -2.931 -2.386 
119 1 10.914 -10.709 -9.298 
120 1 -3.571 -2.522 7.209 
121 1 6.816 6.950 12.893 
122 1 -6.989 4.912 -3.695 
123 1 -2.982 11.548 1.530 
124 1 3.492 4.747 4.248 
125 1 4.170 -3.674 -3.799 
126 1 -9.235 -5.445 7.358 
127 1 -4.540 2.652 7.874 
128 1 13.458 11.065 -3.948 
129 1 -5.191 8.928 -13.734 
130 1 7.687 -7.555 13.731 
131 1 -4.194 0.361 1.881 
132 1 -9.020 12.271 2.621 
133 1 5.415 -4.518 -7.891 
134 1 12.357 12.932 -13.799 
135 1 12.730 -1.291 7.051 
136 1 -2.111 0.456 10.610 
137 1 0.270 3.557 3.824 
138 1 -2.274 11.729 -2.092 
139 1 -5.543 -9.600 -8.147 
140 1 1.519 12.865 9.887 
141 1 -6.133 -0.822 -6.063 
142 1 -8.962 0.467 4.732 
143 1 -6.408 -7.552 -3.587 
144 1 -3.479 13.310 8.003 
145 1 -9.402 10.307 8.994 
146 1 -6.062 -4.614 -6.688 
147 1 -10.293 -2.579 -3.698 
148 1 -0.513 6.703 4.643 
149 1 -6.937 -2.361 -13.036 
150 1 -5.387 -7.563 8.135 
151 1 4.584 1.705 1.853 
152 1 -11.285 5.326 3.344 
153 1 0.525 -0.213 8.632 
154 1 -2.076 -12.497 -11.081 
155 1 -1.900 7.414 13.071 
156 1 -1.261 5.058 -3.154 
157 1 9.288 8.910 13.166 
158 1 -3.486 -2.105 13.656 
159 1 -13.133 7.865 -9.371 
160 1 -5.526 -5.430 12.939 
161 1 -5.478 -9.692 -13.365 
162 1 6.488 -8.699 7.523 
163 1 0.353 -6.352 -4.461 
164 1 4.480 9.782 9.408 
165 1 -5.680 10.667 -4.095 
166 1 -5.505 -6.094 -9.935 
167 1 -2.646 4.195 3.814 
168 1 1.987 6.369 1.154 
169 1 -4.971 4.984 -0.529 
170 1 -7.538 8.200 3.462 
171 1 1.117 -1.153 -2.365 
172 1 2.330 9.189 6.410 
173 1 -2.948 8.430 0.136 
174 1 -13.674 -5.124 12.256 
175 1 10.697 -3.025 11.393 
176 1 2.084 1.797 11.389 
177 1 9.685 13.395 -7.311 
178 1 1.614 -0.557 3.058 
179 1 -9.670 -13.880 6.090 
180 1 -3.754 -5.817 -4.510 
181 1 10.314 -12.345 8.249 
182 1 -4.713 -9.518 3.783 
183 1 7.963 2.249 3.851 
184 1 -2.473 8.858 -10.736 
185 1 10.494 0.947 0.047 
186 1 -1.218 12.482 -8.559 
187 1 -3.644 12.276 13.582 
188 1 6.613 4.962 5.958 
189 1 10.011 8.904 7.799 
190 1 3.572 -10.419 7.328 
191 1 -3.209 -13.075 3.215 
192 1 -2.349 -2.616 -10.391 
193 1 -7.619 -11.406 -10.934 
194 1 1.974 10.050 -7.335 
195 1 -12.752 5.474 8.246 
196 1 -5.397 10.988 10.080 
197 1 -4.046 3.342 13.685 
198 1 -1.056 0.966 -12.040 
199 1 6.691 -1.552 2.357 
200 1 4.941 -12.211 -5.691 
ITEM: TIMESTEP
9000
ITEM: NUMBER OF ATOMS
200
ITEM: BOX BOUNDS pp pp pp
-13.898096441678897 13.898096441678897
-13.898096441678897 13.898096441678897
-13.898096441678897 13.898096441678897
ITEM: ATOMS id type x y z
1 1 7.208 8.013 1.892 
2 1 0.812 9.967 -1.800 
3 1 2.431 4.848 -11.472 
4 1 -1.339 6.705 8.377 
5 1 -9.141 -3.361 3.232 
6 1 4.391 -13.885 6.593 
7 1 5.230 -2.160 5.435 
8 1 3.437 10.101 13.323 
9 1 5.144 11.659 1.511 
10 1 -9.801 9.708 -1.075 
11 1 -1.290 -9.491 4.273 
12 1 11.331 12.237 9.534 
13 1 -8.815 -6.974 -1.817 
14 1 13.877 -5.787 6.797 
15 1 5.725 3.477 13.688 
16 1 0.668 9.949 -12.289 
17 1 -3.915 -11.182 0.344 
18 1 1.497 -13.013 -4.214 
19 1 -7.163 3.057 5.228 
20 1 -2.065 0.009 -2.605 
21 1 2.129 0.570 -11.473 
22 1 -1.494 -9.087 -9.098 
23 1 7.983 9.604 -9.453 
24 1 12.917 9.666 -8.305 
25 1 -9.326 11.175 -13.769 
26 1 7.073 13.527 -9.964 
27 1 -12.217 1.475 5.109 
28 1 -10.791 13.332 -6.685 
29 1 -2.866 3.546 -6.177 
30 1 -7.119 -2.167 5.643 
31 1 -9.047 -0.119 -1.106 
32 1 1.942 10.228 2.683 
33 1 0.137 2.288 -8.601 
34 1 -10.208 5.233 12.287 
35 1 -0.899 -9.817 10.042 
36 1 -12.041 1.307 9.439 
37 1 5.344 -0.235 13.271 
38 1 -3.091 -5.847 1.558 
39 1 -7.636 5.777 7.652 
40 1 1.823 6.564 11.779 
41 1 -1.764 -8.019 -0.866 
42 1 -13.634 -13.841 -7.592 
43 1 -11.575 -3.248 0.517 
44 1 5.250 2.978 -8.582 
45 1 7.157 -7.842 -6.123 
46 1 -7.043 13.760 10.591 
47 1 -9.332 -8.313 8.931 
48 1 2.862 -11.803 3.588 
49 1 5.176 2.138 7.052 
50 1 4.434 7.440 -10.708 
51 1 -0.838 10.218 4.546 
52 1 2.227 5.475 7.423 
53 1 8.078 -9.824 -8.556 
54 1 8.379 12.425 -1.201 
55 1 2.706 -2.320 -13.753 
56 1 -6.151 1.272 11.675 
57 1 6.599 9.325 5.247 
58 1 10.831 -1.090 -8.808 
59 1 1.580 -9.400 -12.906 
60 1 -0.179 2.070 0.396 
61 1 11.909 11.673 5.226 
62 1 -9.066 -2.995 -9.318 
63 1 7.873 12.438 4.387 
64 1 -10.554 -11.474 2.797 
65 1 -6.822 7.351 10.596 
66 1 -8.444 13.818 -3.943 
67 1 10.121 4.513 7.993 
68 1 8.964 3.602 -5.564 
69 1 2.597 -5.316 11.570 
70 1 -5.429 9.476 6.932 
71 1 -13.508 1.954 1.449 
72 1 9.104 -10.732 1.199 
73 1 -7.262 -12.080 2.760 
74 1 -10.889 1.924 -10.340 
75 1 1.029 -10.270 0.088 
76 1 9.509 -10.829 12.428 
77 1 -3.454 -4.357 4.334 
78 1 2.468 -8.639 -7.937 
79 1 6.582 -10.742 -11.990 
80 1 -11.660 -1.541 7.123 
81 1 2.249 -3.348 -8.218 
82 1 -4.706 11.823 4.109 
83 1 -4.059 -11.831 -3.970 
84 1 -7.251 -1.675 9.504 
85 1 -12.844 9.930 -12.750 
86 1 -1.833 -8.676 -4.437 
87 1 -5.157 5.455 -12.562 
88 1 0.741 2.870 -5.024 
89 1 -1.111 -2.072 -6.028 
90 1 2.336 4.094 -1.226 
91 1 -12.723 -13.294 5.893 
92 1 1.079 -13.384 6.806 
93 1 -8.649 0.743 -8.125 
94 1 11.296 6.432 -11.711 
95 1 1.936 13.266 0.498 
96 1 -12.497 5.015 -2.057 
97 1 -4.192 5.727 6.722 
98 1 -11.044 8.979 -4.815 
99 1 -6.326 13.064 -0.724 
100 1 4.174 -0.259 -6.273 
101 1 -0.705 10.767 8.199 
102 1 -8.710 -8.246 3.515 
103 1 -11.564 -5.588 -6.956 
104 1 -5.255 9.054 -7.831 
105 1 -4.081 -11.382 8.901 
106 1 4.764 -6.965 -10.386 
107 1 -1.047 -3.777 -2.651 
108 1 7.837 12.474 13.829 
109 1 -7.186 4.971 2.313 
110 1 -0.507 3.212 9.561 
111 1 -1.462 -3.699 11.653 
112 1 6.189 12.405 10.823 
113 1 -13.440 4.573 -10.025 
114 1 5.199 7.111 9.596 
115 1 -8.575 -6.624 -9.386 
116 1 2.707 -5.434 0.429 
117 1 9.700 -3.019 4.233 
118 1 -4.381 -2.553 -2.659 
119 1 11.300 -12.005 -8.155 
120 1 -2.979 -2.696 7.204 
121 1 6.506 6.823 12.987 
122 1 -5.939 4.190 -5.134 
123 1 -2.713 12.585 1.647 
124 1 2.535 5.685 4.261 
125 1 3.898 -3.145 -3.832 
126 1 -8.965 -5.083 7.091 
127 1 -4.600 1.873 8.180 
128 1 -13.818 11.037 -5.227 
129 1 -3.993 9.452 -13.544 
130 1 7.670 -8.234 -13.521 
131 1 -4.474 0.496 0.795 
132 1 -10.004 12.702 3.235 
133 1 6.504 -4.769 -6.606 
134 1 12.223 -13.498 13.692 
135 1 11.507 -1.056 7.161 
136 1 -1.404 -0.561 10.890 
137 1 0.288 3.309 3.767 
138 1 -1.976 12.136 -2.147 
139 1 -4.713 -9.924 -8.864 
140 1 1.907 -13.742 10.178 
141 1 -4.673 -0.770 -6.477 
142 1 -9.076 0.269 4.310 
143 1 -6.547 -8.814 -4.149 
144 1 -3.024 13.355 7.828 
145 1 -10.423 10.146 7.070 
146 1 -6.838 -3.734 -7.287 
147 1 -10.749 -2.048 -3.424 
148 1 -0.893 6.782 4.196 
149 1 -6.184 -2.755 -12.616 
150 1 -5.802 -7.001 8.012 
151 1 4.254 2.372 2.046 
152 1 -12.588 7.212 2.775 
153 1 0.894 -1.485 8.671 
154 1 -1.326 -12.314 -11.865 
155 1 -1.854 6.114 12.349 
156 1 -0.512 5.328 -2.870 
157 1 8.749 9.648 12.076 
158 1 -3.984 -1.366 13.362 
159 1 -11.876 8.156 -9.314 
160 1 -5.285 -5.874 12.788 
161 1 -4.155 -10.717 -13.432 
162 1 6.319 -8.602 7.575 
163 1 1.060 -6.308 -4.216 
164 1 3.457 10.248 9.497 
165 1 -5.633 11.725 -3.984 
166 1 -5.034 -5.448 -9.698 
167 1 -3.418 4.133 3.266 
168 1 0.797 7.086 1.015 
169 1 -3.932 4.938 -0.500 
170 1 -7.469 8.045 3.050 
171 1 1.743 -0.825 -2.342 
172 1 1.891 8.741 5.975 
173 1 -2.693 8.956 -0.819 
174 1 13.404 -5.568 12.815 
175 1 11.119 -2.313 10.954 
176 1 1.718 1.386 11.868 
177 1 8.885 12.651 -7.263 
178 1 0.639 -1.641 3.708 
179 1 -9.118 13.470 6.530 
180 1 -3.369 -5.546 -4.757 
181 1 10.464 -12.307 8.617 
182 1 -5.589 -9.159 3.735 
183 1 8.888 2.141 4.098 
184 1 -2.648 8.939 -10.121 
185 1 10.614 0.017 -0.293 
186 1 -1.166 12.150 -9.525 
187 1 -3.845 12.787 13.062 
188 1 6.080 5.316 5.753 
189 1 10.093 9.481 7.753 
190 1 3.134 -10.189 7.682 
191 1 -3.379 -12.251 4.008 
192 1 -2.943 -1.907 -10.668 
193 1 -7.271 -12.466 -11.103 
194 1 1.402 9.722 -6.835 
195 1 -11.829 4.253 7.460 
196 1 -6.240 10.687 10.884 
197 1 -4.261 2.314 -13.804 
198 1 -1.693 1.456 -12.086 
199 1 6.106 -1.654 1.713 
200 1 4.800 -12.469 -6.639 
ITEM: TIMESTEP
10000
ITEM: NUMBER OF ATOMS
200
ITEM: BOX BOUNDS pp pp pp
-13.898096441678897 13.898096441678897
-13.898096441678897 13.898096441678897
-13.898096441678897 13.898096441678897
ITEM: ATOMS id type x y z
1 1 6.940 6.711 1.204 
2 1 0.749 10.114 -2.082 
3 1 2.210 3.913 -11.919 
4 1 -1.251 6.442 8.186 
5 1 -9.585 -4.312 3.567 
6 1 6.026 -13.092 5.510 
7 1 5.590 -2.588 5.440 
8 1 4.195 9.694 13.633 
9 1 5.380 10.587 0.463 
10 1 -9.812 9.723 -2.666 
11 1 -0.629 -9.356 2.983 
12 1 10.153 11.917 9.686 
13 1 -9.305 -6.890 -2.164 
14 1 -13.676 -6.501 7.525 
15 1 5.584 2.837 -12.768 
16 1 -0.386 10.163 -12.279 
17 1 -3.502 -10.572 -0.040 
18 1 0.400 -13.831 -4.480 
19 1 -6.614 2.782 5.494 
20 1 -2.088 0.751 -3.113 
21 1 2.173 -0.284 -10.834 
22 1 -0.580 -8.373 -8.779 
23 1 8.918 9.891 -10.423 
24 1 11.984 10.753 -7.871 
25 1 -10.157 12.199 -12.558 
26 1 7.187 -13.879 -10.378 
27 1 -13.430 0.452 3.927 
28 1 -10.717 11.951 -6.234 
29 1 -3.459 4.888 -6.910 
30 1 -7.144 -2.532 5.616 
31 1 -9.149 0.079 -0.672 
32 1 2.260 9.836 2.873 
33 1 -0.241 2.548 -8.740 
34 1 -9.663 5.042 12.282 
35 1 -1.285 -9.487 9.526 
36 1 -11.849 0.582 10.254 
37 1 5.831 -0.376 12.764 
38 1 -4.324 -6.437 0.865 
39 1 -8.314 5.809 7.866 
40 1 1.696 6.404 11.905 
41 1 -1.618 -8.028 -0.909 
42 1 -13.503 -13.059 -6.716 
43 1 -11.825 -2.529 1.448 
44 1 3.617 2.436 -8.007 
45 1 7.677 -9.363 -4.614 
46 1 -6.632 13.888 10.040 
47 1 -9.523 -8.520 9.154 
48 1 2.404 -12.652 3.670 
49 1 4.411 1.672 7.344 
50 1 3.710 7.831 -10.064 
51 1 -1.664 10.275 5.186 
52 1 2.284 5.437 8.591 
53 1 7.664 -10.641 -8.012 
54 1 8.998 -13.872 -1.944 
55 1 2.785 -2.475 13.873 
56 1 -6.956 2.446 11.786 
57 1 6.441 8.366 4.568 
58 1 11.693 -1.086 -8.746 
59 1 1.819 -9.579 -12.208 
60 1 0.732 0.809 0.475 
61 1 12.081 11.620 5.204 
62 1 -9.058 -2.795 -9.013 
63 1 8.619 12.102 2.823 
64 1 -10.357 -10.850 3.001 
65 1 -6.772 7.199 10.611 
66 1 -7.691 -13.685 -3.685 
67 1 11.334 3.917 9.044 
68 1 8.508 3.640 -5.639 
69 1 2.707 -4.216 10.686 
70 1 -5.590 9.208 6.940 
71 1 -12.850 2.753 0.778 
72 1 10.114 -11.223 0.770 
73 1 -7.310 -11.786 1.864 
74 1 -11.178 1.177 -10.953 
75 1 0.149 -11.154 -0.159 
76 1 9.310 -11.842 12.666 
77 1 -3.936 -4.230 3.365 
78 1 3.497 -8.838 -7.535 
79 1 5.755 -11.404 -12.779 
80 1 -10.931 -0.611 6.612 
81 1 2.175 -2.271 -8.092 
82 1 -5.157 11.846 4.761 
83 1 -3.703 -12.637 -3.956 
84 1 -6.870 -0.724 9.322 
85 1 -12.791 10.240 12.874 
86 1 -1.851 -9.704 -4.446 
87 1 -5.173 5.220 -12.790 
88 1 0.956 3.214 -5.794 
89 1 -1.187 -3.113 -6.326 
90 1 2.127 3.714 -2.161 
91 1 -13.826 -12.925 5.888 
92 1 1.508 13.499 6.685 
93 1 -7.702 0.646 -8.016 
94 1 12.571 7.208 -13.016 
95 1 1.373 13.514 0.504 
96 1 -12.239 5.498 -1.757 
97 1 -4.585 5.433 6.832 
98 1 -10.948 8.436 -5.762 
99 1 -5.428 13.337 -0.815 
100 1 4.419 0.223 -5.539 
101 1 -0.887 10.633 8.662 
102 1 -7.618 -7.432 2.541 
103 1 -11.878 -6.105 -6.134 
104 1 -5.581 6.884 -9.479 
105 1 -4.433 -11.393 8.497 
106 1 5.542 -7.312 -9.763 
107 1 -0.441 -4.061 -2.626 
108 1 8.150 12.417 -13.280 
109 1 -7.437 5.468 3.075 
110 1 -0.826 2.938 10.824 
111 1 -0.973 -4.542 10.732 
112 1 5.985 12.446 10.873 
113 1 -13.115 5.052 -11.100 
114 1 5.697 7.105 9.550 
115 1 -8.101 -7.793 -8.805 
116 1 2.864 -4.186 1.257 
117 1 10.026 -2.048 2.328 
118 1 -4.047 -2.749 -2.742 
119 1 11.066 -12.792 -8.167 
120 1 -2.742 -2.863 7.146 
121 1 6.726 6.845 12.847 
122 1 -6.402 4.307 -4.337 
123 1 -2.223 11.773 1.774 
124 1 2.545 5.537 3.920 
125 1 3.925 -5.079 -3.898 
126 1 -10.006 -4.965 7.058 
127 1 -4.935 2.152 8.455 
128 1 -13.765 11.161 -4.778 
129 1 -4.323 8.550 -13.309 
130 1 8.014 -8.552 13.444 
131 1 -4.309 0.148 1.014 
132 1 -9.899 12.326 4.081 
133 1 6.517 -5.268 -6.138 
134 1 -13.294 -13.633 -13.874 
135 1 11.293 -1.672 7.735 
136 1 -0.700 -0.647 11.884 
137 1 -0.775 2.524 4.294 
138 1 -1.771 11.970 -2.304 
139 1 -5.063 -9.544 -9.946 
140 1 1.447 -13.648 10.184 
141 1 -4.924 -0.666 -7.146 
142 1 -9.692 0.497 3.343 
143 1 -6.008 -9.581 -3.882 
144 1 -3.208 13.113 7.925 
145 1 -10.423 10.290 7.139 
146 1 -6.429 -4.326 -7.413 
147 1 -10.446 -2.357 -2.975 
148 1 -0.953 7.094 3.786 
149 1 -7.057 -1.202 -12.568 
150 1 -5.098 -7.889 7.972 
151 1 4.231 1.732 2.153 
152 1 -13.310 7.693 1.622 
153 1 1.830 -2.271 7.460 
154 1 -1.504 -12.921 -11.645 
155 1 -2.131 5.993 12.632 
156 1 -0.688 5.420 -3.123 
157 1 8.743 9.493 11.704 
158 1 -3.706 -0.970 13.744 
159 1 -12.552 7.785 -9.332 
160 1 -5.363 -5.261 10.656 
161 1 -4.094 -11.349 -13.702 
162 1 6.132 -8.665 7.605 
163 1 0.674 -7.289 -4.492 
164 1 2.158 10.076 10.445 
165 1 -5.103 11.674 -4.030 
166 1 -5.412 -5.344 -10.375 
167 1 -3.823 5.088 3.572 
168 1 1.098 6.899 0.892 
169 1 -2.935 3.441 -0.647 
170 1 -8.559 8.753 2.537 
171 1 1.941 -1.530 -2.147 
172 1 1.686 9.176 6.507 
173 1 -2.263 8.097 -0.158 
174 1 12.754 -5.990 -12.677 
175 1 10.425 -2.058 11.492 
176 1 1.410 1.422 13.098 
177 1 8.640 12.886 -7.416 
178 1 1.764 -1.077 4.231 
179 1 -7.825 12.815 6.847 
180 1 -3.953 -6.020 -5.006 
181 1 11.851 -12.206 9.104 
182 1 -4.701 -9.593 4.059 
183 1 10.180 2.894 2.891 
184 1 -3.089 9.456 -10.163 
185 1 10.720 -0.228 -0.673 
186 1 -1.206 12.219 -9.594 
187 1 -3.407 12.044 12.655 
188 1 5.095 4.994 6.901 
189 1 10.095 9.066 7.923 
190 1 2.489 -10.544 6.965 
191 1 -3.421 -12.837 3.905 
192 1 -3.814 -1.824 -10.666 
193 1 -6.830 -13.298 -11.310 
194 1 1.542 10.420 -6.811 
195 1 -12.258 5.635 6.309 
196 1 -7.223 10.754 11.956 
197 1 -4.519 2.339 -13.869 
198 1 -1.759 0.749 -11.672 
199 1 5.763 -1.419 1.211 
200 1 4.115 -12.470 -7.291 
ITEM: TIMESTEP
11000
ITEM: NUMBER OF ATOMS
200
ITEM: BOX BOUNDS pp pp pp
-13.898096441678897 13.898096441678897
-13.898096441678897 13.898096441678897
-13.898096441678897 13.898096441678897
ITEM: ATOMS id type x y z
1 1 7.378 6.187 0.522 
2 1 1.104 10.043 -1.394 
3 1 2.936 4.377 -11.740 
4 1 -1.974 7.128 8.834 
5 1 -10.555 -4.984 3.719 
6 1 7.278 -12.242 4.586 
7 1 4.008 -3.422 5.613 
8 1 4.522 10.268 -13.429 
9 1 6.426 10.643 -0.004 
10 1 -10.085 10.590 -2.610 
11 1 -1.104 -8.452 2.786 
12 1 10.487 12.973 9.377 
13 1 -9.709 -7.793 -1.040 
14 1 -13.204 -6.872 8.689 
15 1 6.470 3.102 -12.628 
16 1 -0.519 9.534 -12.614 
17 1 -3.932 -10.723 -0.080 
18 1 0.737 -13.584 -5.141 
19 1 -6.737 2.205 5.335 
20 1 -2.208 1.311 -2.752 
21 1 2.892 0.750 -11.641 
22 1 -0.594 -7.903 -8.920 
23 1 8.783 10.156 -9.557 
24 1 11.788 10.410 -7.979 
25 1 -10.509 12.979 -12.336 
26 1 7.194 13.676 -9.936 
27 1 13.354 -0.067 4.729 
28 1 -10.904 12.502 -5.789 
29 1 -3.416 5.004 -6.627 
30 1 -6.981 -2.825 5.251 
31 1 -8.654 -0.736 -0.525 
32 1 3.608 10.009 2.110 
33 1 0.833 3.069 -9.015 
34 1 -10.033 4.725 12.638 
35 1 -1.141 -9.460 9.608 
36 1 -12.976 -0.210 10.072 
37 1 5.623 -0.157 12.680 
38 1 -3.850 -7.221 1.302 
39 1 -9.305 4.506 9.130 
40 1 1.554 6.064 12.206 
41 1 -1.990 -7.932 -1.378 
42 1 13.561 -13.803 -5.884 
43 1 -12.069 -1.678 1.864 
44 1 3.842 2.166 -7.542 
45 1 8.870 -8.272 -4.545 
46 1 -6.154 13.216 9.676 
47 1 -8.438 -8.571 9.088 
48 1 2.067 -12.180 3.107 
49 1 3.228 1.113 7.276 
50 1 2.093 9.105 -9.296 
51 1 -2.172 10.184 5.549 
52 1 1.959 4.312 8.476 
53 1 7.100 -10.804 -7.907 
54 1 7.960 -13.871 -2.237 
55 1 2.781 -4.628 -13.676 
56 1 -6.887 2.365 10.344 
57 1 5.360 8.767 4.732 
58 1 10.624 0.304 -9.951 
59 1 1.044 -10.040 -12.906 
60 1 -0.316 2.044 0.479 
61 1 11.762 11.003 6.204 
62 1 -9.288 -3.590 -9.414 
63 1 7.722 13.242 2.335 
64 1 -10.589 -11.007 2.822 
65 1 -6.271 7.489 9.876 
66 1 -8.080 -13.710 -3.969 
67 1 11.912 4.629 8.924 
68 1 8.013 2.952 -5.148 
69 1 3.317 -5.120 10.104 
70 1 -6.289 8.629 6.452 
71 1 -12.106 3.617 1.416 
72 1 9.326 -9.508 1.154 
73 1 -7.017 -13.096 2.227 
74 1 -11.482 1.200 -10.906 
75 1 0.409 -11.235 -0.377 
76 1 8.770 -11.996 13.467 
77 1 -4.295 -3.874 3.490 
78 1 3.219 -8.207 -7.458 
79 1 5.201 -12.088 -12.465 
80 1 -11.098 -1.423 6.474 
81 1 0.760 -2.494 -8.389 
82 1 -5.684 12.025 3.928 
83 1 -3.343 -13.302 -4.340 
84 1 -6.632 -1.165 9.318 
85 1 -12.940 9.629 13.310 
86 1 -1.570 -10.137 -4.134 
87 1 -6.055 5.537 -13.046 
88 1 1.365 3.738 -5.661 
89 1 -1.156 -3.643 -6.053 
90 1 2.215 3.358 -2.044 
91 1 -12.994 -13.863 5.687 
92 1 1.776 13.837 6.031 
93 1 -7.725 1.092 -8.789 
94 1 12.040 7.332 -13.886 
95 1 2.614 13.603 -0.280 
96 1 -12.192 5.311 -1.714 
97 1 -4.852 5.382 7.509 
98 1 -10.304 8.159 -6.218 
99 1 -5.830 12.640 -0.250 
100 1 5.525 -0.156 -4.284 
101 1 -0.241 10.983 9.002 
102 1 -7.556 -6.395 2.954 
103 1 -12.486 -6.396 -7.088 
104 1 -7.056 8.004 -8.522 
105 1 -3.946 -11.681 9.117 
106 1 5.908 -6.976 -9.608 
107 1 -1.197 -3.976 -2.170 
108 1 9.553 11.885 -12.766 
109 1 -6.966 5.405 3.147 
110 1 -1.823 2.624 10.283 
111 1 -0.551 -4.958 10.653 
112 1 6.753 11.258 9.959 
113 1 -13.021 5.384 -12.089 
114 1 5.825 7.449 11.097 
115 1 -7.179 -9.762 -8.651 
116 1 1.851 -5.103 2.544 
117 1 9.847 -1.755 3.128 
118 1 -3.823 -2.385 -3.605 
119 1 10.676 -13.063 -8.756 
120 1 -2.368 -1.821 7.496 
121 1 8.035 6.426 13.665 
122 1 -6.756 5.834 -5.145 
123 1 -2.037 11.674 1.505 
124 1 2.464 5.491 4.209 
125 1 4.015 -5.286 -4.447 
126 1 -10.519 -4.851 6.888 
127 1 -4.454 1.449 7.854 
128 1 -13.577 10.835 -4.994 
129 1 -4.942 9.110 -13.360 
130 1 7.415 -9.097 13.051 
131 1 -3.659 -0.910 1.164 
132 1 -10.869 13.660 2.800 
133 1 7.275 -5.555 -6.160 
134 1 -12.947 -12.521 13.279 
135 1 11.770 -0.418 7.512 
136 1 -0.537 -1.180 11.498 
137 1 -1.354 3.542 3.800 
138 1 -2.236 11.449 -2.080 
139 1 -4.026 -9.511 -10.251 
140 1 1.103 -13.884 10.029 
141 1 -4.260 -0.597 -6.330 
142 1 -10.470 1.124 2.807 
143 1 -5.717 -9.018 -4.095 
144 1 -4.010 12.740 6.917 
145 1 -10.612 11.303 7.842 
146 1 -6.868 -4.799 -5.706 
147 1 -9.942 -2.978 -3.375 
148 1 -0.392 7.359 2.611 
149 1 -7.408 -2.066 -11.939 
150 1 -4.243 -7.873 8.227 
151 1 3.070 2.607 2.006 
152 1 -12.524 8.375 3.431 
153 1 0.875 -1.638 8.704 
154 1 -2.399 -12.859 -11.398 
155 1 -3.514 5.525 12.188 
156 1 -0.563 4.947 -2.559 
157 1 9.495 9.240 11.848 
158 1 -3.587 -1.123 -13.483 
159 1 -13.271 8.627 -10.484 
160 1 -4.496 -4.437 10.417 
161 1 -2.614 -10.920 13.648 
162 1 5.993 -8.514 8.554 
163 1 0.544 -7.612 -4.715 
164 1 1.727 10.098 11.536 
165 1 -5.205 11.579 -5.443 
166 1 -4.620 -5.151 -11.030 
167 1 -4.048 5.466 4.091 
168 1 2.010 6.207 0.324 
169 1 -3.198 4.447 -0.744 
170 1 -8.657 8.603 3.000 
171 1 2.463 -1.709 -2.648 
172 1 1.674 9.121 6.380 
173 1 -2.490 8.038 -0.878 
174 1 13.157 -7.076 -12.990 
175 1 10.758 -2.422 10.441 
176 1 2.131 0.486 12.863 
177 1 8.150 13.291 -6.616 
178 1 1.048 -0.981 3.364 
179 1 -7.534 12.879 6.100 
180 1 -3.980 -6.019 -4.275 
181 1 13.031 -11.963 9.372 
182 1 -4.386 -9.602 4.484 
183 1 10.801 2.938 2.286 
184 1 -3.651 8.610 -10.294 
185 1 11.182 -0.916 -0.706 
186 1 -0.858 11.884 -8.677 
187 1 -3.845 12.060 12.637 
188 1 5.642 5.243 7.268 
189 1 9.623 8.866 8.478 
190 1 2.500 -9.752 5.870 
191 1 -3.737 -12.687 4.264 
192 1 -3.888 -1.663 -9.989 
193 1 -6.647 -13.430 -11.669 
194 1 2.132 10.919 -5.983 
195 1 -11.633 6.210 6.293 
196 1 -7.715 10.232 11.250 
197 1 -4.378 2.025 13.202 
198 1 -0.753 -0.877 -11.380 
199 1 5.996 -1.178 0.012 
200 1 3.988 -11.266 -6.765 
ITEM: TIMESTEP
12000
ITEM: NUMBER OF ATOMS
200
ITEM: BOX BOUNDS pp pp pp
-13.898096441678897 13.898096441678897
-13.898096441678897 13.898096441678897
-13.898096441678897 13.898096441678897
ITEM: ATOMS id type x y z
1 1 8.426 6.758 -0.079 
2 1 1.184 10.312 -1.216 
3 1 2.951 4.107 -12.295 
4 1 -1.774 7.574 8.412 
5 1 -10.146 -4.485 3.393 
6 1 7.948 -13.038 4.682 
7 1 4.692 -3.311 6.450 
8 1 5.208 10.176 -11.635 
9 1 5.712 9.750 -1.126 
10 1 -9.547 11.482 -2.285 
11 1 -0.408 -8.804 3.699 
12 1 9.638 12.119 9.095 
13 1 -10.258 -8.358 -1.047 
14 1 13.147 -6.485 7.300 
15 1 6.798 3.129 -12.459 
16 1 -0.123 9.382 -11.995 
17 1 -4.550 -11.329 0.090 
18 1 0.488 -13.152 -4.400 
19 1 -7.159 2.215 5.802 
20 1 -2.540 0.795 -2.576 
21 1 4.205 0.425 -11.740 
22 1 0.459 -9.369 -9.018 
23 1 8.126 10.871 -10.186 
24 1 11.100 9.692 -8.991 
25 1 -10.144 13.678 -12.488 
26 1 6.937 -13.488 -10.583 
27 1 12.762 0.768 4.447 
28 1 -10.267 12.760 -5.689 
29 1 -3.359 5.838 -7.239 
30 1 -7.061 -2.542 4.937 
31 1 -8.707 -0.535 -0.195 
32 1 3.457 9.470 2.271 
33 1 0.839 2.966 -9.286 
34 1 -10.385 5.827 12.301 
35 1 -0.611 -9.706 9.382 
36 1 -12.641 -1.179 10.513 
37 1 6.171 -0.287 11.987 
38 1 -3.646 -7.297 1.160 
39 1 -9.003 5.014 9.026 
40 1 1.016 5.649 12.471 
41 1 -2.130 -7.837 -2.212 
42 1 13.680 -13.181 -6.745 
43 1 -11.550 -1.712 1.460 
44 1 4.701 3.130 -7.865 
45 1 9.334 -9.184 -4.536 
46 1 -7.119 12.300 9.714 
47 1 -8.325 -8.807 10.348 
48 1 1.984 -12.790 2.930 
49 1 2.878 0.954 8.487 
50 1 2.209 8.455 -9.478 
51 1 -1.194 10.477 4.611 
52 1 1.897 5.146 8.261 
53 1 8.357 -10.353 -8.188 
54 1 7.816 -12.497 -3.833 
55 1 2.770 -4.352 -12.591 
56 1 -7.335 1.936 12.531 
57 1 6.833 8.655 4.006 
58 1 10.828 0.311 -11.218 
59 1 1.345 -10.185 13.853 
60 1 0.348 1.278 1.431 
61 1 12.109 11.775 6.168 
62 1 -10.359 -3.500 -9.042 
63 1 6.955 12.624 1.566 
64 1 -10.076 -10.649 2.737 
65 1 -6.649 7.389 9.598 
66 1 -7.703 -13.782 -3.743 
67 1 11.838 4.931 9.544 
68 1 7.854 2.870 -6.121 
69 1 4.121 -3.971 10.678 
70 1 -5.882 8.892 6.341 
71 1 -11.773 2.157 0.778 
72 1 9.533 -10.070 2.275 
73 1 -7.054 -12.737 2.332 
74 1 -11.756 1.234 -11.505 
75 1 -0.866 -11.569 -0.795 
76 1 9.165 -12.591 13.294 
77 1 -3.964 -4.842 4.166 
78 1 3.474 -7.729 -8.086 
79 1 5.088 -12.109 -12.887 
80 1 -11.203 -1.461 6.310 
81 1 0.555 -3.006 -8.849 
82 1 -5.347 11.734 2.958 
83 1 -3.531 -13.192 -3.078 
84 1 -6.455 -1.362 9.497 
85 1 -12.330 9.800 13.442 
86 1 -1.824 -9.627 -5.492 
87 1 -6.316 5.004 -13.131 
88 1 1.027 4.516 -6.197 
89 1 -0.495 -3.728 -5.271 
90 1 2.950 2.373 -1.114 
91 1 -13.163 -12.319 4.995 
92 1 1.018 -13.758 6.279 
93 1 -7.322 1.502 -8.843 
94 1 12.414 6.997 -13.124 
95 1 3.435 12.815 0.147 
96 1 -12.810 5.094 -1.004 
97 1 -4.862 5.376 7.611 
98 1 -11.074 8.148 -6.764 
99 1 -5.377 12.353 -0.967 
100 1 6.226 0.080 -4.200 
101 1 -0.215 10.496 9.515 
102 1 -6.701 -6.634 2.922 
103 1 -10.580 -6.934 -6.257 
104 1 -6.979 9.813 -8.190 
105 1 -3.510 -12.477 9.457 
106 1 5.943 -8.031 -10.851 
107 1 -0.418 -4.608 -1.767 
108 1 10.527 11.987 -13.450 
109 1 -7.282 5.363 3.750 
110 1 -1.899 2.172 10.838 
111 1 -0.471 -5.558 10.890 
112 1 5.818 11.217 9.593 
113 1 -13.197 4.628 -12.671 
114 1 5.020 8.705 11.962 
115 1 -6.374 -8.598 -9.173 
116 1 1.570 -4.485 3.325 
117 1 10.243 -2.893 3.629 
118 1 -3.452 -2.747 -3.558 
119 1 10.844 -12.742 -9.387 
120 1 -3.605 -2.544 7.221 
121 1 8.156 6.279 -13.850 
122 1 -7.353 4.622 -5.889 
123 1 -2.722 11.025 0.613 
124 1 1.738 4.620 4.916 
125 1 3.910 -5.099 -4.381 
126 1 -10.374 -4.526 7.456 
127 1 -4.698 1.377 8.387 
128 1 -12.944 11.061 -4.445 
129 1 -5.799 9.097 -12.960 
130 1 6.937 -8.519 13.806 
131 1 -2.952 -1.193 -0.026 
132 1 -11.258 13.539 2.295 
133 1 6.557 -7.242 -6.346 
134 1 -13.186 -12.188 -12.938 
135 1 11.405 -0.656 7.835 
136 1 -1.170 -1.774 11.138 
137 1 -1.400 3.382 4.020 
138 1 -1.346 11.961 -2.063 
139 1 -3.571 -8.868 -11.706 
140 1 0.902 13.625 11.327 
141 1 -4.087 -0.185 -5.935 
142 1 -9.902 0.348 3.860 
143 1 -6.377 -8.543 -5.561 
144 1 -4.002 12.222 8.402 
145 1 -10.746 10.603 8.063 
146 1 -7.297 -4.617 -6.414 
147 1 -10.168 -2.338 -3.056 
148 1 -0.318 8.043 2.421 
149 1 -7.861 -2.435 -11.598 
150 1 -3.480 -7.190 7.621 
151 1 3.694 2.957 1.965 
152 1 -11.952 8.085 2.974 
153 1 1.364 -2.501 8.252 
154 1 -2.609 -12.434 -11.315 
155 1 -2.993 6.027 11.781 
156 1 0.245 5.705 -2.012 
157 1 9.609 8.348 11.447 
158 1 -5.130 -0.812 13.858 
159 1 -13.498 8.470 -11.044 
160 1 -3.923 -3.355 11.804 
161 1 -2.199 -10.979 13.099 
162 1 5.668 -10.039 9.867 
163 1 0.748 -6.966 -6.118 
164 1 1.284 9.116 12.511 
165 1 -5.286 10.629 -4.947 
166 1 -3.779 -4.933 -11.232 
167 1 -3.690 6.583 4.364 
168 1 2.234 6.598 0.464 
169 1 -4.077 3.482 -0.468 
170 1 -8.620 8.624 3.315 
171 1 1.142 -1.270 -3.195 
172 1 1.254 9.091 6.907 
173 1 -2.396 7.907 -1.240 
174 1 13.304 -6.710 -13.467 
175 1 10.505 -2.056 10.675 
176 1 2.143 0.057 11.914 
177 1 9.417 13.214 -6.361 
178 1 -0.098 -1.613 4.056 
179 1 -6.736 13.031 5.821 
180 1 -4.333 -5.982 -4.078 
181 1 -13.653 -11.697 8.427 
182 1 -4.885 -10.073 4.347 
183 1 10.540 1.744 1.883 
184 1 -4.295 9.215 -10.017 
185 1 11.857 -1.164 -0.466 
186 1 -1.105 11.757 -9.443 
187 1 -4.339 11.943 12.621 
188 1 5.559 4.513 6.874 
189 1 11.292 8.568 8.325 
190 1 2.667 -9.243 5.891 
191 1 -4.011 -13.247 3.691 
192 1 -4.483 -1.812 -9.501 
193 1 -6.260 13.572 -10.715 
194 1 2.704 11.377 -5.593 
195 1 -12.520 5.884 6.888 
196 1 -8.113 9.283 11.961 
197 1 -3.743 2.877 13.375 
198 1 -1.219 -0.408 -10.097 
199 1 6.837 -1.740 -0.616 
200 1 1.764 -12.743 -8.096 
ITEM: TIMESTEP
13000
ITEM: NUMBER OF ATOMS
200
ITEM: BOX BOUNDS pp pp pp
-13.898096441678897 13.898096441678897
-13.898096441678897 13.898096441678897
-13.898096441678897 13.898096441678897
ITEM: ATOMS id type x y z
1 1 8.352 6.255 0.209 
2 1 1.303 9.152 -2.540 
3 1 3.151 3.625 -11.812 
4 1 -3.064 8.197 8.010 
5 1 -11.133 -5.581 2.902 
6 1 6.962 -12.618 5.693 
7 1 5.463 -2.605 6.540 
8 1 4.837 10.839 -11.420 
9 1 5.211 10.603 -0.941 
10 1 -8.953 11.754 -1.930 
11 1 -0.814 -8.017 3.014 
12 1 10.293 12.373 9.235 
13 1 -10.566 -7.977 -0.755 
14 1 -13.645 -6.781 8.314 
15 1 6.925 2.560 -12.949 
16 1 -0.270 8.502 -12.237 
17 1 -4.544 -11.390 0.256 
18 1 0.241 -13.429 -4.790 
19 1 -7.059 2.338 5.745 
20 1 -1.510 0.788 -2.122 
21 1 4.093 0.036 -11.406 
22 1 -1.141 -9.306 -9.415 
23 1 8.515 11.422 -9.677 
24 1 11.571 9.710 -8.755 
25 1 -9.893 13.396 -13.065 
26 1 6.632 -13.165 -9.858 
27 1 12.835 0.072 4.120 
28 1 -9.825 12.237 -5.727 
29 1 -3.228 6.481 -8.249 
30 1 -7.820 -2.840 5.777 
31 1 -8.353 -1.265 0.712 
32 1 3.284 8.780 2.814 
33 1 0.833 2.444 -8.580 
34 1 -12.198 6.232 11.863 
35 1 1.058 -9.935 9.711 
36 1 -12.340 -1.890 10.995 
37 1 6.752 -0.616 12.448 
38 1 -3.354 -6.636 1.006 
39 1 -8.873 4.712 8.931 
40 1 0.660 5.038 11.788 
41 1 -0.999 -8.892 -2.747 
42 1 -13.702 -13.159 -6.655 
43 1 -12.840 -1.922 1.583 
44 1 3.656 3.608 -6.531 
45 1 10.866 -8.435 -5.773 
46 1 -7.328 12.032 9.863 
47 1 -7.792 -6.705 9.634 
48 1 2.132 -13.284 3.128 
49 1 3.006 1.371 8.429 
50 1 2.371 8.166 -9.616 
51 1 -1.245 11.457 4.713 
52 1 1.483 5.373 8.479 
53 1 8.246 -9.980 -8.998 
54 1 8.381 -12.270 -3.219 
55 1 1.307 -5.646 -13.033 
56 1 -7.239 2.801 11.808 
57 1 7.036 8.180 3.112 
58 1 10.225 0.210 -12.018 
59 1 1.837 -9.414 13.750 
60 1 0.339 -0.637 0.103 
61 1 11.309 12.413 5.671 
62 1 -10.545 -3.089 -8.893 
63 1 7.820 12.734 1.002 
64 1 -9.758 -10.436 3.199 
65 1 -5.471 8.043 10.764 
66 1 -8.058 -13.562 -3.590 
67 1 12.059 3.928 9.617 
68 1 7.004 3.579 -5.248 
69 1 3.965 -3.399 10.791 
70 1 -6.382 8.957 6.481 
71 1 -11.406 1.082 -0.108 
72 1 11.025 -8.949 2.494 
73 1 -7.682 -12.930 1.751 
74 1 -12.549 0.526 -11.982 
75 1 -0.961 -12.001 -0.551 
76 1 8.894 -12.266 13.190 
77 1 -4.023 -4.882 5.016 
78 1 3.808 -8.435 -7.863 
79 1 5.316 -10.811 -13.042 
80 1 -11.503 -0.890 6.892 
81 1 0.806 -3.055 -9.357 
82 1 -5.192 11.523 2.753 
83 1 -2.994 -12.796 -3.892 
84 1 -8.558 -1.446 9.672 
85 1 -12.109 9.626 12.961 
86 1 -2.367 -9.979 -5.906 
87 1 -6.794 5.281 -13.635 
88 1 0.378 5.549 -5.501 
89 1 -0.305 -3.561 -5.678 
90 1 2.026 2.897 -1.551 
91 1 -13.608 -11.393 4.799 
92 1 1.791 -12.595 6.930 
93 1 -7.682 1.631 -8.183 
94 1 11.506 6.479 13.562 
95 1 2.881 13.780 -1.275 
96 1 -12.200 4.940 -1.643 
97 1 -5.206 5.434 7.675 
98 1 -10.989 7.481 -6.414 
99 1 -5.212 12.646 -1.031 
100 1 7.862 -0.188 -3.888 
101 1 -0.876 10.918 9.243 
102 1 -6.271 -6.793 2.986 
103 1 -10.781 -7.195 -6.222 
104 1 -6.457 10.101 -7.800 
105 1 -3.241 -13.015 9.710 
106 1 6.701 -7.300 -10.661 
107 1 -0.449 -4.681 -1.305 
108 1 10.301 12.237 -12.692 
109 1 -7.354 6.033 3.081 
110 1 -1.026 1.670 10.335 
111 1 -1.010 -6.988 11.064 
112 1 5.224 11.445 8.798 
113 1 -12.318 4.229 -12.117 
114 1 5.396 8.839 11.920 
115 1 -5.621 -9.086 -9.247 
116 1 1.370 -5.086 3.588 
117 1 10.450 -2.446 2.886 
118 1 -2.986 -2.977 -3.505 
119 1 10.318 -13.361 -10.340 
120 1 -4.015 -2.674 7.663 
121 1 8.348 6.071 -12.954 
122 1 -5.987 4.329 -6.445 
123 1 -1.617 11.507 1.349 
124 1 2.087 4.886 4.429 
125 1 3.413 -5.730 -4.167 
126 1 -10.533 -4.848 7.609 
127 1 -5.439 1.229 8.361 
128 1 -13.527 12.267 -4.212 
129 1 -6.138 9.013 -12.437 
130 1 7.622 -8.284 13.862 
131 1 -2.896 -2.194 0.440 
132 1 -11.119 12.900 2.136 
133 1 7.257 -7.171 -6.558 
134 1 -13.373 -11.963 -13.162 
135 1 10.921 0.103 7.859 
136 1 -1.756 -1.491 10.099 
137 1 -1.698 3.034 4.184 
138 1 -1.335 12.257 -2.546 
139 1 -3.400 -9.081 -12.214 
140 1 1.585 -13.702 11.048 
141 1 -3.968 -0.531 -5.425 
142 1 -9.551 0.550 4.604 
143 1 -6.559 -9.580 -5.180 
144 1 -4.083 11.533 8.198 
145 1 -10.383 11.605 7.969 
146 1 -6.166 -4.622 -5.980 
147 1 -8.818 -2.346 -3.542 
148 1 -1.036 8.034 1.899 
149 1 -8.491 -2.931 -12.299 
150 1 -2.827 -7.991 8.200 
151 1 3.875 2.044 1.386 
152 1 -12.817 9.187 2.340 
153 1 2.097 -2.529 7.482 
154 1 -2.200 -12.463 -10.487 
155 1 -2.450 6.773 11.638 
156 1 -0.053 5.388 -2.226 
157 1 9.701 8.518 11.691 
158 1 -5.262 -1.469 -13.719 
159 1 -12.638 7.533 -10.773 
160 1 -5.038 -3.321 11.087 
161 1 -2.917 -9.943 12.074 
162 1 4.645 -11.670 8.321 
163 1 0.150 -6.927 -5.703 
164 1 1.459 8.586 12.662 
165 1 -4.706 10.913 -4.250 
166 1 -3.169 -4.379 -9.998 
167 1 -3.653 6.500 4.011 
168 1 2.259 6.793 0.530 
169 1 -4.082 4.464 -0.494 
170 1 -8.223 9.760 4.030 
171 1 1.324 -0.387 -3.138 
172 1 1.287 8.546 6.457 
173 1 -2.452 7.671 -0.889 
174 1 13.549 -6.979 -13.593 
175 1 9.167 -3.079 11.668 
176 1 1.965 -1.283 12.397 
177 1 9.363 12.853 -6.494 
178 1 -0.435 -0.836 4.158 
179 1 -6.571 12.663 5.427 
180 1 -3.165 -6.739 -4.918 
181 1 -13.498 -11.252 9.467 
182 1 -4.617 -10.107 4.833 
183 1 10.415 2.481 3.046 
184 1 -3.442 9.279 -10.231 
185 1 11.355 -0.138 -0.663 
186 1 -1.275 12.176 -8.171 
187 1 -4.864 12.338 12.928 
188 1 6.075 4.347 6.548 
189 1 12.296 9.047 8.395 
190 1 2.713 -8.375 5.264 
191 1 -4.400 -13.250 3.515 
192 1 -4.449 -1.754 -8.866 
193 1 -6.141 13.887 -10.507 
194 1 1.863 10.959 -6.511 
195 1 -12.171 4.953 7.058 
196 1 -8.480 9.746 12.263 
197 1 -3.592 3.693 12.905 
198 1 -1.085 -0.227 -9.421 
199 1 6.682 -1.498 0.484 
200 1 2.490 -12.043 -9.802 
ITEM: TIMESTEP
14000
ITEM: NUMBER OF ATOMS
200
ITEM: BOX BOUNDS pp pp pp
-13.898096441678897 13.898096441678897
-13.898096441678897 13.898096441678897
-13.898096441678897 13.898096441678897
ITEM: ATOMS id type x y z
1 1 8.771 7.331 0.455 
2 1 0.794 8.559 -3.115 
3 1 2.651 3.704 -12.331 
4 1 -2.512 8.657 7.777 
5 1 -10.549 -5.559 3.522 
6 1 7.300 -13.188 6.544 
7 1 5.976 -2.807 5.640 
8 1 4.554 11.512 -11.395 
9 1 5.206 9.440 0.480 
10 1 -8.881 11.912 -1.173 
11 1 -0.291 -8.800 3.958 
12 1 10.197 11.449 7.874 
13 1 -10.205 -6.613 0.024 
14 1 -13.809 -7.293 7.741 
15 1 6.221 1.617 -11.792 
16 1 -0.096 9.568 -12.178 
17 1 -5.126 -11.663 -0.345 
18 1 -0.292 13.289 -5.366 
19 1 -7.107 2.416 5.383 
20 1 -2.642 0.283 -1.003 
21 1 3.170 0.143 -11.930 
22 1 -1.336 -9.543 -9.052 
23 1 8.690 10.438 -9.670 
24 1 11.789 9.844 -7.837 
25 1 -10.392 -13.625 -10.982 
26 1 6.643 -13.630 -8.808 
27 1 12.237 0.491 4.659 
28 1 -10.013 11.962 -6.218 
29 1 -2.594 6.699 -8.668 
30 1 -7.402 -2.984 5.218 
31 1 -7.931 -0.241 0.760 
32 1 2.928 8.279 3.032 
33 1 0.885 1.954 -7.566 
34 1 -12.436 5.482 12.078 
35 1 2.157 -9.801 9.115 
36 1 -13.173 -1.197 11.144 
37 1 7.806 -0.520 12.702 
38 1 -2.726 -6.715 0.328 
39 1 -8.453 4.867 8.513 
40 1 0.960 5.328 11.459 
41 1 -3.076 -9.331 -2.933 
42 1 -12.212 -12.709 -7.501 
43 1 -13.034 -1.655 2.244 
44 1 4.123 3.160 -6.944 
45 1 10.690 -8.772 -5.714 
46 1 -7.821 10.999 9.318 
47 1 -8.984 -6.644 10.268 
48 1 2.036 -12.706 3.107 
49 1 2.924 1.788 8.770 
50 1 4.033 7.071 -10.340 
51 1 -0.874 11.986 4.902 
52 1 2.080 5.002 8.029 
53 1 8.656 -10.238 -8.280 
54 1 8.714 -12.135 -2.470 
55 1 0.067 -6.260 -12.209 
56 1 -6.792 2.784 11.036 
57 1 6.087 8.303 3.945 
58 1 10.510 -0.771 -11.879 
59 1 1.296 -9.355 13.275 
60 1 1.093 -0.599 0.191 
61 1 12.218 -13.659 5.890 
62 1 -10.816 -2.534 -7.755 
63 1 8.773 11.930 1.509 
64 1 -11.309 -10.984 2.728 
65 1 -6.594 7.198 11.175 
66 1 -7.915 13.826 -3.920 
67 1 12.232 4.007 9.840 
68 1 7.650 3.553 -5.661 
69 1 5.670 -3.989 10.413 
70 1 -6.112 8.711 7.519 
71 1 -10.784 1.741 0.408 
72 1 10.056 -8.410 1.994 
73 1 -7.325 -12.501 1.955 
74 1 -12.608 0.320 -12.988 
75 1 -1.084 -13.075 -0.960 
76 1 7.893 -11.616 12.876 
77 1 -4.411 -5.748 5.502 
78 1 3.921 -7.810 -7.347 
79 1 5.456 -11.323 -12.429 
80 1 -10.704 -1.583 6.725 
81 1 0.545 -3.447 -9.214 
82 1 -4.697 10.787 2.221 
83 1 -3.286 -12.752 -4.603 
84 1 -9.716 -1.559 11.259 
85 1 -12.612 9.629 12.008 
86 1 -2.074 -10.127 -6.212 
87 1 -7.338 4.725 -13.114 
88 1 0.227 6.426 -6.837 
89 1 -0.495 -4.008 -5.114 
90 1 2.598 2.960 -1.350 
91 1 -13.703 -10.860 4.771 
92 1 1.761 -13.479 6.716 
93 1 -8.073 0.779 -8.024 
94 1 11.729 7.120 13.416 
95 1 1.587 12.713 -1.725 
96 1 -12.185 4.538 -0.883 
97 1 -5.566 5.698 7.170 
98 1 -10.649 6.262 -6.689 
99 1 -5.582 12.117 -0.584 
100 1 7.226 -1.144 -4.226 
101 1 -0.200 11.160 8.662 
102 1 -6.704 -6.455 2.682 
103 1 -10.529 -7.802 -8.267 
104 1 -7.307 9.603 -8.427 
105 1 -1.904 13.852 10.147 
106 1 6.104 -6.433 -10.418 
107 1 -0.690 -4.632 -1.271 
108 1 11.133 12.274 -12.867 
109 1 -6.721 7.028 3.548 
110 1 -1.356 2.143 9.377 
111 1 -0.767 -6.653 11.288 
112 1 4.700 11.937 8.042 
113 1 -11.653 3.953 -12.616 
114 1 5.647 8.144 11.576 
115 1 -5.011 -8.888 -8.758 
116 1 1.507 -5.109 3.506 
117 1 9.555 -3.594 2.169 
118 1 -3.824 -2.825 -2.829 
119 1 9.499 -12.161 -11.278 
120 1 -5.111 -3.002 7.889 
121 1 7.996 7.175 -13.407 
122 1 -6.369 4.253 -6.760 
123 1 -1.537 11.780 1.139 
124 1 1.443 5.194 3.939 
125 1 3.671 -5.746 -2.953 
126 1 -10.205 -5.280 7.672 
127 1 -4.949 1.342 7.787 
128 1 -12.927 12.389 -4.144 
129 1 -6.063 9.213 -12.754 
130 1 7.150 -7.445 13.834 
131 1 -3.778 -2.278 1.107 
132 1 -10.806 13.025 2.387 
133 1 7.821 -7.191 -6.858 
134 1 -13.166 -12.115 -12.989 
135 1 10.391 0.671 8.663 
136 1 -1.746 -1.669 10.474 
137 1 -1.663 2.261 4.232 
138 1 -1.868 11.495 -2.319 
139 1 -4.188 -9.120 -12.094 
140 1 1.906 13.879 10.228 
141 1 -4.024 -0.876 -6.000 
142 1 -9.196 0.106 4.255 
143 1 -6.277 -9.760 -5.674 
144 1 -4.551 11.897 8.442 
145 1 -11.750 12.197 7.099 
146 1 -6.422 -5.587 -5.858 
147 1 -9.298 -1.554 -3.745 
148 1 -2.074 8.532 2.696 
149 1 -8.437 -3.241 -10.493 
150 1 -1.471 -8.945 8.288 
151 1 3.246 2.531 1.914 
152 1 -12.058 10.052 1.652 
153 1 2.769 -2.372 7.723 
154 1 -2.095 -12.544 -10.643 
155 1 -2.198 6.684 12.145 
156 1 -0.475 5.235 -2.554 
157 1 10.449 9.642 11.215 
158 1 -5.694 -1.541 13.772 
159 1 -12.905 8.242 -10.892 
160 1 -5.439 -4.340 11.504 
161 1 -3.705 -8.997 12.370 
162 1 4.671 -12.093 7.748 
163 1 0.220 -7.825 -5.789 
164 1 2.189 7.972 13.699 
165 1 -5.186 11.744 -5.417 
166 1 -2.502 -3.949 -10.511 
167 1 -2.505 6.005 5.250 
168 1 1.758 6.940 0.562 
169 1 -5.020 4.144 -1.283 
170 1 -8.790 10.246 3.502 
171 1 1.321 -1.738 -3.301 
172 1 1.543 8.477 7.019 
173 1 -2.481 8.046 -0.970 
174 1 -13.346 -7.961 13.436 
175 1 9.454 -2.818 10.591 
176 1 2.041 0.327 12.732 
177 1 9.000 12.114 -6.077 
178 1 -0.632 -1.536 3.079 
179 1 -6.577 12.286 6.114 
180 1 -3.343 -6.530 -4.144 
181 1 -13.340 -10.837 9.236 
182 1 -4.188 -9.996 5.606 
183 1 10.003 3.299 2.069 
184 1 -3.898 10.030 -10.284 
185 1 11.123 0.434 0.498 
186 1 -1.271 12.126 -8.811 
187 1 -5.133 12.341 12.621 
188 1 5.956 4.206 7.096 
189 1 13.108 9.965 8.085 
190 1 3.312 -7.363 5.182 
191 1 -4.220 -13.005 3.733 
192 1 -4.457 -1.207 -9.494 
193 1 -6.014 -13.598 -9.338 
194 1 1.863 9.965 -5.897 
195 1 -11.431 5.357 7.224 
196 1 -9.065 10.135 12.366 
197 1 -3.787 3.560 12.290 
198 1 -1.246 -0.640 -9.457 
199 1 7.418 -1.106 0.391 
200 1 2.800 -10.740 -9.819 
ITEM: TIMESTEP
15000
ITEM: NUMBER OF ATOMS
200
ITEM: BOX BOUNDS pp pp pp
-13.898096441678897 13.898096441678897
-13.898096441678897 13.898096441678897
-13.898096441678897 13.898096441678897
ITEM: ATOMS id type x y z
1 1 8.114 6.345 0.033 
2 1 0.674 7.818 -3.537 
3 1 3.092 3.365 -11.820 
4 1 -2.636 8.213 7.494 
5 1 -10.918 -5.079 3.249 
6 1 7.767 -13.744 6.409 
7 1 6.804 -4.123 5.757 
8 1 5.001 11.004 -12.007 
9 1 5.730 8.807 -0.154 
10 1 -9.375 11.288 -1.189 
11 1 -0.937 -9.097 4.493 
12 1 10.361 12.150 8.328 
13 1 -9.504 -6.329 -0.566 
14 1 -13.734 -7.409 7.612 
15 1 5.609 1.016 -11.391 
16 1 -0.941 10.081 -12.183 
17 1 -5.674 -12.050 -1.040 
18 1 -0.032 13.001 -5.286 
19 1 -6.753 2.585 6.238 
20 1 -2.449 1.013 -0.148 
21 1 2.834 -0.844 -12.021 
22 1 -0.459 -9.744 -10.795 
23 1 7.882 11.101 -9.417 
24 1 12.464 9.630 -8.336 
25 1 -9.928 -12.323 -10.074 
26 1 6.567 -13.270 -8.852 
27 1 13.555 1.571 5.756 
28 1 -9.632 12.049 -6.556 
29 1 -2.478 6.550 -9.066 
30 1 -7.696 -2.141 5.141 
31 1 -8.326 -0.854 -0.644 
32 1 3.683 8.666 3.214 
33 1 0.561 2.646 -7.628 
34 1 -12.347 4.810 12.403 
35 1 1.776 -10.099 9.654 
36 1 12.988 0.290 11.553 
37 1 7.190 0.371 11.985 
38 1 -2.957 -6.948 0.192 
39 1 -8.298 4.896 7.832 
40 1 1.265 5.197 11.099 
41 1 -2.944 -9.849 -2.713 
42 1 -12.761 -13.160 -7.808 
43 1 -13.215 -1.412 2.733 
44 1 3.559 3.959 -6.459 
45 1 11.505 -8.744 -5.533 
46 1 -8.183 11.559 9.500 
47 1 -8.626 -7.319 10.979 
48 1 2.432 -12.646 2.359 
49 1 2.793 1.738 8.965 
50 1 3.436 6.927 -9.388 
51 1 -1.009 11.541 4.605 
52 1 2.013 5.214 7.895 
53 1 9.064 -10.015 -8.175 
54 1 9.328 -12.655 -4.053 
55 1 -1.244 -6.626 -12.658 
56 1 -6.995 1.003 10.974 
57 1 6.654 7.612 5.089 
58 1 10.575 -0.787 -12.843 
59 1 1.323 -9.044 12.752 
60 1 1.765 -0.497 0.529 
61 1 11.277 13.785 4.330 
62 1 -10.763 -2.160 -7.878 
63 1 9.935 12.403 1.368 
64 1 -11.782 -11.354 2.661 
65 1 -6.477 6.462 11.797 
66 1 -7.284 -12.558 -5.453 
67 1 12.780 4.761 10.155 
68 1 6.734 2.713 -5.816 
69 1 5.662 -4.482 9.330 
70 1 -6.286 8.785 7.861 
71 1 -11.353 1.597 0.125 
72 1 9.666 -8.600 2.335 
73 1 -6.867 -12.720 1.899 
74 1 13.895 0.685 -13.237 
75 1 -0.299 -12.273 -1.651 
76 1 7.781 -11.304 12.250 
77 1 -4.639 -5.832 5.636 
78 1 4.281 -7.989 -6.755 
79 1 6.281 -11.524 -11.679 
80 1 -10.653 -1.832 6.259 
81 1 0.234 -3.335 -8.589 
82 1 -4.139 11.130 2.382 
83 1 -3.621 -12.914 -4.818 
84 1 -9.190 -1.885 10.490 
85 1 -12.791 10.103 11.337 
86 1 -2.041 -9.642 -5.780 
87 1 -6.406 3.394 -12.506 
88 1 0.250 6.015 -7.154 
89 1 -0.806 -4.114 -5.429 
90 1 2.927 3.997 -1.042 
91 1 13.616 -10.010 4.679 
92 1 0.737 -13.367 6.743 
93 1 -7.228 0.865 -8.853 
94 1 11.602 6.880 13.433 
95 1 1.040 12.131 -2.182 
96 1 -11.984 5.008 -0.397 
97 1 -5.165 5.844 6.493 
98 1 -10.456 5.890 -7.428 
99 1 -5.566 12.246 -0.416 
100 1 7.774 -0.632 -4.220 
101 1 -0.058 10.848 8.178 
102 1 -6.374 -6.684 2.800 
103 1 -8.997 -6.742 -7.938 
104 1 -6.943 10.183 -7.705 
105 1 -1.723 -13.500 10.069 
106 1 4.622 -5.960 -11.723 
107 1 -0.761 -4.768 -0.978 
108 1 10.519 12.122 -12.253 
109 1 -5.894 7.310 3.095 
110 1 -0.860 2.423 8.729 
111 1 -0.223 -6.286 11.342 
112 1 4.917 11.886 7.303 
113 1 -12.163 4.932 -11.239 
114 1 5.781 8.096 11.275 
115 1 -5.789 -8.260 -9.326 
116 1 0.652 -4.947 3.421 
117 1 9.969 -4.015 3.416 
118 1 -4.277 -2.844 -3.053 
119 1 9.713 -12.773 -10.886 
120 1 -4.759 -3.025 7.998 
121 1 7.875 6.410 13.384 
122 1 -6.367 5.264 -6.337 
123 1 -0.964 11.061 1.089 
124 1 1.371 4.916 3.232 
125 1 3.770 -5.802 -2.554 
126 1 -10.912 -5.262 7.032 
127 1 -5.102 0.543 8.004 
128 1 -12.321 12.976 -3.641 
129 1 -5.447 8.837 -13.456 
130 1 6.959 -7.782 -13.570 
131 1 -5.490 -3.045 0.750 
132 1 -11.356 12.822 1.906 
133 1 8.805 -6.519 -6.548 
134 1 13.872 -12.705 -13.733 
135 1 8.935 -0.171 8.850 
136 1 -1.382 -0.686 10.033 
137 1 -2.527 1.896 3.944 
138 1 -2.686 11.280 -2.318 
139 1 -3.628 -8.989 -12.106 
140 1 2.550 -13.742 11.281 
141 1 -3.260 -1.434 -6.155 
142 1 -9.356 0.508 3.207 
143 1 -5.641 -9.476 -5.384 
144 1 -4.249 11.600 7.534 
145 1 -11.981 11.963 8.426 
146 1 -6.416 -5.237 -5.806 
147 1 -9.865 0.148 -3.330 
148 1 -2.581 8.389 3.949 
149 1 -7.903 -2.987 -10.723 
150 1 -1.314 -9.533 8.562 
151 1 4.031 2.034 1.657 
152 1 -11.241 9.639 1.278 
153 1 3.858 -1.474 7.257 
154 1 -3.180 -13.145 -11.053 
155 1 -1.928 7.415 12.634 
156 1 -0.826 5.200 -2.079 
157 1 11.390 9.493 11.208 
158 1 -4.443 -1.571 -13.609 
159 1 -11.984 8.737 -10.582 
160 1 -4.667 -4.910 11.561 
161 1 -4.166 -8.650 12.252 
162 1 4.574 -12.051 8.485 
163 1 0.373 -6.979 -5.899 
164 1 3.187 7.858 -13.633 
165 1 -5.527 11.693 -5.413 
166 1 -3.387 -5.320 -9.949 
167 1 -1.549 5.462 5.780 
168 1 2.031 7.080 0.178 
169 1 -4.805 3.966 -2.720 
170 1 -9.465 10.140 4.517 
171 1 1.275 -1.403 -4.034 
172 1 1.449 8.490 6.452 
173 1 -2.529 8.106 -1.314 
174 1 -13.638 -8.511 -13.705 
175 1 9.835 -4.134 10.979 
176 1 1.700 1.520 12.348 
177 1 6.980 11.543 -5.597 
178 1 -0.895 -1.652 2.921 
179 1 -7.265 13.300 6.740 
180 1 -3.206 -6.145 -4.492 
181 1 -12.146 -10.471 8.687 
182 1 -5.494 -9.808 5.823 
183 1 9.750 3.064 2.200 
184 1 -4.604 11.428 -11.134 
185 1 10.764 0.490 0.119 
186 1 -1.259 11.493 -8.666 
187 1 -5.377 12.330 12.936 
188 1 5.754 4.528 7.557 
189 1 13.142 9.784 8.275 
190 1 3.355 -7.528 3.750 
191 1 -2.748 -11.723 5.961 
192 1 -4.483 -1.398 -10.335 
193 1 -6.438 -12.857 -9.707 
194 1 2.881 10.032 -6.247 
195 1 -11.892 4.973 7.029 
196 1 -8.793 9.515 12.217 
197 1 -3.788 2.944 11.220 
198 1 -1.281 -0.120 -9.732 
199 1 6.682 -0.775 0.853 
200 1 3.005 -10.408 -9.077 
ITEM: TIMESTEP
16000
ITEM: NUMBER OF ATOMS
200
ITEM: BOX BOUNDS pp pp pp
-13.898096441678897 13.898096441678897
-13.898096441678897 13.898096441678897
-13.898096441678897 13.898096441678897
ITEM: ATOMS id type x y z
1 1 7.991 5.755 0.170 
2 1 1.118 8.003 -3.771 
3 1 2.957 3.717 -12.932 
4 1 -2.898 8.290 7.948 
5 1 -10.392 -5.018 3.391 
6 1 7.260 -13.124 5.664 
7 1 7.974 -5.040 6.861 
8 1 4.815 11.377 -11.995 
9 1 4.721 9.006 0.031 
10 1 -9.719 11.669 -1.978 
11 1 -1.076 -9.187 4.633 
12 1 9.460 13.170 9.209 
13 1 -10.500 -6.550 -0.636 
14 1 12.678 -7.318 8.022 
15 1 5.528 2.416 -10.692 
16 1 0.076 8.299 -10.893 
17 1 -6.402 -11.632 -1.773 
18 1 -0.221 12.997 -5.938 
19 1 -6.921 2.835 6.654 
20 1 -2.222 0.778 -0.192 
21 1 3.066 -1.840 -12.228 
22 1 -0.220 -11.071 -10.358 
23 1 8.641 11.110 -9.635 
24 1 12.013 9.696 -8.784 
25 1 -10.462 -13.001 -10.348 
26 1 6.379 -12.440 -9.570 
27 1 -13.099 1.441 5.236 
28 1 -9.453 12.444 -7.008 
29 1 -3.395 6.609 -9.440 
30 1 -7.371 -2.482 6.318 
31 1 -7.799 -0.640 -0.007 
32 1 3.189 8.993 3.801 
33 1 0.546 2.265 -7.592 
34 1 -12.854 4.289 13.333 
35 1 1.836 -10.870 9.965 
36 1 13.245 0.713 11.348 
37 1 6.962 0.034 12.324 
38 1 -3.070 -8.129 1.212 
39 1 -8.531 5.005 9.021 
40 1 0.613 5.459 11.436 
41 1 -3.333 -9.535 -2.075 
42 1 -12.999 -12.762 -7.071 
43 1 -12.295 -1.609 2.041 
44 1 3.609 4.085 -5.868 
45 1 10.675 -9.643 -5.493 
46 1 -8.629 12.397 10.108 
47 1 -8.371 -6.488 10.822 
48 1 2.636 -11.579 2.261 
49 1 2.609 2.184 8.663 
50 1 3.183 7.097 -9.139 
51 1 -1.337 12.754 4.958 
52 1 2.681 5.377 7.840 
53 1 8.425 -10.570 -8.044 
54 1 8.681 -12.304 -4.117 
55 1 -1.181 -6.709 -13.454 
56 1 -6.248 0.509 11.119 
57 1 6.355 7.700 5.768 
58 1 9.892 0.469 -13.614 
59 1 1.635 -9.423 13.457 
60 1 1.077 -0.782 -0.213 
61 1 11.224 -13.843 4.882 
62 1 -10.395 -1.693 -8.194 
63 1 9.905 11.924 1.673 
64 1 -11.939 -12.027 2.422 
65 1 -6.061 5.484 12.052 
66 1 -7.530 -13.031 -4.788 
67 1 13.339 4.783 10.014 
68 1 6.990 2.570 -6.131 
69 1 5.171 -5.165 9.404 
70 1 -7.366 9.692 7.829 
71 1 -11.299 1.044 0.155 
72 1 9.420 -8.592 2.411 
73 1 -8.062 -13.709 2.045 
74 1 13.496 0.549 -12.865 
75 1 -0.799 -11.914 -1.499 
76 1 7.906 -11.480 11.731 
77 1 -4.299 -6.066 5.914 
78 1 4.235 -7.804 -6.469 
79 1 7.150 -11.513 -12.551 
80 1 -12.159 -2.519 5.563 
81 1 0.160 -3.381 -9.339 
82 1 -4.933 11.047 2.878 
83 1 -3.141 -13.385 -3.430 
84 1 -10.991 -1.279 12.256 
85 1 -12.728 9.972 10.847 
86 1 -1.799 -9.772 -5.553 
87 1 -7.476 2.872 -12.185 
88 1 0.268 6.326 -6.214 
89 1 -0.748 -3.902 -5.711 
90 1 2.905 4.053 -1.433 
91 1 13.889 -10.649 5.939 
92 1 0.567 -13.131 7.308 
93 1 -7.456 0.770 -8.904 
94 1 12.539 6.989 -13.877 
95 1 0.604 12.272 -2.502 
96 1 -12.609 5.582 -0.550 
97 1 -4.397 4.975 6.677 
98 1 -10.582 6.050 -6.562 
99 1 -6.295 12.442 -0.948 
100 1 7.350 -2.278 -3.849 
101 1 0.018 11.128 8.307 
102 1 -5.639 -6.571 2.782 
103 1 -9.602 -6.621 -8.441 
104 1 -7.344 9.698 -7.718 
105 1 -2.301 12.884 11.096 
106 1 5.062 -5.770 -12.705 
107 1 -0.951 -4.604 -0.921 
108 1 12.472 11.810 -13.165 
109 1 -6.244 6.969 3.051 
110 1 -0.835 2.842 9.482 
111 1 -0.364 -6.533 11.212 
112 1 5.231 11.811 7.103 
113 1 -12.588 4.771 -10.834 
114 1 6.247 8.248 10.667 
115 1 -6.630 -9.199 -9.040 
116 1 0.436 -4.991 4.648 
117 1 10.591 -3.291 2.214 
118 1 -3.984 -2.981 -2.892 
119 1 10.311 -12.440 -10.951 
120 1 -3.468 -2.711 7.577 
121 1 9.144 6.221 12.756 
122 1 -6.618 6.276 -6.264 
123 1 -1.323 10.685 1.000 
124 1 1.026 3.697 2.671 
125 1 5.099 -5.518 -3.768 
126 1 -10.730 -4.251 7.682 
127 1 -5.787 0.088 7.908 
128 1 -12.032 12.972 -4.379 
129 1 -4.833 9.137 13.627 
130 1 7.450 -7.614 13.525 
131 1 -4.974 -4.104 0.266 
132 1 -12.223 12.412 1.720 
133 1 9.351 -6.731 -7.869 
134 1 -12.875 -12.027 13.643 
135 1 8.915 -0.545 8.494 
136 1 -2.475 -0.432 10.062 
137 1 -1.725 1.106 4.593 
138 1 -2.618 10.897 -2.153 
139 1 -3.685 -9.270 -12.095 
140 1 2.819 13.354 11.136 
141 1 -3.462 -0.958 -6.862 
142 1 -8.415 0.483 3.904 
143 1 -5.600 -9.121 -5.866 
144 1 -3.606 11.600 7.693 
145 1 -12.300 12.195 8.009 
146 1 -6.347 -4.603 -6.169 
147 1 -9.833 0.372 -3.269 
148 1 -2.787 8.638 4.666 
149 1 -7.906 -3.459 -10.826 
150 1 -1.061 -9.177 7.969 
151 1 4.017 1.772 1.178 
152 1 -11.436 8.698 1.493 
153 1 2.940 -1.781 7.860 
154 1 -2.725 -13.644 -11.437 
155 1 -2.153 8.147 12.597 
156 1 -1.085 5.156 -2.482 
157 1 11.391 9.451 11.489 
158 1 -5.010 -1.593 -13.835 
159 1 -11.857 8.682 -9.726 
160 1 -4.677 -4.406 11.083 
161 1 -4.430 -10.796 11.189 
162 1 4.376 -11.829 8.455 
163 1 0.461 -7.206 -6.192 
164 1 2.981 7.425 -13.329 
165 1 -5.230 11.917 -4.870 
166 1 -3.614 -4.771 -10.643 
167 1 -1.335 4.697 5.408 
168 1 1.443 7.556 0.163 
169 1 -4.986 4.439 -2.559 
170 1 -9.156 10.390 4.370 
171 1 1.529 -0.230 -4.208 
172 1 1.549 8.365 6.784 
173 1 -2.447 7.832 -0.623 
174 1 12.992 -8.552 -13.752 
175 1 10.517 -4.425 9.974 
176 1 1.337 1.320 12.011 
177 1 8.144 12.361 -4.614 
178 1 -1.001 -2.038 2.408 
179 1 -7.143 12.822 7.093 
180 1 -3.898 -6.448 -3.868 
181 1 -12.560 -10.134 9.739 
182 1 -5.595 -9.220 5.751 
183 1 10.018 3.074 2.441 
184 1 -4.388 11.147 -10.991 
185 1 10.100 -0.399 -0.435 
186 1 -1.025 11.142 -8.724 
187 1 -5.015 12.449 12.796 
188 1 7.000 4.961 7.142 
189 1 13.246 9.951 7.031 
190 1 3.393 -7.809 2.524 
191 1 -2.841 -11.881 6.567 
192 1 -4.697 -1.651 -10.287 
193 1 -6.189 -12.404 -9.907 
194 1 3.577 9.976 -6.472 
195 1 -11.651 5.940 7.480 
196 1 -8.771 9.279 12.708 
197 1 -3.646 2.711 11.187 
198 1 0.089 -0.076 -10.510 
199 1 7.010 -0.720 0.346 
200 1 2.215 -10.427 -8.542 
ITEM: TIMESTEP
17000
ITEM: NUMBER OF ATOMS
200
ITEM: BOX BOUNDS pp pp pp
-13.898096441678897 13.898096441678897
-13.898096441678897 13.898096441678897
-13.898096441678897 13.898096441678897
ITEM: ATOMS id type x y z
1 1 9.161 5.898 0.989 
2 1 1.562 7.529 -3.397 
3 1 2.430 4.637 -13.183 
4 1 -2.202 8.184 8.195 
5 1 -10.323 -5.668 3.674 
6 1 6.352 -12.927 5.339 
7 1 8.248 -4.609 6.548 
8 1 4.247 11.647 -12.470 
9 1 3.961 9.328 -1.410 
10 1 -9.343 11.964 -1.883 
11 1 -1.224 -10.195 3.984 
12 1 10.527 13.618 9.280 
13 1 -9.270 -8.068 1.407 
14 1 12.450 -7.782 8.577 
15 1 5.227 2.528 -11.395 
16 1 -0.241 7.377 -11.690 
17 1 -6.479 -11.374 -0.894 
18 1 -0.421 12.983 -5.239 
19 1 -8.101 4.721 6.788 
20 1 -1.505 0.760 -1.410 
21 1 3.190 -1.831 -12.773 
22 1 -1.801 -10.564 -9.301 
23 1 9.877 10.647 -9.259 
24 1 12.856 9.339 -7.771 
25 1 -9.866 -13.025 -10.185 
26 1 5.878 -13.264 -8.313 
27 1 -12.810 2.522 5.584 
28 1 -8.712 12.648 -6.654 
29 1 -3.993 7.315 -9.813 
30 1 -7.132 -2.497 6.543 
31 1 -6.712 -0.096 -0.793 
32 1 2.638 10.400 3.149 
33 1 0.322 2.878 -7.591 
34 1 -12.608 5.303 12.853 
35 1 1.424 -10.589 9.203 
36 1 -13.192 1.000 11.325 
37 1 6.783 -0.079 11.574 
38 1 -3.072 -7.320 1.243 
39 1 -9.611 6.100 9.606 
40 1 0.151 5.725 11.674 
41 1 -3.637 -10.020 -2.202 
42 1 -13.526 -12.419 -6.592 
43 1 -13.554 -2.038 2.814 
44 1 4.220 4.595 -5.107 
45 1 10.488 -9.631 -5.556 
46 1 -9.341 11.878 9.817 
47 1 -8.673 -6.037 10.699 
48 1 2.602 -12.106 1.708 
49 1 1.830 1.692 9.347 
50 1 3.720 5.718 -8.922 
51 1 -0.862 11.970 4.946 
52 1 2.101 5.189 7.546 
53 1 8.054 -10.176 -8.684 
54 1 7.445 -12.388 -4.758 
55 1 -1.142 -6.407 -13.396 
56 1 -6.919 0.164 11.084 
57 1 5.252 8.428 4.661 
58 1 9.370 1.316 13.006 
59 1 2.143 -9.407 12.724 
60 1 1.731 -0.684 -0.451 
61 1 11.482 13.636 5.555 
62 1 -10.500 -1.528 -8.535 
63 1 9.865 13.177 2.507 
64 1 -11.230 -11.362 1.574 
65 1 -6.164 5.124 12.419 
66 1 -7.217 -13.072 -3.734 
67 1 13.138 3.645 10.112 
68 1 8.114 3.713 -6.509 
69 1 5.099 -4.144 10.104 
70 1 -6.882 9.992 7.267 
71 1 -11.469 0.142 -0.448 
72 1 8.568 -7.400 1.654 
73 1 -8.423 -13.743 2.067 
74 1 13.091 0.330 -13.008 
75 1 -0.712 -11.249 -0.728 
76 1 6.901 -11.518 10.902 
77 1 -3.918 -5.313 6.007 
78 1 4.846 -7.312 -6.743 
79 1 7.272 -11.461 -12.389 
80 1 -12.630 -1.835 6.252 
81 1 0.315 -3.211 -9.761 
82 1 -5.542 11.369 3.886 
83 1 -3.394 -13.300 -3.812 
84 1 -10.420 -1.710 11.995 
85 1 -12.604 10.898 11.090 
86 1 -2.412 -11.007 -5.555 
87 1 -8.501 2.589 -11.422 
88 1 0.578 6.380 -6.344 
89 1 -0.633 -3.165 -5.804 
90 1 2.793 2.955 -1.565 
91 1 -13.489 -10.119 4.256 
92 1 0.231 -12.534 6.343 
93 1 -7.673 0.517 -8.950 
94 1 12.238 7.580 -13.344 
95 1 0.753 12.726 -2.206 
96 1 -13.184 6.183 -1.196 
97 1 -4.160 5.478 7.692 
98 1 -10.662 6.525 -6.754 
99 1 -6.452 12.637 -0.942 
100 1 7.440 -1.769 -3.219 
101 1 1.151 11.901 7.970 
102 1 -5.731 -6.311 2.704 
103 1 -9.852 -6.659 -8.493 
104 1 -7.569 9.185 -8.817 
105 1 -1.635 13.661 9.216 
106 1 4.277 -5.441 -13.004 
107 1 -0.227 -3.834 -1.269 
108 1 13.168 11.539 -13.695 
109 1 -5.714 6.284 1.734 
110 1 -1.377 2.219 9.388 
111 1 0.240 -6.764 10.396 
112 1 5.192 10.661 7.653 
113 1 -12.985 3.779 -10.570 
114 1 5.748 8.225 10.522 
115 1 -5.875 -9.459 -8.875 
116 1 0.656 -4.827 5.233 
117 1 9.658 -3.410 1.903 
118 1 -3.412 -2.500 -2.748 
119 1 10.865 -11.870 -9.705 
120 1 -2.392 -2.769 7.787 
121 1 9.159 6.271 12.871 
122 1 -6.084 6.708 -6.274 
123 1 -1.160 10.547 1.561 
124 1 0.934 3.815 2.959 
125 1 4.924 -6.227 -3.066 
126 1 -9.572 -4.720 7.238 
127 1 -4.737 1.205 7.600 
128 1 -11.876 12.490 -4.873 
129 1 -5.384 8.875 -13.522 
130 1 7.832 -7.518 13.322 
131 1 -5.329 -4.860 -0.107 
132 1 -12.020 12.545 1.572 
133 1 8.515 -5.862 -9.325 
134 1 -13.695 -12.200 13.451 
135 1 9.559 -0.690 9.203 
136 1 -3.424 -1.165 10.373 
137 1 -1.410 0.239 6.278 
138 1 -3.643 11.010 -2.186 
139 1 -4.430 -8.832 -12.334 
140 1 2.717 -13.847 11.175 
141 1 -4.390 -1.932 -6.216 
142 1 -8.721 0.167 3.495 
143 1 -5.993 -9.673 -5.483 
144 1 -3.761 10.851 7.039 
145 1 -12.024 13.547 7.294 
146 1 -6.164 -4.967 -6.959 
147 1 -10.639 -0.309 -4.617 
148 1 -2.525 7.792 4.902 
149 1 -7.985 -4.090 -10.880 
150 1 -1.969 -8.060 7.861 
151 1 3.987 2.189 1.904 
152 1 -11.761 9.263 1.069 
153 1 3.287 -1.294 6.830 
154 1 -3.111 -13.669 -11.938 
155 1 -2.302 8.315 12.944 
156 1 -0.915 5.048 -3.218 
157 1 11.655 9.322 11.620 
158 1 -5.188 -0.617 -13.819 
159 1 -10.842 9.543 -9.047 
160 1 -4.430 -4.412 11.007 
161 1 -5.292 -11.092 12.823 
162 1 4.546 -12.078 8.479 
163 1 1.179 -7.019 -6.527 
164 1 2.812 8.054 -13.264 
165 1 -4.696 11.354 -5.622 
166 1 -3.438 -4.536 -9.991 
167 1 -1.701 4.447 5.573 
168 1 2.736 6.970 0.716 
169 1 -5.478 5.253 -2.453 
170 1 -9.226 10.247 4.497 
171 1 1.609 -0.254 -4.434 
172 1 0.556 8.913 6.027 
173 1 -2.222 6.791 -0.022 
174 1 -12.726 -7.851 -13.131 
175 1 10.426 -5.268 9.371 
176 1 0.007 1.302 12.752 
177 1 8.676 11.856 -3.711 
178 1 -0.556 -2.193 3.181 
179 1 -7.235 13.316 6.293 
180 1 -2.961 -6.704 -3.835 
181 1 -11.104 -10.640 8.937 
182 1 -6.470 -9.401 5.622 
183 1 11.777 2.609 1.444 
184 1 -4.531 11.399 -9.987 
185 1 10.513 0.277 -0.488 
186 1 -0.756 10.849 -8.457 
187 1 -5.624 12.204 13.654 
188 1 6.404 5.023 6.459 
189 1 -13.859 9.366 7.305 
190 1 3.200 -7.422 2.670 
191 1 -3.005 -11.802 6.729 
192 1 -5.250 -1.524 -10.573 
193 1 -6.601 -12.516 -11.230 
194 1 3.910 8.779 -7.160 
195 1 -11.249 6.151 6.559 
196 1 -8.965 8.671 13.659 
197 1 -4.265 2.888 10.825 
198 1 -0.066 -0.546 -12.288 
199 1 6.958 -0.821 0.470 
200 1 2.058 -10.189 -8.319 
ITEM: TIMESTEP
18000
ITEM: NUMBER OF ATOMS
200
ITEM: BOX BOUNDS pp pp pp
-13.898096441678897 13.898096441678897
-13.898096441678897 13.898096441678897
-13.898096441678897 13.898096441678897
ITEM: ATOMS id type x y z
1 1 8.876 5.142 2.384 
2 1 1.762 7.348 -2.551 
3 1 2.626 4.271 -13.324 
4 1 -2.871 8.847 8.346 
5 1 -10.055 -5.499 3.585 
6 1 5.539 -13.736 4.554 
7 1 9.282 -4.985 6.381 
8 1 3.560 11.947 -11.579 
9 1 5.187 8.594 -1.560 
10 1 -9.996 13.114 -1.434 
11 1 -1.800 -10.542 3.093 
12 1 10.377 -13.890 9.733 
13 1 -8.809 -7.028 0.693 
14 1 11.593 -7.928 9.024 
15 1 4.842 2.719 -11.507 
16 1 -0.190 7.307 -10.723 
17 1 -6.396 -12.212 -0.701 
18 1 -0.286 13.402 -4.586 
19 1 -7.895 3.725 7.236 
20 1 -2.010 1.174 -0.950 
21 1 3.758 -1.691 -11.820 
22 1 -1.061 -10.637 -9.556 
23 1 9.530 9.901 -9.480 
24 1 13.510 8.591 -7.863 
25 1 -9.798 -11.970 -9.274 
26 1 4.321 -13.768 -9.036 
27 1 -12.313 1.661 5.265 
28 1 -8.148 12.710 -6.366 
29 1 -3.380 7.425 -8.721 
30 1 -7.367 -2.585 6.646 
31 1 -5.661 -0.676 0.443 
32 1 2.842 11.682 3.577 
33 1 0.316 4.250 -7.917 
34 1 -12.450 5.245 12.597 
35 1 1.005 -11.241 8.669 
36 1 -12.847 2.045 12.067 
37 1 6.315 -0.562 11.990 
38 1 -3.004 -7.197 2.164 
39 1 -9.917 6.516 9.743 
40 1 0.874 5.393 11.975 
41 1 -4.300 -9.752 -1.998 
42 1 -12.532 -12.404 -6.600 
43 1 -13.270 -1.863 2.210 
44 1 4.256 4.686 -4.829 
45 1 10.835 -10.782 -4.907 
46 1 -9.886 10.528 8.004 
47 1 -9.320 -5.433 9.353 
48 1 1.570 -11.782 1.923 
49 1 2.287 2.185 8.920 
50 1 2.765 6.224 -9.700 
51 1 -0.738 11.766 4.907 
52 1 3.030 5.388 7.813 
53 1 8.661 -9.885 -9.417 
54 1 7.617 -12.987 -4.438 
55 1 -0.582 -7.276 13.301 
56 1 -7.048 1.274 10.854 
57 1 5.554 8.372 4.458 
58 1 9.666 1.683 13.195 
59 1 3.601 -9.712 12.763 
60 1 2.858 -0.429 -0.715 
61 1 11.959 -13.804 5.210 
62 1 -10.967 -1.378 -9.194 
63 1 8.255 12.672 2.890 
64 1 -11.706 -11.769 1.592 
65 1 -6.882 5.537 12.907 
66 1 -6.313 -13.416 -4.167 
67 1 12.268 4.016 10.302 
68 1 8.650 2.984 -5.961 
69 1 5.897 -3.907 10.672 
70 1 -6.259 8.285 6.915 
71 1 -11.534 -0.089 -0.992 
72 1 9.904 -7.743 1.753 
73 1 -7.946 13.327 1.943 
74 1 13.482 -1.078 -12.344 
75 1 -0.888 -12.045 -0.411 
76 1 7.175 -11.654 10.761 
77 1 -3.728 -5.787 5.016 
78 1 4.255 -7.765 -7.424 
79 1 7.426 -11.254 -12.124 
80 1 -12.201 -1.784 6.030 
81 1 -0.729 -2.580 -9.872 
82 1 -4.986 11.546 3.611 
83 1 -3.130 -13.779 -3.106 
84 1 -9.403 -1.745 11.620 
85 1 -12.696 10.925 10.797 
86 1 -1.974 -10.205 -4.796 
87 1 -8.372 2.157 -12.493 
88 1 0.984 7.249 -6.462 
89 1 -0.260 -2.978 -5.169 
90 1 2.769 3.220 -2.013 
91 1 -12.300 -10.236 4.701 
92 1 0.803 -12.438 5.383 
93 1 -7.164 0.789 -8.796 
94 1 11.614 7.905 -13.346 
95 1 1.160 12.771 -1.867 
96 1 -13.737 6.291 -2.881 
97 1 -4.013 4.866 7.525 
98 1 -9.976 5.124 -5.698 
99 1 -6.614 12.119 -1.318 
100 1 6.275 -1.517 -3.747 
101 1 1.922 12.473 8.261 
102 1 -6.989 -4.987 3.043 
103 1 -9.197 -6.720 -7.719 
104 1 -7.329 8.696 -8.024 
105 1 -1.694 13.388 9.352 
106 1 4.638 -5.631 -13.640 
107 1 0.126 -2.867 -0.237 
108 1 12.936 11.872 13.600 
109 1 -6.003 7.703 2.254 
110 1 -0.655 3.053 9.928 
111 1 0.002 -6.376 9.950 
112 1 4.912 9.726 7.310 
113 1 -12.768 4.287 -11.182 
114 1 5.357 9.583 10.697 
115 1 -5.811 -8.731 -9.530 
116 1 -0.628 -4.996 5.575 
117 1 9.866 -2.709 3.104 
118 1 -3.294 -2.410 -3.153 
119 1 11.886 -11.733 -8.535 
120 1 -2.631 -2.520 7.418 
121 1 8.181 7.470 13.755 
122 1 -6.002 5.803 -5.730 
123 1 -0.915 9.975 2.056 
124 1 -0.031 5.151 1.690 
125 1 5.058 -5.757 -3.577 
126 1 -11.440 -5.016 6.733 
127 1 -4.680 0.064 7.184 
128 1 -11.292 11.545 -5.283 
129 1 -4.996 9.409 13.881 
130 1 7.509 -8.345 12.941 
131 1 -4.217 -4.662 -0.488 
132 1 -12.553 12.513 3.022 
133 1 7.947 -5.895 -10.008 
134 1 -12.236 -12.087 13.055 
135 1 9.141 -0.466 9.286 
136 1 -3.848 -0.670 10.355 
137 1 -0.868 0.572 7.017 
138 1 -3.319 9.981 -2.221 
139 1 -5.196 -8.628 -12.791 
140 1 2.054 13.409 11.728 
141 1 -4.221 -1.854 -6.535 
142 1 -8.487 -1.027 3.082 
143 1 -6.227 -9.755 -5.925 
144 1 -3.749 12.209 6.748 
145 1 -11.825 -13.035 7.779 
146 1 -6.345 -4.966 -7.438 
147 1 -10.166 0.794 -4.604 
148 1 -2.969 7.760 3.835 
149 1 -8.407 -4.167 -11.571 
150 1 -2.846 -8.286 8.773 
151 1 5.291 2.985 1.913 
152 1 -11.533 9.298 1.422 
153 1 3.099 -0.358 6.886 
154 1 -2.513 -13.307 -12.964 
155 1 -1.528 7.930 12.392 
156 1 -1.760 5.139 -3.107 
157 1 11.852 9.204 11.189 
158 1 -3.939 0.276 13.767 
159 1 -10.802 9.917 -8.441 
160 1 -5.371 -4.327 10.798 
161 1 -4.973 -11.329 13.010 
162 1 4.623 -12.830 8.978 
163 1 0.832 -6.522 -5.838 
164 1 3.019 7.598 -13.496 
165 1 -5.162 10.618 -5.606 
166 1 -3.682 -5.325 -11.286 
167 1 -1.600 5.121 5.229 
168 1 3.389 6.446 0.468 
169 1 -5.825 5.278 -2.469 
170 1 -8.712 9.028 4.083 
171 1 1.384 0.156 -4.689 
172 1 1.199 9.112 6.161 
173 1 -2.600 7.301 -0.566 
174 1 -13.782 -7.764 13.617 
175 1 9.041 -5.365 9.833 
176 1 0.046 0.702 11.998 
177 1 9.349 11.310 -3.868 
178 1 -0.838 -2.104 2.685 
179 1 -7.462 -13.323 6.794 
180 1 -3.121 -6.514 -3.802 
181 1 -12.226 -9.270 8.931 
182 1 -6.160 -9.163 5.573 
183 1 12.545 2.714 1.951 
184 1 -5.232 13.222 -9.153 
185 1 11.854 -0.295 -0.323 
186 1 -1.367 11.195 -8.696 
187 1 -6.102 12.497 13.695 
188 1 6.830 5.356 6.286 
189 1 -13.301 9.547 7.682 
190 1 3.153 -7.256 3.551 
191 1 -2.742 -11.542 6.244 
192 1 -6.396 -2.580 -9.875 
193 1 -6.023 -12.819 -11.993 
194 1 4.351 9.897 -7.066 
195 1 -12.238 6.542 5.864 
196 1 -10.505 8.317 -12.843 
197 1 -4.041 2.567 10.824 
198 1 -0.378 -0.656 -12.847 
199 1 7.302 -1.078 0.539 
200 1 2.032 -10.331 -8.604 
ITEM: TIMESTEP
19000
ITEM: NUMBER OF ATOMS
200
ITEM: BOX BOUNDS pp pp pp
-13.898096441678897 13.898096441678897
-13.898096441678897 13.898096441678897
-13.898096441678897 13.898096441678897
ITEM: ATOMS id type x y z
1 1 8.981 6.870 3.369 
2 1 1.516 7.695 -2.769 
3 1 2.501 4.444 -13.659 
4 1 -3.349 9.165 9.171 
5 1 -10.914 -5.443 3.242 
6 1 5.175 -12.465 4.937 
7 1 8.714 -4.091 6.212 
8 1 4.098 11.542 -10.738 
9 1 4.657 8.621 -1.994 
10 1 -10.001 13.469 -1.362 
11 1 -1.714 -10.511 3.917 
12 1 11.568 12.573 9.421 
13 1 -8.687 -8.707 -0.150 
14 1 10.260 -9.540 9.823 
15 1 4.765 1.435 -10.931 
16 1 -0.229 7.603 -10.507 
17 1 -5.963 -12.937 -0.183 
18 1 -0.562 -13.740 -5.473 
19 1 -7.627 2.869 8.368 
20 1 -2.159 1.208 -0.738 
21 1 4.283 -1.364 -13.076 
22 1 -2.243 -10.428 -8.842 
23 1 11.988 9.802 -9.799 
24 1 -13.652 8.562 -8.063 
25 1 -10.128 -11.795 -9.782 
26 1 4.669 -13.411 -8.171 
27 1 -12.909 2.805 5.670 
28 1 -9.168 12.399 -6.735 
29 1 -3.196 7.402 -7.760 
30 1 -7.818 -3.329 6.878 
31 1 -6.147 -1.534 0.068 
32 1 2.760 11.650 3.773 
33 1 -0.087 3.693 -7.451 
34 1 -12.052 5.378 11.619 
35 1 0.550 -9.343 7.994 
36 1 13.610 2.101 13.686 
37 1 6.655 -0.695 11.990 
38 1 -2.293 -7.817 1.634 
39 1 -10.047 7.013 9.470 
40 1 0.118 5.814 12.218 
41 1 -5.414 -9.195 -1.527 
42 1 -12.330 -12.632 -6.478 
43 1 -11.926 -0.948 2.700 
44 1 3.447 4.830 -5.260 
45 1 11.075 -9.635 -5.267 
46 1 -9.898 11.245 8.493 
47 1 -8.422 -5.598 9.905 
48 1 1.641 -11.262 1.862 
49 1 2.935 2.334 8.544 
50 1 3.171 6.146 -9.590 
51 1 -1.607 11.899 4.640 
52 1 2.873 5.851 7.890 
53 1 8.770 -10.333 -8.314 
54 1 7.737 -12.370 -4.265 
55 1 0.337 -6.881 13.271 
56 1 -6.829 0.515 10.759 
57 1 5.080 9.301 3.134 
58 1 10.173 0.392 13.292 
59 1 3.109 -9.174 13.168 
60 1 2.661 0.148 -0.933 
61 1 11.197 -13.744 5.372 
62 1 -11.125 -0.605 -8.272 
63 1 10.181 12.901 2.300 
64 1 -10.672 -11.774 1.950 
65 1 -7.530 6.115 12.523 
66 1 -6.723 -13.451 -4.201 
67 1 13.163 6.491 8.927 
68 1 8.538 2.522 -5.123 
69 1 5.419 -3.657 11.469 
70 1 -5.448 8.040 6.090 
71 1 -10.516 0.942 -1.007 
72 1 10.518 -6.826 0.216 
73 1 -7.848 12.968 1.797 
74 1 12.997 -1.422 -11.316 
75 1 -0.467 -11.877 -0.520 
76 1 7.354 -11.836 12.439 
77 1 -4.346 -5.372 5.980 
78 1 4.507 -7.332 -7.163 
79 1 7.557 -10.342 -11.481 
80 1 -12.706 -1.923 6.838 
81 1 -0.635 -2.925 -10.239 
82 1 -4.118 11.451 2.481 
83 1 -3.528 -11.721 -2.761 
84 1 -10.016 -1.571 12.934 
85 1 -12.481 11.322 11.296 
86 1 -1.739 -10.210 -5.148 
87 1 -8.500 3.065 -11.897 
88 1 0.541 7.104 -6.488 
89 1 -0.043 -3.191 -6.272 
90 1 2.663 3.289 -2.278 
91 1 -12.242 -9.785 5.044 
92 1 1.644 -12.155 5.337 
93 1 -7.824 1.416 -7.831 
94 1 12.159 8.206 -13.058 
95 1 0.094 12.891 -2.438 
96 1 -13.877 7.858 -3.975 
97 1 -4.756 4.968 7.567 
98 1 -10.074 5.520 -5.819 
99 1 -5.694 11.279 -1.215 
100 1 6.261 -1.767 -4.756 
101 1 0.788 11.027 7.881 
102 1 -7.068 -5.053 2.142 
103 1 -8.811 -6.723 -7.765 
104 1 -6.842 8.027 -7.015 
105 1 -1.620 12.203 10.278 
106 1 3.810 -5.480 -13.502 
107 1 0.485 -3.045 -1.692 
108 1 11.813 12.028 13.644 
109 1 -6.523 8.229 0.598 
110 1 -0.690 4.004 9.187 
111 1 -0.726 -6.548 9.727 
112 1 4.880 8.955 7.574 
113 1 -12.914 4.782 -11.000 
114 1 5.812 8.841 11.198 
115 1 -6.638 -8.024 -9.548 
116 1 0.672 -4.529 5.239 
117 1 10.483 -3.960 2.884 
118 1 -3.627 -2.656 -2.734 
119 1 12.577 -12.477 -9.447 
120 1 -2.934 -2.694 7.392 
121 1 7.958 7.640 -13.781 
122 1 -5.065 4.631 -6.140 
123 1 -0.241 10.688 1.937 
124 1 0.416 4.785 1.326 
125 1 6.477 -5.152 -4.037 
126 1 -11.179 -4.906 7.788 
127 1 -5.344 0.705 7.647 
128 1 -12.291 11.302 -4.689 
129 1 -6.176 9.809 -13.105 
130 1 7.248 -7.727 13.412 
131 1 -5.048 -5.540 -0.572 
132 1 -12.069 12.802 3.588 
133 1 8.033 -6.047 -10.416 
134 1 -12.762 -11.864 13.063 
135 1 9.607 -0.190 9.893 
136 1 -3.719 -1.041 10.800 
137 1 -1.080 0.615 7.204 
138 1 -2.799 10.323 -2.662 
139 1 -4.647 -8.987 -12.358 
140 1 2.250 13.195 11.857 
141 1 -3.131 -1.816 -6.964 
142 1 -7.370 -0.834 4.030 
143 1 -5.809 -9.750 -5.762 
144 1 -4.069 12.142 7.492 
145 1 -11.111 -12.977 7.586 
146 1 -7.010 -4.346 -6.811 
147 1 -10.278 0.369 -4.921 
148 1 -2.660 6.988 2.571 
149 1 -7.669 -4.776 -11.880 
150 1 -3.107 -8.595 8.151 
151 1 6.476 2.452 2.628 
152 1 -11.757 10.276 0.329 
153 1 2.848 -0.637 6.442 
154 1 -2.727 13.564 -13.117 
155 1 -0.752 10.198 12.969 
156 1 -1.165 4.771 -3.194 
157 1 12.497 9.236 10.837 
158 1 -3.201 1.360 13.396 
159 1 -10.509 9.171 -8.513 
160 1 -4.581 -5.496 10.510 
161 1 -5.711 -10.445 12.359 
162 1 4.918 -13.516 9.122 
163 1 0.920 -6.863 -6.411 
164 1 2.553 8.494 13.641 
165 1 -4.443 11.551 -6.219 
166 1 -3.726 -5.311 -11.247 
167 1 -1.605 4.731 5.469 
168 1 4.521 5.143 1.232 
169 1 -5.626 4.619 -1.556 
170 1 -9.335 9.192 4.476 
171 1 1.200 0.074 -4.235 
172 1 0.179 7.445 5.512 
173 1 -2.714 7.289 -0.669 
174 1 -13.683 -6.595 13.368 
175 1 7.852 -6.383 9.647 
176 1 1.584 1.640 11.674 
177 1 10.001 11.048 -5.081 
178 1 -1.427 -1.482 2.857 
179 1 -7.480 13.032 7.366 
180 1 -2.040 -6.657 -4.072 
181 1 -12.243 -9.003 8.467 
182 1 -5.505 -8.818 5.087 
183 1 12.377 2.948 2.436 
184 1 -4.490 11.880 -9.882 
185 1 12.389 -1.783 -0.399 
186 1 -0.874 11.289 -7.822 
187 1 -6.338 12.804 12.920 
188 1 5.924 6.095 5.960 
189 1 -12.706 9.721 7.179 
190 1 3.291 -7.757 3.252 
191 1 -3.698 -11.711 6.481 
192 1 -6.593 -2.071 -9.885 
193 1 -5.555 -13.014 -11.005 
194 1 2.686 10.024 -6.520 
195 1 -12.371 6.757 4.905 
196 1 -10.183 8.086 -13.287 
197 1 -3.995 2.908 10.520 
198 1 -0.427 -0.329 -12.934 
199 1 6.843 -2.019 1.112 
200 1 2.111 -9.840 -8.813 
ITEM: TIMESTEP
20000
ITEM: NUMBER OF ATOMS
200
ITEM: BOX BOUNDS pp pp pp
-13.898096441678897 13.898096441678897
-13.898096441678897 13.898096441678897
-13.898096441678897 13.898096441678897
ITEM: ATOMS id type x y z
1 1 8.590 6.569 4.376 
2 1 1.204 7.463 -2.348 
3 1 2.511 4.090 -12.375 
4 1 -3.415 8.016 9.191 
5 1 -10.512 -5.173 2.984 
6 1 5.004 -12.230 2.956 
7 1 7.523 -3.951 6.233 
8 1 3.557 10.313 -10.790 
9 1 4.286 9.077 -1.604 
10 1 -9.437 13.752 -2.091 
11 1 -1.449 -10.620 3.932 
12 1 11.364 12.852 9.533 
13 1 -8.735 -8.276 -1.380 
14 1 10.172 -10.275 9.857 
15 1 5.280 1.632 -10.295 
16 1 -0.384 7.969 -9.773 
17 1 -6.232 -12.412 0.985 
18 1 -0.942 -13.501 -4.993 
19 1 -8.086 2.637 8.643 
20 1 -2.307 1.768 -0.508 
21 1 3.533 -0.841 -12.082 
22 1 -1.925 -10.083 -8.770 
23 1 12.656 9.085 -9.861 
24 1 -12.644 8.113 -7.508 
25 1 -9.713 -12.066 -10.806 
26 1 4.802 -12.678 -8.163 
27 1 -12.777 3.136 6.405 
28 1 -9.376 12.075 -7.333 
29 1 -3.457 7.555 -6.383 
30 1 -7.999 -3.759 6.998 
31 1 -4.574 -2.225 0.885 
32 1 2.508 12.426 3.291 
33 1 0.768 4.047 -7.099 
34 1 -11.985 4.891 13.511 
35 1 0.549 -10.062 8.856 
36 1 -13.797 1.627 -13.071 
37 1 6.616 -0.697 11.941 
38 1 -2.584 -6.975 0.675 
39 1 -9.804 7.703 9.029 
40 1 1.482 5.108 11.548 
41 1 -4.398 -9.582 -0.371 
42 1 -12.005 -12.870 -5.755 
43 1 -11.913 0.011 2.635 
44 1 4.253 4.972 -4.539 
45 1 13.396 -9.281 -5.208 
46 1 -10.943 11.832 8.411 
47 1 -7.947 -5.882 10.114 
48 1 1.873 -10.902 1.588 
49 1 2.232 1.759 8.537 
50 1 3.060 7.194 -10.871 
51 1 -2.398 11.689 4.654 
52 1 2.050 5.537 7.622 
53 1 9.206 -10.940 -7.615 
54 1 6.526 -11.957 -3.787 
55 1 0.308 -7.002 13.322 
56 1 -6.905 0.685 11.663 
57 1 6.953 9.141 2.607 
58 1 9.915 0.179 13.201 
59 1 4.101 -9.916 13.880 
60 1 2.897 -0.167 -1.024 
61 1 11.370 -12.432 5.167 
62 1 -10.765 -1.686 -9.882 
63 1 10.258 11.589 2.950 
64 1 -9.840 -11.526 2.509 
65 1 -7.063 5.901 11.958 
66 1 -5.941 -13.639 -4.112 
67 1 12.970 7.351 8.371 
68 1 9.136 2.613 -4.745 
69 1 4.992 -3.595 10.868 
70 1 -5.929 8.176 5.985 
71 1 -9.464 2.045 0.093 
72 1 10.645 -7.155 -0.341 
73 1 -8.137 12.773 1.188 
74 1 12.964 -1.377 -11.670 
75 1 -1.130 -11.179 -0.696 
76 1 7.247 -11.398 12.891 
77 1 -4.906 -5.547 6.623 
78 1 4.952 -5.716 -7.132 
79 1 6.065 -11.549 -10.718 
80 1 -12.658 -2.097 5.768 
81 1 -0.195 -2.881 -10.444 
82 1 -5.226 11.400 2.331 
83 1 -3.620 -11.328 -3.991 
84 1 -9.319 -1.502 13.541 
85 1 -12.619 11.476 11.229 
86 1 -0.900 -9.716 -5.311 
87 1 -8.904 4.564 -12.132 
88 1 1.025 7.315 -6.869 
89 1 0.861 -3.599 -7.060 
90 1 1.956 2.953 -2.471 
91 1 -11.384 -9.614 4.767 
92 1 1.659 -12.017 5.181 
93 1 -7.529 1.644 -6.930 
94 1 12.639 9.483 -13.258 
95 1 0.526 12.547 -2.160 
96 1 -13.645 7.342 -4.121 
97 1 -4.720 4.372 6.698 
98 1 -10.320 5.142 -5.522 
99 1 -5.833 11.377 -1.492 
100 1 5.979 -1.854 -4.332 
101 1 0.877 10.466 6.505 
102 1 -5.778 -5.635 2.183 
103 1 -9.487 -6.850 -6.603 
104 1 -7.601 7.706 -6.500 
105 1 -1.557 11.841 9.727 
106 1 3.657 -4.932 13.751 
107 1 0.499 -2.163 -0.632 
108 1 9.980 11.864 12.840 
109 1 -6.489 8.405 0.657 
110 1 -1.818 4.798 8.646 
111 1 -1.220 -6.915 10.134 
112 1 4.340 9.414 7.037 
113 1 -13.875 5.411 -11.207 
114 1 5.532 8.899 10.709 
115 1 -7.759 -9.364 -9.597 
116 1 0.717 -4.231 5.211 
117 1 10.660 -3.622 2.855 
118 1 -3.242 -2.138 -2.493 
119 1 12.208 -12.343 -9.022 
120 1 -1.944 -2.253 8.484 
121 1 7.750 7.025 12.784 
122 1 -2.916 4.370 -7.289 
123 1 -1.338 11.200 1.474 
124 1 -0.116 4.574 0.667 
125 1 6.613 -5.591 -3.924 
126 1 -11.132 -5.140 7.762 
127 1 -5.075 1.107 7.754 
128 1 -11.973 11.931 -3.717 
129 1 -6.206 9.357 -12.730 
130 1 6.318 -7.681 13.417 
131 1 -4.889 -5.916 -1.665 
132 1 -11.833 12.795 3.559 
133 1 7.472 -6.619 -9.959 
134 1 -12.754 -12.293 12.670 
135 1 9.416 -1.056 9.629 
136 1 -3.952 -1.398 11.394 
137 1 -1.851 0.775 6.732 
138 1 -2.799 10.297 -2.926 
139 1 -4.808 -9.390 -12.139 
140 1 1.139 13.802 12.957 
141 1 -2.193 -1.615 -7.983 
142 1 -7.611 -0.486 3.554 
143 1 -6.351 -8.972 -6.038 
144 1 -4.277 11.744 7.918 
145 1 -11.110 -11.963 8.448 
146 1 -6.957 -3.509 -6.544 
147 1 -9.987 -0.240 -3.685 
148 1 -1.001 7.835 2.725 
149 1 -7.658 -5.445 -12.755 
150 1 -4.943 -9.159 8.163 
151 1 5.560 1.528 3.285 
152 1 -11.345 10.047 1.396 
153 1 2.385 -1.469 6.704 
154 1 -2.740 -13.734 -13.391 
155 1 -1.386 10.129 13.068 
156 1 -1.110 4.985 -3.781 
157 1 11.850 8.802 10.955 
158 1 -3.246 2.785 13.867 
159 1 -9.844 8.821 -9.291 
160 1 -4.272 -5.751 10.552 
161 1 -5.626 -11.064 12.623 
162 1 5.044 -13.342 9.441 
163 1 1.614 -7.598 -6.838 
164 1 1.790 9.041 -13.242 
165 1 -4.264 11.452 -6.222 
166 1 -4.333 -5.836 -11.945 
167 1 -1.265 3.904 4.562 
168 1 4.673 5.093 0.415 
169 1 -5.077 5.460 -2.358 
170 1 -8.779 9.516 3.222 
171 1 1.391 0.366 -4.825 
172 1 -0.924 7.547 6.412 
173 1 -2.336 7.250 -0.842 
174 1 -13.518 -5.880 13.891 
175 1 8.053 -5.922 9.527 
176 1 1.725 2.074 12.660 
177 1 11.008 10.728 -5.537 
178 1 -1.053 -1.672 2.688 
179 1 -8.070 13.178 6.774 
180 1 -1.625 -7.357 -3.333 
181 1 -12.912 -8.939 9.063 
182 1 -6.349 -9.371 4.475 
183 1 11.470 3.906 3.128 
184 1 -5.182 12.255 -9.707 
185 1 12.342 -2.049 -0.793 
186 1 -1.259 10.631 -8.161 
187 1 -7.056 12.627 11.763 
188 1 5.768 5.049 6.282 
189 1 -13.422 9.589 6.698 
190 1 3.475 -7.950 3.500 
191 1 -4.114 -12.560 6.231 
192 1 -6.052 -1.370 -9.947 
193 1 -5.919 -12.183 -9.522 
194 1 2.918 10.822 -6.999 
195 1 -11.849 6.506 5.032 
196 1 -9.616 7.585 -12.726 
197 1 -4.125 2.604 10.412 
198 1 0.064 -0.053 -12.680 
199 1 6.927 -2.052 1.695 
200 1 1.541 -10.366 -9.252 
