ITEM: TIMESTEP
0
ITEM: NUMBER OF ATOMS
200
ITEM: BOX BOUNDS pp pp pp
-13.898096441678897 13.898096441678897
-13.898096441678897 13.898096441678897
-13.898096441678897 13.898096441678897
ITEM: ATOMS id type x y z
1 1 3.868 3.655 2.857 
2 1 4.189 11.455 1.291 
3 1 3.038 1.642 -10.527 
4 1 -2.060 6.648 7.561 
5 1 -9.639 -3.162 3.601 
6 1 3.411 12.378 8.678 
7 1 4.284 -3.076 5.085 
8 1 1.806 10.558 11.079 
9 1 4.356 12.035 3.758 
10 1 -6.953 7.012 -1.681 
11 1 -1.027 -10.751 4.556 
12 1 10.607 12.089 7.236 
13 1 -7.561 -6.198 -1.944 
14 1 -13.611 -8.276 6.210 
15 1 6.700 1.578 11.055 
16 1 -0.204 13.231 -9.067 
17 1 -3.028 -9.795 1.121 
18 1 -0.078 -10.404 -4.551 
19 1 -6.462 1.887 5.405 
20 1 -1.208 1.026 -4.272 
21 1 0.761 -4.044 -12.632 
22 1 -1.876 -7.616 -8.641 
23 1 8.739 8.706 -9.380 
24 1 12.125 9.405 -7.117 
25 1 -9.340 10.221 10.037 
26 1 5.725 -11.227 -12.498 
27 1 -13.640 1.483 3.774 
28 1 -11.687 10.508 -6.960 
29 1 -0.493 4.978 -5.352 
30 1 -9.184 -3.661 6.563 
31 1 -7.367 1.957 3.947 
32 1 0.430 10.816 5.785 
33 1 0.506 -0.850 -9.046 
34 1 -12.092 7.007 11.088 
35 1 -3.515 -10.791 7.200 
36 1 -10.795 2.081 11.429 
37 1 3.856 -7.822 13.059 
38 1 -2.877 -10.075 3.369 
39 1 -7.619 4.395 6.796 
40 1 0.082 4.069 -11.963 
41 1 -1.046 -7.406 -3.744 
42 1 13.722 -13.628 -9.627 
43 1 -13.717 -2.868 2.182 
44 1 2.342 -1.834 -9.343 
45 1 5.038 -13.035 -3.863 
46 1 -6.055 13.360 7.422 
47 1 -9.355 -8.010 7.536 
48 1 2.551 -13.189 2.756 
49 1 5.230 1.203 9.870 
50 1 4.681 8.863 -10.084 
51 1 -5.855 9.964 5.158 
52 1 2.200 6.238 9.244 
53 1 5.910 -10.763 -8.935 
54 1 10.490 11.821 1.175 
55 1 3.647 -4.407 -10.921 
56 1 -9.436 0.925 12.493 
57 1 5.562 8.860 6.105 
58 1 13.179 -2.259 -8.077 
59 1 5.032 -10.186 -10.463 
60 1 -0.113 2.298 -0.780 
61 1 12.077 10.619 3.620 
62 1 -10.608 -5.557 -10.313 
63 1 5.630 13.132 8.314 
64 1 -7.999 -9.547 2.727 
65 1 -7.024 5.859 8.664 
66 1 -8.711 11.924 -3.580 
67 1 10.702 2.546 5.244 
68 1 11.601 4.203 -6.152 
69 1 1.801 -6.927 -13.778 
70 1 -6.424 9.639 6.635 
71 1 13.687 1.159 3.743 
72 1 8.844 -12.332 2.052 
73 1 -8.125 -13.322 1.398 
74 1 -9.265 0.938 -11.954 
75 1 0.593 -9.934 0.718 
76 1 9.162 12.902 12.379 
77 1 -3.469 -7.556 1.341 
78 1 2.628 -9.012 -9.850 
79 1 5.184 -9.838 -13.594 
80 1 -13.433 -2.333 4.334 
81 1 -1.674 -4.665 -8.859 
82 1 -6.416 12.229 6.023 
83 1 -4.520 -11.136 -3.261 
84 1 -5.436 1.303 8.250 
85 1 -13.048 9.594 -11.841 
86 1 -3.017 -8.986 -6.455 
87 1 -4.816 9.319 -8.003 
88 1 -0.357 3.300 -4.474 
89 1 -2.721 -2.420 -5.584 
90 1 3.966 3.502 -1.877 
91 1 12.337 -10.124 2.474 
92 1 0.068 12.293 5.635 
93 1 -7.623 3.946 -7.611 
94 1 11.445 5.385 -6.953 
95 1 0.914 13.047 4.423 
96 1 -8.811 5.353 -3.976 
97 1 -4.056 4.887 7.069 
98 1 -11.762 2.588 -7.672 
99 1 -5.400 9.637 -2.469 
100 1 3.222 -1.951 -4.951 
101 1 -0.615 11.202 5.896 
102 1 -9.805 -7.877 3.045 
103 1 13.818 -4.070 -8.158 
104 1 -8.711 9.808 -11.442 
105 1 -5.404 -11.254 8.979 
106 1 6.874 -5.682 -10.496 
107 1 -0.622 -2.069 1.170 
108 1 7.838 10.530 -11.785 
109 1 -7.149 7.945 4.442 
110 1 -1.393 4.670 9.515 
111 1 1.317 -4.086 9.826 
112 1 8.669 12.990 8.998 
113 1 -12.083 3.981 -10.772 
114 1 8.019 5.051 8.465 
115 1 -8.357 -8.743 -11.477 
116 1 0.712 -2.789 -0.951 
117 1 9.014 -3.939 4.315 
118 1 -7.263 -3.789 -2.812 
119 1 9.934 -10.262 -10.205 
120 1 -3.658 -2.072 8.077 
121 1 4.734 2.938 -13.357 
122 1 -7.118 8.828 -5.325 
123 1 -5.274 10.198 2.923 
124 1 3.717 2.841 5.757 
125 1 0.731 -2.792 -8.972 
126 1 -9.470 -7.318 7.839 
127 1 -4.349 2.316 7.791 
128 1 12.882 11.573 -3.951 
129 1 0.636 10.701 13.081 
130 1 9.722 -3.591 -10.184 
131 1 -4.474 0.144 4.073 
132 1 -10.064 10.571 6.425 
133 1 7.431 -1.749 -9.813 
134 1 12.106 -13.543 11.715 
135 1 11.522 -4.865 4.356 
136 1 -2.690 -1.797 10.112 
137 1 1.171 5.503 1.320 
138 1 -1.174 12.591 -2.868 
139 1 -5.016 -10.700 -10.858 
140 1 -2.160 13.512 9.274 
141 1 -5.536 0.215 -4.845 
142 1 -9.644 1.265 6.237 
143 1 -5.405 -6.365 -2.684 
144 1 -2.733 13.446 8.497 
145 1 -7.168 8.096 5.871 
146 1 -6.320 -4.074 -7.720 
147 1 -12.111 -4.560 -6.053 
148 1 0.151 7.413 6.503 
149 1 -6.073 -3.285 -11.333 
150 1 -3.931 -10.449 5.862 
151 1 5.336 1.810 -0.389 
152 1 -7.570 3.170 5.248 
153 1 2.670 -2.482 7.858 
154 1 -3.515 -11.386 -13.709 
155 1 -4.739 7.755 13.067 
156 1 -0.937 6.880 -1.237 
157 1 11.387 8.686 -13.172 
158 1 -3.117 -2.572 11.695 
159 1 -12.199 7.329 -10.608 
160 1 -7.522 -3.671 10.659 
161 1 -5.742 -11.753 -13.758 
162 1 4.607 -9.160 5.388 
163 1 -0.609 -5.804 -6.236 
164 1 5.088 11.715 8.604 
165 1 -5.127 9.802 -6.174 
166 1 -5.075 -4.425 -10.874 
167 1 -3.337 3.479 3.933 
168 1 -0.733 6.640 0.169 
169 1 -4.682 -0.279 3.699 
170 1 -6.923 9.018 5.118 
171 1 3.674 1.397 -1.384 
172 1 3.428 10.145 6.055 
173 1 -2.958 7.392 -0.981 
174 1 -13.637 -4.128 -12.180 
175 1 9.903 -3.665 11.270 
176 1 4.298 2.082 12.247 
177 1 10.651 12.645 -9.322 
178 1 3.197 2.673 4.590 
179 1 -5.881 -12.620 7.085 
180 1 -3.719 -5.554 -2.786 
181 1 10.434 -10.817 8.677 
182 1 -6.814 -4.842 3.661 
183 1 4.999 2.732 3.333 
184 1 -2.575 8.734 -8.237 
185 1 11.890 0.226 -0.419 
186 1 -1.439 12.683 -7.774 
187 1 -3.760 -12.411 11.750 
188 1 7.260 6.036 6.199 
189 1 11.207 8.747 9.036 
190 1 4.034 -10.755 5.255 
191 1 -2.883 -13.177 4.201 
192 1 -5.248 -4.173 -10.151 
193 1 -7.446 -10.513 -10.147 
194 1 4.640 10.482 -4.301 
195 1 -11.841 1.790 8.337 
196 1 -5.009 8.453 11.921 
197 1 -4.727 1.859 10.393 
198 1 -1.409 0.864 12.995 
199 1 9.071 0.328 0.425 
200 1 5.975 -11.540 -7.171 
ITEM: TIMESTEP
10
ITEM: NUMBER OF ATOMS
200
ITEM: BOX BOUNDS pp pp pp
-13.898096441678897 13.898096441678897
-13.898096441678897 13.898096441678897
-13.898096441678897 13.898096441678897
ITEM: ATOMS id type x y z
1 1 3.705 3.814 2.760 
2 1 4.189 11.455 1.290 
3 1 3.038 1.642 -10.527 
4 1 -2.060 6.648 7.561 
5 1 -9.639 -3.162 3.601 
6 1 3.322 12.417 8.681 
7 1 4.284 -3.076 5.085 
8 1 1.809 10.558 11.075 
9 1 4.356 12.036 3.759 
10 1 -6.953 7.012 -1.681 
11 1 -1.022 -10.752 4.559 
12 1 10.608 12.088 7.236 
13 1 -7.567 -6.198 -1.941 
14 1 -13.611 -8.276 6.210 
15 1 6.740 1.588 11.086 
16 1 -0.158 13.251 -9.115 
17 1 -3.027 -9.800 1.114 
18 1 -0.078 -10.404 -4.551 
19 1 -6.313 1.783 5.520 
20 1 -1.209 1.023 -4.272 
21 1 0.761 -4.044 -12.632 
22 1 -1.876 -7.616 -8.641 
23 1 8.739 8.706 -9.380 
24 1 12.125 9.405 -7.117 
25 1 -9.340 10.221 10.037 
26 1 5.749 -11.286 -12.455 
27 1 -13.048 1.892 3.813 
28 1 -11.687 10.508 -6.960 
29 1 -0.498 5.031 -5.380 
30 1 -9.184 -3.661 6.563 
31 1 -7.421 1.905 3.783 
32 1 0.828 10.595 5.750 
33 1 0.487 -0.802 -9.046 
34 1 -12.092 7.007 11.088 
35 1 -3.431 -10.859 7.464 
36 1 -10.809 2.093 11.418 
37 1 3.858 -7.822 13.057 
38 1 -2.880 -10.074 3.372 
39 1 -7.620 4.424 6.835 
40 1 0.082 4.069 -11.963 
41 1 -1.046 -7.406 -3.743 
42 1 13.722 -13.628 -9.627 
43 1 -13.718 -2.870 2.174 
44 1 2.401 -1.815 -9.356 
45 1 5.038 -13.035 -3.863 
46 1 -6.045 13.336 7.506 
47 1 -9.261 -8.576 7.289 
48 1 2.552 -13.189 2.755 
49 1 5.191 1.193 9.838 
50 1 4.681 8.863 -10.084 
51 1 -5.375 10.273 5.093 
52 1 2.200 6.238 9.244 
53 1 5.947 -10.766 -8.920 
54 1 10.490 11.821 1.175 
55 1 3.647 -4.407 -10.921 
56 1 -9.422 0.913 12.504 
57 1 5.564 8.859 6.105 
58 1 13.161 -2.210 -8.075 
59 1 4.993 -10.159 -10.527 
60 1 -0.113 2.298 -0.780 
61 1 12.077 10.619 3.620 
62 1 -10.608 -5.557 -10.312 
63 1 5.712 13.347 8.270 
64 1 -7.997 -9.549 2.726 
65 1 -7.023 5.861 8.666 
66 1 -8.711 11.924 -3.580 
67 1 10.702 2.546 5.244 
68 1 11.632 3.966 -5.991 
69 1 1.799 -6.926 -13.777 
70 1 -6.423 9.658 6.851 
71 1 13.094 0.751 3.704 
72 1 8.844 -12.332 2.052 
73 1 -8.125 -13.322 1.398 
74 1 -9.265 0.938 -11.954 
75 1 0.593 -9.934 0.718 
76 1 9.162 12.902 12.379 
77 1 -3.471 -7.550 1.341 
78 1 2.627 -9.012 -9.850 
79 1 5.162 -9.780 -13.640 
80 1 -13.432 -2.331 4.341 
81 1 -1.674 -4.665 -8.859 
82 1 -6.434 12.179 5.955 
83 1 -4.520 -11.136 -3.261 
84 1 -5.597 1.153 8.313 
85 1 -13.049 9.594 -11.841 
86 1 -3.017 -8.986 -6.455 
87 1 -4.812 9.307 -8.054 
88 1 -0.352 3.250 -4.447 
89 1 -2.721 -2.420 -5.584 
90 1 3.967 3.514 -1.880 
91 1 12.337 -10.124 2.474 
92 1 0.105 12.544 5.792 
93 1 -7.623 3.946 -7.611 
94 1 11.414 5.622 -7.113 
95 1 1.059 13.161 4.198 
96 1 -8.811 5.353 -3.976 
97 1 -4.057 4.888 7.069 
98 1 -11.762 2.588 -7.672 
99 1 -5.400 9.637 -2.469 
100 1 3.222 -1.951 -4.951 
101 1 -1.196 11.057 6.000 
102 1 -9.807 -7.876 3.045 
103 1 13.836 -4.119 -8.160 
104 1 -8.711 9.808 -11.442 
105 1 -5.405 -11.252 8.983 
106 1 6.874 -5.682 -10.496 
107 1 -0.623 -2.069 1.171 
108 1 7.838 10.530 -11.785 
109 1 -7.191 7.602 4.139 
110 1 -1.393 4.670 9.515 
111 1 1.317 -4.087 9.826 
112 1 8.669 12.990 8.998 
113 1 -12.083 3.981 -10.772 
114 1 8.019 5.051 8.466 
115 1 -8.359 -8.741 -11.479 
116 1 0.713 -2.790 -0.952 
117 1 9.014 -3.939 4.315 
118 1 -7.262 -3.788 -2.812 
119 1 9.934 -10.262 -10.205 
120 1 -3.662 -2.073 8.071 
121 1 4.735 2.939 -13.354 
122 1 -7.121 8.826 -5.324 
123 1 -5.273 10.198 2.914 
124 1 3.865 2.888 6.087 
125 1 0.690 -2.859 -8.960 
126 1 -9.564 -6.753 8.086 
127 1 -4.189 2.464 7.723 
128 1 12.882 11.573 -3.951 
129 1 0.634 10.701 13.085 
130 1 9.722 -3.591 -10.184 
131 1 -4.229 0.640 4.511 
132 1 -10.064 10.571 6.425 
133 1 7.430 -1.749 -9.813 
134 1 12.107 -13.543 11.715 
135 1 11.522 -4.865 4.356 
136 1 -2.665 -1.756 10.036 
137 1 1.174 5.501 1.321 
138 1 -1.174 12.591 -2.868 
139 1 -5.014 -10.700 -10.858 
140 1 -1.851 13.548 9.694 
141 1 -5.536 0.215 -4.845 
142 1 -9.644 1.265 6.237 
143 1 -5.461 -6.395 -2.682 
144 1 -3.042 13.410 8.077 
145 1 -7.239 7.787 6.217 
146 1 -6.325 -4.074 -7.711 
147 1 -12.111 -4.560 -6.053 
148 1 0.152 7.413 6.502 
149 1 -6.181 -3.162 -11.374 
150 1 -4.014 -10.382 5.599 
151 1 5.367 1.817 -0.370 
152 1 -7.665 3.296 5.256 
153 1 2.670 -2.482 7.858 
154 1 -3.508 -11.384 -13.708 
155 1 -4.676 7.591 13.336 
156 1 -0.960 6.923 -1.520 
157 1 11.387 8.686 -13.172 
158 1 -3.140 -2.612 11.777 
159 1 -12.199 7.329 -10.608 
160 1 -7.522 -3.671 10.659 
161 1 -5.749 -11.754 -13.758 
162 1 4.659 -9.017 5.400 
163 1 -0.609 -5.804 -6.236 
164 1 5.095 11.461 8.644 
165 1 -5.133 9.818 -6.124 
166 1 -4.852 -4.725 -11.416 
167 1 -3.337 3.480 3.933 
168 1 -0.695 6.594 0.447 
169 1 -4.926 -0.775 3.261 
170 1 -7.293 9.340 4.931 
171 1 3.642 1.379 -1.401 
172 1 3.427 10.146 6.055 
173 1 -2.976 7.396 -0.978 
174 1 -13.637 -4.128 -12.180 
175 1 9.903 -3.665 11.270 
176 1 4.297 2.082 12.245 
177 1 10.651 12.645 -9.322 
178 1 3.031 2.609 4.288 
179 1 -5.874 -12.544 7.066 
180 1 -3.657 -5.524 -2.790 
181 1 10.434 -10.817 8.677 
182 1 -6.814 -4.842 3.661 
183 1 5.180 2.589 3.402 
184 1 -2.570 8.733 -8.237 
185 1 11.891 0.226 -0.419 
186 1 -1.485 12.662 -7.726 
187 1 -3.760 -12.412 11.748 
188 1 7.260 6.037 6.198 
189 1 11.207 8.747 9.036 
190 1 3.982 -10.899 5.243 
191 1 -2.883 -13.177 4.201 
192 1 -5.360 -3.996 -9.578 
193 1 -7.446 -10.515 -10.145 
194 1 4.640 10.482 -4.301 
195 1 -11.841 1.790 8.337 
196 1 -5.073 8.617 11.651 
197 1 -4.725 1.860 10.397 
198 1 -1.409 0.864 12.995 
199 1 9.070 0.328 0.425 
200 1 5.977 -11.562 -7.120 
ITEM: TIMESTEP
20
ITEM: NUMBER OF ATOMS
200
ITEM: BOX BOUNDS pp pp pp
-13.898096441678897 13.898096441678897
-13.898096441678897 13.898096441678897
-13.898096441678897 13.898096441678897
ITEM: ATOMS id type x y z
1 1 4.019 4.377 2.338 
2 1 4.157 11.358 0.880 
3 1 3.019 1.646 -10.511 
4 1 -2.149 7.050 7.803 
5 1 -9.700 -3.117 3.474 
6 1 2.754 12.771 8.639 
7 1 4.321 -3.090 5.024 
8 1 2.044 10.446 10.687 
9 1 4.479 12.264 4.009 
10 1 -6.982 6.958 -1.639 
11 1 -0.354 -10.967 4.962 
12 1 10.807 11.995 7.050 
13 1 -8.405 -6.350 -1.508 
14 1 -13.609 -8.275 6.207 
15 1 7.350 1.692 11.424 
16 1 0.291 13.451 -9.585 
17 1 -3.005 -10.277 -0.077 
18 1 -0.059 -10.466 -4.568 
19 1 -6.399 1.774 5.698 
20 1 -1.543 0.305 -4.256 
21 1 0.699 -3.905 -12.598 
22 1 -1.778 -7.791 -8.860 
23 1 8.767 8.659 -9.316 
24 1 12.131 9.430 -7.119 
25 1 -9.334 10.216 10.040 
26 1 6.307 -12.418 -12.317 
27 1 -12.486 2.274 3.855 
28 1 -11.689 10.507 -6.960 
29 1 -0.602 5.805 -5.826 
30 1 -9.148 -3.603 6.639 
31 1 -7.423 1.132 2.739 
32 1 1.310 9.968 4.881 
33 1 0.104 -0.109 -9.015 
34 1 -12.090 7.007 11.087 
35 1 -2.684 -11.003 8.014 
36 1 -11.187 2.486 11.243 
37 1 3.888 -7.259 12.335 
38 1 -2.690 -9.677 2.991 
39 1 -7.832 4.214 7.510 
40 1 0.085 4.065 -11.964 
41 1 -1.033 -7.501 -3.611 
42 1 13.741 -13.621 -9.629 
43 1 -13.790 -3.000 1.638 
44 1 3.241 -1.588 -9.487 
45 1 4.957 -13.136 -3.646 
46 1 -6.212 13.017 8.650 
47 1 -9.155 -9.196 7.011 
48 1 3.069 -12.626 2.256 
49 1 4.817 0.939 9.160 
50 1 4.685 8.864 -10.084 
51 1 -4.934 9.893 5.098 
52 1 2.204 6.237 9.249 
53 1 6.736 -10.676 -9.019 
54 1 10.447 11.855 1.112 
55 1 3.673 -4.485 -10.951 
56 1 -8.992 0.543 12.735 
57 1 6.122 8.689 6.104 
58 1 12.937 -1.562 -8.040 
59 1 4.564 -9.630 -11.077 
60 1 -0.115 2.298 -0.758 
61 1 12.117 10.589 3.686 
62 1 -10.607 -5.555 -10.309 
63 1 5.796 -13.810 8.087 
64 1 -7.670 -9.843 2.675 
65 1 -6.661 6.471 9.601 
66 1 -8.707 11.919 -3.581 
67 1 10.669 2.580 5.269 
68 1 11.708 3.406 -5.613 
69 1 1.309 -6.868 -13.528 
70 1 -6.388 9.951 7.908 
71 1 12.550 0.354 3.628 
72 1 8.846 -12.334 2.053 
73 1 -8.122 -13.324 1.401 
74 1 -9.271 0.947 -11.858 
75 1 0.596 -9.936 0.723 
76 1 9.129 12.881 12.433 
77 1 -3.581 -7.033 1.388 
78 1 1.996 -8.744 -9.530 
79 1 5.461 -9.813 13.755 
80 1 -13.340 -2.221 4.891 
81 1 -2.052 -4.721 -8.953 
82 1 -6.872 12.593 5.320 
83 1 -4.516 -11.131 -3.262 
84 1 -6.290 0.347 8.658 
85 1 -13.141 9.856 -11.979 
86 1 -3.127 -9.106 -6.251 
87 1 -5.322 9.236 -8.771 
88 1 0.102 3.226 -4.021 
89 1 -2.733 -2.453 -5.603 
90 1 4.006 4.045 -2.018 
91 1 12.336 -10.123 2.476 
92 1 0.033 13.433 6.735 
93 1 -7.626 3.947 -7.609 
94 1 11.335 6.162 -7.497 
95 1 0.936 12.819 3.713 
96 1 -8.828 5.335 -4.001 
97 1 -4.585 5.239 6.735 
98 1 -11.759 2.579 -7.647 
99 1 -5.388 9.734 -2.454 
100 1 3.216 -1.949 -4.952 
101 1 -2.348 10.874 6.726 
102 1 -10.126 -7.574 3.107 
103 1 13.869 -4.762 -8.435 
104 1 -8.714 9.806 -11.440 
105 1 -5.759 -11.032 9.580 
106 1 6.881 -5.697 -10.495 
107 1 -0.815 -1.964 1.472 
108 1 7.818 10.580 -11.849 
109 1 -7.041 6.906 3.317 
110 1 -1.336 4.500 9.668 
111 1 1.215 -4.204 9.973 
112 1 8.620 13.044 9.191 
113 1 -12.082 3.921 -10.803 
114 1 8.132 4.899 8.815 
115 1 -8.529 -8.359 -11.775 
116 1 0.901 -2.889 -1.258 
117 1 8.704 -3.823 4.310 
118 1 -7.189 -3.499 -2.934 
119 1 9.939 -10.263 -10.209 
120 1 -4.043 -2.232 7.463 
121 1 4.873 3.160 -12.849 
122 1 -7.602 8.562 -5.211 
123 1 -5.352 10.193 2.006 
124 1 4.205 3.064 6.713 
125 1 0.720 -3.415 -8.809 
126 1 -9.680 -6.209 8.406 
127 1 -3.512 2.244 7.689 
128 1 12.884 11.571 -3.954 
129 1 0.366 10.736 13.538 
130 1 9.858 -3.682 -10.201 
131 1 -3.411 0.647 4.741 
132 1 -10.194 10.618 6.530 
133 1 7.303 -1.654 -9.794 
134 1 12.141 -13.526 11.702 
135 1 11.835 -4.980 4.360 
136 1 -2.041 -1.207 9.954 
137 1 1.361 5.346 1.285 
138 1 -1.176 12.591 -2.871 
139 1 -4.626 -10.673 -10.873 
140 1 -1.368 13.550 10.239 
141 1 -5.533 0.211 -4.846 
142 1 -9.619 1.186 6.189 
143 1 -5.521 -7.009 -2.981 
144 1 -3.228 13.508 7.511 
145 1 -7.496 7.215 6.578 
146 1 -6.871 -4.142 -6.857 
147 1 -11.920 -4.567 -5.821 
148 1 0.617 7.342 6.316 
149 1 -6.708 -2.645 -11.814 
150 1 -4.781 -9.866 5.730 
151 1 5.892 1.901 -0.037 
152 1 -8.384 3.879 4.366 
153 1 2.735 -2.345 7.776 
154 1 -2.884 -11.172 -13.465 
155 1 -4.542 7.245 -13.893 
156 1 -0.494 6.896 -2.368 
157 1 11.381 8.688 -13.170 
158 1 -3.385 -2.995 12.463 
159 1 -12.102 7.141 -10.459 
160 1 -7.520 -3.668 10.655 
161 1 -6.284 -11.847 -13.793 
162 1 4.889 -8.375 5.453 
163 1 -0.530 -5.733 -6.247 
164 1 5.504 10.624 8.852 
165 1 -4.683 10.283 -5.602 
166 1 -4.423 -5.390 -12.211 
167 1 -3.286 3.750 3.846 
168 1 -1.244 6.869 1.037 
169 1 -5.192 -1.332 2.807 
170 1 -8.043 9.762 4.450 
171 1 3.059 0.765 -1.598 
172 1 3.830 10.428 6.452 
173 1 -3.580 7.525 -0.891 
174 1 -13.639 -4.127 -12.176 
175 1 9.902 -3.664 11.270 
176 1 3.940 2.009 12.073 
177 1 10.629 12.630 -9.321 
178 1 2.251 2.047 4.139 
179 1 -6.257 -12.435 6.531 
180 1 -2.881 -4.982 -2.780 
181 1 10.434 -10.823 8.678 
182 1 -6.776 -4.866 3.663 
183 1 5.832 2.177 3.562 
184 1 -2.024 8.612 -8.207 
185 1 12.053 0.219 -0.462 
186 1 -1.937 12.460 -7.253 
187 1 -3.795 -12.572 11.518 
188 1 7.281 5.880 5.826 
189 1 11.204 8.748 9.037 
190 1 3.763 -11.525 5.243 
191 1 -2.915 -13.252 4.193 
192 1 -4.890 -3.716 -9.205 
193 1 -7.703 -10.888 -9.706 
194 1 4.640 10.486 -4.301 
195 1 -11.972 1.783 8.266 
196 1 -5.191 8.989 11.097 
197 1 -4.535 2.027 10.888 
198 1 -1.410 0.864 12.994 
199 1 8.919 0.330 0.478 
200 1 5.956 -11.930 -6.308 
ITEM: TIMESTEP
30
ITEM: NUMBER OF ATOMS
200
ITEM: BOX BOUNDS pp pp pp
-13.898096441678897 13.898096441678897
-13.898096441678897 13.898096441678897
-13.898096441678897 13.898096441678897
ITEM: ATOMS id type x y z
1 1 4.642 4.695 2.606 
2 1 3.973 11.443 0.586 
3 1 2.744 2.050 -10.474 
4 1 -2.569 7.283 8.351 
5 1 -9.910 -2.928 3.094 
6 1 2.744 13.373 9.249 
7 1 4.607 -3.127 4.721 
8 1 2.044 9.932 10.475 
9 1 4.629 12.631 4.176 
10 1 -7.394 7.001 -1.351 
11 1 0.027 -10.852 5.001 
12 1 11.107 11.914 6.825 
13 1 -8.581 -6.412 -1.203 
14 1 -13.498 -8.176 6.025 
15 1 7.396 1.840 11.538 
16 1 0.472 13.553 -9.846 
17 1 -2.958 -10.149 -0.566 
18 1 -0.086 -10.925 -4.741 
19 1 -6.006 1.777 5.467 
20 1 -1.519 0.121 -3.995 
21 1 0.264 -3.473 -12.421 
22 1 -1.899 -8.316 -9.347 
23 1 8.930 8.676 -9.145 
24 1 12.239 9.766 -7.334 
25 1 -9.231 10.045 10.343 
26 1 6.550 -12.829 -12.205 
27 1 -12.273 2.250 3.999 
28 1 -11.749 10.434 -6.997 
29 1 -0.715 6.057 -6.025 
30 1 -8.817 -3.093 6.738 
31 1 -7.833 0.957 2.361 
32 1 0.634 9.733 3.978 
33 1 -0.057 -0.105 -8.943 
34 1 -11.944 6.995 11.049 
35 1 -2.424 -10.859 8.132 
36 1 -11.160 2.929 11.482 
37 1 3.877 -6.830 12.022 
38 1 -2.667 -9.643 3.053 
39 1 -8.231 3.569 8.022 
40 1 0.024 3.968 -12.109 
41 1 -1.256 -7.790 -2.914 
42 1 13.824 -13.718 -9.655 
43 1 -13.809 -2.923 1.578 
44 1 3.756 -1.303 -9.323 
45 1 4.598 -13.587 -2.817 
46 1 -6.859 13.313 9.469 
47 1 -8.996 -9.322 6.643 
48 1 3.400 -12.424 1.680 
49 1 5.037 0.623 8.847 
50 1 4.898 8.918 -10.106 
51 1 -4.591 9.078 4.895 
52 1 2.358 6.135 9.537 
53 1 7.055 -10.475 -9.224 
54 1 10.266 12.031 0.938 
55 1 3.531 -4.917 -11.119 
56 1 -8.496 0.173 12.434 
57 1 6.815 8.980 6.032 
58 1 12.875 -1.380 -8.093 
59 1 4.359 -9.242 -11.477 
60 1 -0.361 2.018 -0.457 
61 1 12.329 10.367 3.677 
62 1 -10.574 -5.445 -10.212 
63 1 5.908 -13.616 7.574 
64 1 -7.268 -9.867 2.948 
65 1 -6.494 6.456 9.852 
66 1 -8.764 11.861 -3.704 
67 1 10.401 2.732 5.376 
68 1 11.861 3.101 -5.492 
69 1 1.164 -7.195 -13.088 
70 1 -6.367 9.941 7.956 
71 1 12.351 0.094 3.329 
72 1 8.884 -12.376 2.122 
73 1 -7.942 -13.515 1.587 
74 1 -9.277 0.937 -11.554 
75 1 0.532 -9.979 0.861 
76 1 9.004 12.838 13.093 
77 1 -3.847 -6.670 0.999 
78 1 1.746 -8.235 -9.063 
79 1 5.887 -9.995 13.030 
80 1 -12.978 -2.191 5.219 
81 1 -2.194 -4.700 -9.465 
82 1 -6.611 12.330 5.089 
83 1 -4.740 -11.323 -3.520 
84 1 -6.697 0.113 8.853 
85 1 -13.195 10.306 -12.017 
86 1 -3.205 -8.928 -5.934 
87 1 -5.707 9.141 -9.052 
88 1 0.621 3.250 -3.881 
89 1 -2.943 -2.835 -6.068 
90 1 3.647 4.311 -1.993 
91 1 12.287 -10.107 2.606 
92 1 0.071 13.658 6.801 
93 1 -7.779 3.933 -7.633 
94 1 11.357 6.113 -7.770 
95 1 0.710 13.370 3.167 
96 1 -9.039 5.100 -4.264 
97 1 -4.994 5.213 6.577 
98 1 -11.667 2.574 -7.440 
99 1 -5.700 10.305 -2.241 
100 1 2.925 -1.900 -5.026 
101 1 -1.684 10.563 6.810 
102 1 -10.158 -7.254 3.334 
103 1 13.710 -5.047 -8.594 
104 1 -8.857 9.698 -11.335 
105 1 -6.113 -10.494 9.620 
106 1 7.095 -5.936 -10.446 
107 1 -1.066 -1.733 1.616 
108 1 7.777 10.789 -11.934 
109 1 -6.308 6.592 2.763 
110 1 -1.149 4.255 10.005 
111 1 0.997 -4.388 10.414 
112 1 8.880 13.135 9.444 
113 1 -12.054 3.594 -11.095 
114 1 8.096 4.761 9.038 
115 1 -8.332 -8.227 -11.939 
116 1 0.834 -2.807 -1.664 
117 1 8.479 -3.652 4.284 
118 1 -6.809 -3.376 -2.800 
119 1 10.551 -10.312 -10.485 
120 1 -4.315 -2.184 7.108 
121 1 5.324 3.498 -12.804 
122 1 -7.703 8.524 -5.213 
123 1 -5.452 10.179 1.462 
124 1 4.200 3.603 6.655 
125 1 1.302 -3.597 -8.450 
126 1 -9.761 -6.242 8.724 
127 1 -3.219 2.018 7.816 
128 1 12.968 11.553 -4.035 
129 1 0.136 10.879 13.694 
130 1 10.442 -3.831 -10.198 
131 1 -2.676 0.247 4.578 
132 1 -10.210 10.737 6.759 
133 1 7.418 -1.651 -9.864 
134 1 12.098 -13.479 11.477 
135 1 12.197 -5.036 4.334 
136 1 -1.888 -0.937 9.829 
137 1 1.337 5.101 0.885 
138 1 -1.332 12.609 -3.051 
139 1 -4.609 -10.472 -10.562 
140 1 -0.881 13.016 10.281 
141 1 -5.424 -0.053 -4.865 
142 1 -9.487 0.561 5.902 
143 1 -5.275 -7.287 -3.105 
144 1 -3.689 13.516 7.604 
145 1 -8.113 7.124 6.373 
146 1 -7.333 -4.419 -6.342 
147 1 -11.608 -4.505 -5.739 
148 1 0.759 6.730 6.199 
149 1 -7.087 -2.403 -12.529 
150 1 -4.944 -8.860 5.852 
151 1 5.732 2.011 0.143 
152 1 -8.787 4.076 4.280 
153 1 2.570 -2.046 7.803 
154 1 -2.366 -10.982 -13.522 
155 1 -4.522 7.044 -13.715 
156 1 -0.183 6.690 -2.256 
157 1 11.160 8.841 -13.028 
158 1 -3.526 -2.976 12.677 
159 1 -11.931 7.322 -10.061 
160 1 -7.434 -3.420 10.528 
161 1 -6.372 -11.686 -13.718 
162 1 4.930 -8.170 5.446 
163 1 -0.588 -5.920 -6.065 
164 1 5.803 10.728 9.362 
165 1 -4.441 10.305 -5.683 
166 1 -4.406 -5.490 -12.253 
167 1 -3.243 3.973 3.553 
168 1 -1.574 7.305 1.991 
169 1 -5.212 -1.779 2.705 
170 1 -8.521 9.554 3.596 
171 1 2.787 0.526 -1.841 
172 1 3.018 10.418 6.812 
173 1 -3.713 7.368 -1.056 
174 1 -13.705 -4.051 -12.179 
175 1 9.881 -3.650 11.297 
176 1 3.472 2.041 12.039 
177 1 10.389 12.362 -9.446 
178 1 2.124 2.024 3.834 
179 1 -6.526 -12.129 6.321 
180 1 -2.889 -4.395 -2.563 
181 1 10.409 -11.096 8.739 
182 1 -6.767 -5.147 3.739 
183 1 6.302 1.594 3.944 
184 1 -1.968 8.865 -8.231 
185 1 12.494 0.126 -0.459 
186 1 -1.877 12.571 -7.059 
187 1 -3.924 -12.935 11.358 
188 1 7.373 5.098 5.313 
189 1 11.077 8.800 9.049 
190 1 3.556 -11.817 5.435 
191 1 -2.954 -13.302 4.099 
192 1 -5.365 -3.094 -9.220 
193 1 -8.086 -11.125 -9.486 
194 1 4.611 10.614 -4.230 
195 1 -12.376 1.808 7.967 
196 1 -4.825 9.584 11.250 
197 1 -4.525 2.168 11.271 
198 1 -1.331 0.940 13.089 
199 1 8.947 0.148 0.953 
200 1 5.866 -12.104 -6.084 
ITEM: TIMESTEP
40
ITEM: NUMBER OF ATOMS
200
ITEM: BOX BOUNDS pp pp pp
-13.898096441678897 13.898096441678897
-13.898096441678897 13.898096441678897
-13.898096441678897 13.898096441678897
ITEM: ATOMS id type x y z
1 1 4.565 4.782 2.711 
2 1 3.631 11.750 0.548 
3 1 2.630 2.031 -10.555 
4 1 -2.899 7.353 8.502 
5 1 -9.645 -2.782 3.183 
6 1 2.790 13.370 9.199 
7 1 4.788 -2.824 4.837 
8 1 1.755 9.797 10.286 
9 1 4.393 12.435 4.161 
10 1 -7.463 7.191 -1.228 
11 1 -0.155 -10.810 4.854 
12 1 11.046 12.077 6.746 
13 1 -8.104 -6.373 -0.831 
14 1 -13.195 -7.948 5.608 
15 1 7.075 2.036 11.635 
16 1 0.420 13.553 -10.011 
17 1 -3.145 -10.103 -0.597 
18 1 -0.625 -11.021 -4.610 
19 1 -5.927 1.563 5.274 
20 1 -1.364 -0.254 -3.886 
21 1 0.249 -3.431 -12.112 
22 1 -1.779 -8.249 -9.517 
23 1 9.057 8.714 -9.219 
24 1 12.494 9.867 -7.904 
25 1 -8.749 9.673 10.369 
26 1 6.821 -12.840 -12.143 
27 1 -12.154 1.835 3.971 
28 1 -11.638 10.338 -7.169 
29 1 -0.818 6.155 -5.839 
30 1 -8.195 -3.050 6.667 
31 1 -8.206 0.716 2.399 
32 1 0.702 9.859 3.720 
33 1 0.028 -0.553 -8.892 
34 1 -11.478 6.882 10.897 
35 1 -2.697 -11.248 7.693 
36 1 -10.625 3.022 11.198 
37 1 3.715 -6.800 12.551 
38 1 -3.208 -9.637 3.085 
39 1 -8.256 3.584 8.099 
40 1 -0.081 3.800 -12.526 
41 1 -1.310 -7.712 -2.798 
42 1 13.814 13.612 -9.605 
43 1 -13.512 -2.765 1.768 
44 1 3.718 -1.403 -9.375 
45 1 4.435 -13.606 -2.425 
46 1 -7.094 13.306 9.305 
47 1 -8.730 -9.236 6.472 
48 1 3.644 -12.385 1.627 
49 1 5.075 0.855 8.592 
50 1 5.138 8.859 -9.959 
51 1 -4.242 8.636 5.004 
52 1 2.327 5.983 9.402 
53 1 6.926 -10.274 -9.310 
54 1 10.191 12.093 1.000 
55 1 3.580 -4.927 -11.141 
56 1 -8.131 0.206 12.303 
57 1 6.488 9.139 6.110 
58 1 12.937 -1.491 -8.317 
59 1 4.353 -8.668 -11.628 
60 1 -0.442 1.855 -0.359 
61 1 12.316 10.308 3.635 
62 1 -10.455 -5.313 -10.051 
63 1 6.042 -13.889 7.255 
64 1 -6.989 -9.715 3.098 
65 1 -6.394 6.616 9.795 
66 1 -8.863 11.748 -3.932 
67 1 9.985 2.523 5.240 
68 1 12.205 3.014 -5.716 
69 1 0.902 -7.211 -12.643 
70 1 -6.018 9.913 7.874 
71 1 12.260 -0.066 3.535 
72 1 8.887 -12.356 2.341 
73 1 -7.426 -13.594 2.123 
74 1 -9.186 0.828 -11.714 
75 1 0.275 -10.306 1.151 
76 1 9.142 13.039 13.330 
77 1 -4.180 -6.611 0.641 
78 1 1.835 -7.589 -8.962 
79 1 5.968 -10.050 13.037 
80 1 -12.605 -1.771 5.338 
81 1 -2.163 -4.578 -9.491 
82 1 -6.101 12.057 4.883 
83 1 -4.582 -11.417 -3.739 
84 1 -6.816 0.237 8.753 
85 1 -13.305 10.424 -11.453 
86 1 -3.325 -8.726 -6.061 
87 1 -5.918 9.055 -8.824 
88 1 0.511 3.081 -3.854 
89 1 -2.900 -2.974 -6.197 
90 1 3.344 4.325 -1.650 
91 1 12.211 -10.038 2.925 
92 1 0.001 13.789 6.761 
93 1 -8.060 4.000 -7.808 
94 1 11.691 6.149 -7.953 
95 1 0.775 13.607 3.171 
96 1 -9.093 5.109 -4.276 
97 1 -5.156 5.142 6.424 
98 1 -11.683 2.787 -7.361 
99 1 -5.731 10.401 -2.164 
100 1 2.189 -1.667 -5.262 
101 1 -1.326 10.330 6.903 
102 1 -10.039 -7.010 3.598 
103 1 13.787 -5.200 -8.472 
104 1 -9.214 9.590 -11.042 
105 1 -6.122 -10.532 9.408 
106 1 7.138 -6.079 -10.443 
107 1 -1.311 -1.486 1.311 
108 1 7.518 10.964 -11.904 
109 1 -6.100 6.348 2.727 
110 1 -1.194 4.130 10.168 
111 1 0.957 -4.197 10.761 
112 1 8.808 12.892 9.591 
113 1 -11.845 3.712 -11.054 
114 1 7.716 4.551 8.839 
115 1 -7.756 -8.113 -11.871 
116 1 0.600 -2.646 -1.838 
117 1 8.689 -3.294 4.153 
118 1 -6.381 -3.560 -2.733 
119 1 10.490 -10.692 -10.609 
120 1 -4.552 -1.858 6.797 
121 1 5.310 3.380 -12.994 
122 1 -7.577 8.453 -5.207 
123 1 -5.173 9.975 1.586 
124 1 4.061 3.868 6.527 
125 1 1.452 -3.790 -8.314 
126 1 -9.549 -6.086 8.463 
127 1 -3.302 2.089 7.753 
128 1 13.212 11.427 -4.418 
129 1 -0.006 11.029 13.482 
130 1 10.621 -3.988 -10.263 
131 1 -2.436 0.327 4.494 
132 1 -9.483 10.814 6.793 
133 1 7.435 -2.008 -9.989 
134 1 12.036 -13.605 11.252 
135 1 12.441 -4.814 4.393 
136 1 -2.161 -0.892 9.756 
137 1 1.038 4.948 1.289 
138 1 -1.769 12.707 -3.243 
139 1 -4.753 -10.202 -10.606 
140 1 -0.969 12.470 10.117 
141 1 -5.278 -0.501 -4.800 
142 1 -9.352 0.364 5.920 
143 1 -5.062 -7.309 -2.978 
144 1 -3.782 12.999 7.707 
145 1 -8.213 7.176 6.495 
146 1 -7.219 -4.523 -6.274 
147 1 -11.157 -4.440 -6.087 
148 1 0.375 6.971 6.235 
149 1 -6.954 -2.392 -12.860 
150 1 -5.046 -8.561 6.179 
151 1 5.452 1.875 0.445 
152 1 -8.689 3.962 4.403 
153 1 2.429 -1.914 7.865 
154 1 -2.462 -10.914 -13.578 
155 1 -4.582 7.004 13.690 
156 1 -0.116 6.387 -2.033 
157 1 10.961 9.390 -12.454 
158 1 -3.732 -2.650 12.819 
159 1 -12.061 7.366 -9.636 
160 1 -7.195 -3.117 10.462 
161 1 -6.265 -11.425 13.888 
162 1 4.762 -8.420 5.393 
163 1 -0.867 -6.194 -6.060 
164 1 5.579 10.788 9.385 
165 1 -4.298 10.323 -5.576 
166 1 -4.636 -5.487 -12.157 
167 1 -3.224 3.891 3.504 
168 1 -1.855 7.278 2.465 
169 1 -5.409 -1.761 3.126 
170 1 -8.318 9.362 3.476 
171 1 2.667 0.550 -1.996 
172 1 2.709 10.445 6.798 
173 1 -3.697 7.395 -0.838 
174 1 -13.699 -3.904 -11.973 
175 1 9.835 -3.623 11.377 
176 1 3.192 2.177 11.814 
177 1 10.330 12.283 -9.862 
178 1 2.173 2.024 3.555 
179 1 -6.188 -12.190 6.059 
180 1 -2.727 -4.237 -2.627 
181 1 10.260 -11.468 8.649 
182 1 -6.687 -5.368 3.874 
183 1 6.270 1.626 4.210 
184 1 -1.990 9.021 -8.246 
185 1 12.456 0.016 -0.254 
186 1 -1.798 12.746 -7.023 
187 1 -3.893 -13.050 11.128 
188 1 7.331 5.276 5.200 
189 1 10.675 9.046 9.043 
190 1 3.249 -12.068 5.486 
191 1 -2.979 -13.292 4.364 
192 1 -5.483 -2.972 -9.269 
193 1 -8.236 -11.191 -9.606 
194 1 4.530 10.751 -4.106 
195 1 -12.085 1.906 7.840 
196 1 -4.481 9.878 11.152 
197 1 -4.617 2.040 11.248 
198 1 -1.284 1.028 12.909 
199 1 8.935 0.236 1.622 
200 1 5.752 -12.255 -6.066 
ITEM: TIMESTEP
50
ITEM: NUMBER OF ATOMS
200
ITEM: BOX BOUNDS pp pp pp
-13.898096441678897 13.898096441678897
-13.898096441678897 13.898096441678897
-13.898096441678897 13.898096441678897
ITEM: ATOMS id type x y z
1 1 4.456 4.831 2.652 
2 1 3.219 11.821 0.541 
3 1 2.407 1.979 -10.605 
4 1 -2.879 7.306 8.558 
5 1 -9.474 -2.840 3.260 
6 1 2.711 13.341 9.098 
7 1 5.009 -2.217 4.949 
8 1 1.569 9.651 10.199 
9 1 4.295 12.297 4.082 
10 1 -7.463 7.246 -1.156 
11 1 -0.177 -10.778 4.920 
12 1 10.867 12.409 6.728 
13 1 -7.827 -6.425 -0.260 
14 1 -13.104 -7.797 5.455 
15 1 6.828 1.990 11.620 
16 1 0.323 13.522 -10.156 
17 1 -3.333 -10.121 -0.575 
18 1 -0.897 -11.164 -4.539 
19 1 -5.864 1.563 5.137 
20 1 -1.481 -0.330 -3.747 
21 1 0.368 -3.194 -11.998 
22 1 -1.662 -8.228 -9.535 
23 1 9.095 8.835 -9.210 
24 1 12.567 9.949 -8.287 
25 1 -8.532 9.634 10.343 
26 1 7.062 -12.839 -11.997 
27 1 -11.997 1.624 3.803 
28 1 -11.520 10.433 -7.406 
29 1 -0.929 6.267 -5.634 
30 1 -7.845 -3.037 6.603 
31 1 -8.403 0.753 2.367 
32 1 0.684 9.961 3.583 
33 1 -0.064 -0.680 -8.866 
34 1 -10.942 6.707 10.605 
35 1 -2.824 -11.342 7.566 
36 1 -10.278 2.969 11.125 
37 1 3.619 -6.652 12.997 
38 1 -3.286 -9.747 3.141 
39 1 -8.214 3.611 8.066 
40 1 0.004 3.834 -12.939 
41 1 -1.330 -7.800 -2.754 
42 1 13.864 13.375 -9.237 
43 1 -13.149 -2.564 1.883 
44 1 3.655 -1.416 -9.496 
45 1 4.350 -13.485 -2.213 
46 1 -7.074 13.234 9.092 
47 1 -8.715 -9.346 6.421 
48 1 3.738 -12.353 1.735 
49 1 5.081 1.054 8.321 
50 1 5.229 8.749 -9.783 
51 1 -4.103 8.518 5.079 
52 1 2.159 5.880 9.309 
53 1 6.827 -10.104 -9.292 
54 1 10.114 12.150 1.108 
55 1 3.651 -4.874 -11.195 
56 1 -7.844 0.244 12.298 
57 1 6.237 9.310 6.027 
58 1 13.075 -1.619 -8.564 
59 1 4.288 -8.571 -11.621 
60 1 -0.372 1.942 -0.344 
61 1 12.224 10.347 3.744 
62 1 -10.328 -5.218 -10.026 
63 1 6.092 13.634 7.149 
64 1 -6.997 -9.395 3.024 
65 1 -6.361 6.490 9.816 
66 1 -8.850 11.641 -4.088 
67 1 9.681 2.336 5.140 
68 1 12.439 3.056 -5.973 
69 1 0.685 -7.033 -12.340 
70 1 -5.795 9.765 7.896 
71 1 12.224 -0.322 3.816 
72 1 8.866 -12.343 2.593 
73 1 -6.963 -13.298 2.379 
74 1 -9.121 0.782 -11.835 
75 1 0.090 -10.691 1.178 
76 1 9.429 12.992 13.560 
77 1 -4.227 -6.650 0.702 
78 1 1.978 -7.673 -8.839 
79 1 6.018 -10.074 13.176 
80 1 -12.400 -1.754 5.496 
81 1 -2.077 -4.568 -9.555 
82 1 -5.885 11.899 4.853 
83 1 -4.532 -11.593 -3.799 
84 1 -6.709 0.304 8.687 
85 1 -13.154 10.320 -11.321 
86 1 -3.497 -8.787 -6.202 
87 1 -6.025 9.036 -8.618 
88 1 0.449 3.006 -3.906 
89 1 -2.782 -2.935 -6.276 
90 1 3.036 4.174 -1.263 
91 1 12.145 -10.003 3.174 
92 1 -0.106 13.741 6.712 
93 1 -8.306 4.249 -7.989 
94 1 11.994 6.238 -8.152 
95 1 0.740 13.709 3.103 
96 1 -9.163 5.118 -4.319 
97 1 -5.201 5.148 6.376 
98 1 -11.801 3.082 -7.244 
99 1 -5.702 10.463 -2.062 
100 1 1.707 -1.487 -5.443 
101 1 -1.259 10.236 6.913 
102 1 -9.889 -6.801 3.699 
103 1 13.866 -5.341 -8.390 
104 1 -9.485 9.506 -10.553 
105 1 -6.209 -10.655 9.287 
106 1 7.147 -6.220 -10.450 
107 1 -1.535 -1.438 1.080 
108 1 7.358 11.016 -11.882 
109 1 -5.915 6.283 2.653 
110 1 -1.287 4.100 10.274 
111 1 0.947 -3.983 11.037 
112 1 8.643 12.673 9.783 
113 1 -11.563 3.780 -10.944 
114 1 7.193 4.255 8.606 
115 1 -7.615 -7.930 -11.843 
116 1 0.664 -2.699 -1.829 
117 1 8.954 -2.787 4.087 
118 1 -6.320 -3.717 -2.569 
119 1 10.240 -11.254 -10.721 
120 1 -4.379 -1.772 6.782 
121 1 5.037 3.309 -13.079 
122 1 -7.402 8.350 -5.091 
123 1 -4.929 9.920 1.666 
124 1 3.903 4.094 6.392 
125 1 1.427 -3.887 -8.297 
126 1 -9.400 -6.051 8.148 
127 1 -3.314 2.141 7.692 
128 1 13.473 11.328 -4.879 
129 1 -0.120 11.013 13.445 
130 1 10.682 -4.186 -10.266 
131 1 -2.352 0.298 4.420 
132 1 -9.135 10.979 6.761 
133 1 7.319 -2.353 -10.121 
134 1 12.027 -13.811 11.019 
135 1 12.607 -4.454 4.468 
136 1 -2.327 -0.861 9.726 
137 1 0.806 4.892 1.685 
138 1 -2.256 12.940 -3.257 
139 1 -4.713 -10.049 -10.626 
140 1 -1.003 12.369 10.072 
141 1 -5.254 -0.725 -4.712 
142 1 -9.226 0.314 5.937 
143 1 -5.043 -7.318 -3.012 
144 1 -3.732 12.886 7.645 
145 1 -8.278 7.209 6.662 
146 1 -6.866 -4.572 -6.208 
147 1 -10.861 -4.365 -6.323 
148 1 0.247 6.937 6.062 
149 1 -6.994 -2.436 -12.871 
150 1 -5.079 -8.499 6.210 
151 1 5.178 1.679 0.708 
152 1 -8.616 4.005 4.409 
153 1 2.412 -1.732 7.961 
154 1 -2.457 -10.870 -13.611 
155 1 -4.568 6.948 13.114 
156 1 -0.212 6.144 -1.792 
157 1 10.998 9.702 -12.358 
158 1 -3.818 -2.399 12.846 
159 1 -12.303 7.195 -9.263 
160 1 -6.906 -3.008 10.436 
161 1 -6.228 -11.219 13.777 
162 1 4.572 -8.793 5.307 
163 1 -0.870 -6.215 -6.139 
164 1 5.367 10.674 9.429 
165 1 -4.252 10.411 -5.479 
166 1 -4.624 -5.493 -12.123 
167 1 -3.081 3.887 3.550 
168 1 -1.856 7.320 2.462 
169 1 -5.694 -1.776 3.294 
170 1 -8.126 9.225 3.513 
171 1 2.628 0.492 -2.076 
172 1 2.563 10.424 6.751 
173 1 -3.715 7.336 -0.800 
174 1 -13.574 -3.708 -11.750 
175 1 9.793 -3.603 11.467 
176 1 2.921 2.393 11.554 
177 1 10.244 12.578 -10.079 
178 1 2.285 1.854 3.427 
179 1 -6.117 -12.215 5.896 
180 1 -2.634 -4.247 -2.745 
181 1 10.049 -11.879 8.399 
182 1 -6.427 -5.529 3.867 
183 1 6.024 1.615 4.443 
184 1 -2.040 9.095 -8.206 
185 1 12.326 -0.048 0.048 
186 1 -1.816 12.878 -7.031 
187 1 -3.944 -13.164 11.022 
188 1 7.272 5.371 5.063 
189 1 10.277 9.358 8.999 
190 1 3.122 -12.335 5.626 
191 1 -2.937 -13.411 4.241 
192 1 -5.454 -2.945 -9.318 
193 1 -8.224 -11.143 -9.801 
194 1 4.448 10.916 -3.979 
195 1 -11.918 2.049 7.726 
196 1 -4.039 10.228 11.056 
197 1 -4.577 2.033 11.238 
198 1 -1.206 0.978 12.743 
199 1 8.823 0.358 1.985 
200 1 5.667 -12.336 -6.075 
ITEM: TIMESTEP
60
ITEM: NUMBER OF ATOMS
200
ITEM: BOX BOUNDS pp pp pp
-13.898096441678897 13.898096441678897
-13.898096441678897 13.898096441678897
-13.898096441678897 13.898096441678897
ITEM: ATOMS id type x y z
1 1 4.391 4.780 2.573 
2 1 2.938 11.873 0.512 
3 1 2.173 1.876 -10.672 
4 1 -2.876 7.215 8.619 
5 1 -9.422 -2.844 3.288 
6 1 2.721 13.323 9.046 
7 1 5.102 -1.806 5.078 
8 1 1.408 9.571 10.129 
9 1 4.236 12.202 3.989 
10 1 -7.512 7.283 -1.097 
11 1 -0.141 -10.808 4.911 
12 1 10.614 12.484 6.752 
13 1 -7.761 -6.446 0.189 
14 1 -13.075 -7.659 5.400 
15 1 6.583 1.952 11.531 
16 1 0.203 13.485 -10.226 
17 1 -3.409 -10.158 -0.601 
18 1 -0.979 -11.253 -4.554 
19 1 -5.802 1.612 5.062 
20 1 -1.585 -0.334 -3.510 
21 1 0.535 -3.004 -11.943 
22 1 -1.625 -8.248 -9.426 
23 1 9.072 8.888 -9.227 
24 1 12.543 9.894 -8.391 
25 1 -8.510 9.691 10.404 
26 1 7.028 -12.927 -11.964 
27 1 -11.983 1.436 3.735 
28 1 -11.542 10.526 -7.525 
29 1 -1.028 6.348 -5.436 
30 1 -7.698 -3.026 6.572 
31 1 -8.428 0.767 2.335 
32 1 0.635 9.993 3.567 
33 1 -0.234 -0.788 -8.878 
34 1 -10.423 6.485 10.170 
35 1 -2.811 -11.362 7.534 
36 1 -10.116 2.817 11.125 
37 1 3.545 -6.500 13.147 
38 1 -3.326 -9.861 3.157 
39 1 -8.210 3.588 8.015 
40 1 0.264 3.893 -13.305 
41 1 -1.392 -7.860 -2.810 
42 1 13.896 13.281 -9.091 
43 1 -12.968 -2.334 1.966 
44 1 3.558 -1.415 -9.587 
45 1 4.283 -13.385 -2.066 
46 1 -7.040 13.243 9.041 
47 1 -8.715 -9.466 6.313 
48 1 3.756 -12.347 1.847 
49 1 4.960 1.063 8.133 
50 1 5.270 8.718 -9.709 
51 1 -4.076 8.500 5.200 
52 1 1.979 5.846 9.246 
53 1 6.838 -10.129 -9.323 
54 1 10.045 12.196 1.212 
55 1 3.717 -4.885 -11.115 
56 1 -7.616 0.184 12.306 
57 1 6.181 9.435 5.982 
58 1 13.143 -1.669 -8.624 
59 1 4.193 -8.604 -11.583 
60 1 -0.331 2.001 -0.304 
61 1 12.110 10.415 3.891 
62 1 -10.224 -5.174 -10.126 
63 1 6.144 13.393 7.055 
64 1 -6.978 -9.218 2.918 
65 1 -6.416 6.404 9.784 
66 1 -8.785 11.571 -4.211 
67 1 9.606 2.278 5.259 
68 1 12.392 3.082 -6.060 
69 1 0.615 -6.835 -12.156 
70 1 -5.652 9.690 7.801 
71 1 12.222 -0.390 4.003 
72 1 8.835 -12.360 2.853 
73 1 -6.531 -13.110 2.324 
74 1 -9.075 0.755 -11.920 
75 1 -0.043 -10.884 1.153 
76 1 9.633 13.015 13.730 
77 1 -4.087 -6.684 0.742 
78 1 2.004 -7.645 -8.709 
79 1 6.070 -10.069 13.315 
80 1 -12.280 -1.800 5.636 
81 1 -1.970 -4.569 -9.625 
82 1 -5.820 11.863 4.833 
83 1 -4.642 -11.569 -3.835 
84 1 -6.574 0.348 8.646 
85 1 -13.027 10.276 -11.299 
86 1 -3.535 -8.782 -6.145 
87 1 -6.053 9.011 -8.492 
88 1 0.419 2.967 -3.911 
89 1 -2.514 -2.830 -6.388 
90 1 2.887 4.036 -1.009 
91 1 12.091 -10.008 3.352 
92 1 -0.132 13.663 6.644 
93 1 -8.425 4.589 -8.173 
94 1 11.954 6.217 -8.239 
95 1 0.712 13.702 3.074 
96 1 -9.269 5.098 -4.421 
97 1 -5.240 5.174 6.334 
98 1 -11.816 3.381 -7.151 
99 1 -5.695 10.495 -2.010 
100 1 1.456 -1.434 -5.465 
101 1 -1.257 10.143 6.998 
102 1 -9.793 -6.665 3.815 
103 1 -13.826 -5.385 -8.378 
104 1 -9.415 9.358 -10.402 
105 1 -6.226 -10.691 9.277 
106 1 7.157 -6.384 -10.483 
107 1 -1.675 -1.387 0.849 
108 1 7.346 11.015 -11.887 
109 1 -5.767 6.205 2.534 
110 1 -1.282 4.065 10.386 
111 1 0.920 -3.779 11.255 
112 1 8.455 12.665 9.964 
113 1 -11.315 3.841 -10.867 
114 1 6.970 4.207 8.488 
115 1 -7.612 -7.807 -11.837 
116 1 0.673 -2.797 -1.872 
117 1 9.059 -2.574 4.208 
118 1 -6.339 -3.827 -2.327 
119 1 10.239 -11.412 -10.736 
120 1 -4.257 -1.733 6.715 
121 1 4.725 3.269 -13.183 
122 1 -7.261 8.236 -4.938 
123 1 -4.811 9.927 1.651 
124 1 3.716 4.195 6.286 
125 1 1.390 -4.055 -8.224 
126 1 -9.385 -6.088 7.811 
127 1 -3.252 2.200 7.636 
128 1 13.542 11.393 -5.067 
129 1 -0.264 10.949 13.378 
130 1 10.684 -4.250 -10.241 
131 1 -2.302 0.325 4.294 
132 1 -9.041 10.977 6.714 
133 1 7.152 -2.579 -10.212 
134 1 11.950 13.815 10.803 
135 1 12.709 -4.245 4.502 
136 1 -2.364 -0.820 9.721 
137 1 0.676 4.822 1.999 
138 1 -2.506 13.076 -3.208 
139 1 -4.689 -9.929 -10.673 
140 1 -0.898 12.508 10.049 
141 1 -5.252 -1.002 -4.660 
142 1 -9.135 0.308 5.924 
143 1 -5.090 -7.359 -2.933 
144 1 -3.693 12.850 7.629 
145 1 -8.370 7.209 6.756 
146 1 -6.516 -4.569 -6.063 
147 1 -10.653 -4.309 -6.427 
148 1 0.143 6.848 5.873 
149 1 -7.040 -2.527 -12.827 
150 1 -5.105 -8.506 6.197 
151 1 5.066 1.493 0.804 
152 1 -8.572 4.055 4.367 
153 1 2.327 -1.646 8.031 
154 1 -2.442 -10.869 -13.633 
155 1 -4.301 6.962 12.783 
156 1 -0.330 5.933 -1.565 
157 1 11.078 9.805 -12.304 
158 1 -3.858 -2.176 12.911 
159 1 -12.267 7.136 -9.105 
160 1 -6.691 -2.976 10.355 
161 1 -6.217 -11.085 13.732 
162 1 4.438 -9.045 5.181 
163 1 -0.869 -6.186 -6.196 
164 1 5.254 10.562 9.455 
165 1 -4.277 10.488 -5.441 
166 1 -4.583 -5.487 -12.160 
167 1 -2.872 3.993 3.660 
168 1 -1.795 7.384 2.242 
169 1 -5.761 -1.762 3.323 
170 1 -7.958 9.084 3.553 
171 1 2.582 0.426 -2.119 
172 1 2.516 10.418 6.725 
173 1 -3.788 7.303 -0.870 
174 1 -13.501 -3.645 -11.689 
175 1 9.756 -3.589 11.541 
176 1 2.680 2.536 11.372 
177 1 10.221 12.646 -10.078 
178 1 2.271 1.733 3.444 
179 1 -6.070 -12.243 5.905 
180 1 -2.661 -4.253 -2.891 
181 1 9.841 -11.985 8.272 
182 1 -6.288 -5.524 3.844 
183 1 5.980 1.782 4.483 
184 1 -2.068 9.150 -8.151 
185 1 12.234 -0.070 0.257 
186 1 -1.835 12.976 -6.975 
187 1 -3.957 -13.213 11.003 
188 1 7.204 5.399 4.984 
189 1 10.061 9.422 8.899 
190 1 3.101 -12.524 5.701 
191 1 -2.928 -13.466 4.184 
192 1 -5.379 -2.954 -9.314 
193 1 -8.196 -11.113 -9.963 
194 1 4.384 11.055 -3.884 
195 1 -11.800 2.171 7.641 
196 1 -3.802 10.384 11.003 
197 1 -4.492 2.097 11.224 
198 1 -1.119 0.903 12.733 
199 1 8.740 0.485 2.029 
200 1 5.611 -12.379 -6.089 
ITEM: TIMESTEP
70
ITEM: NUMBER OF ATOMS
200
ITEM: BOX BOUNDS pp pp pp
-13.898096441678897 13.898096441678897
-13.898096441678897 13.898096441678897
-13.898096441678897 13.898096441678897
ITEM: ATOMS id type x y z
1 1 4.368 4.734 2.516 
2 1 2.767 11.898 0.432 
3 1 1.883 1.779 -10.816 
4 1 -2.830 7.087 8.641 
5 1 -9.358 -2.821 3.316 
6 1 2.782 13.300 9.036 
7 1 5.094 -1.592 5.209 
8 1 1.236 9.555 10.065 
9 1 4.207 12.104 3.877 
10 1 -7.582 7.349 -0.972 
11 1 -0.082 -10.873 4.888 
12 1 10.246 12.505 6.711 
13 1 -7.746 -6.353 0.460 
14 1 -13.027 -7.513 5.375 
15 1 6.293 1.943 11.425 
16 1 0.052 13.446 -10.254 
17 1 -3.499 -10.222 -0.591 
18 1 -1.096 -11.320 -4.571 
19 1 -5.724 1.665 5.012 
20 1 -1.649 -0.329 -3.258 
21 1 0.697 -2.877 -11.973 
22 1 -1.603 -8.262 -9.319 
23 1 9.067 8.892 -9.225 
24 1 12.561 9.831 -8.443 
25 1 -8.462 9.660 10.356 
26 1 7.015 -13.014 -11.940 
27 1 -11.959 1.290 3.711 
28 1 -11.498 10.549 -7.575 
29 1 -1.149 6.421 -5.196 
30 1 -7.583 -3.002 6.566 
31 1 -8.408 0.794 2.309 
32 1 0.523 10.000 3.618 
33 1 -0.307 -0.813 -8.964 
34 1 -10.165 6.253 9.894 
35 1 -2.777 -11.408 7.504 
36 1 -9.955 2.635 11.095 
37 1 3.449 -6.359 13.279 
38 1 -3.341 -9.980 3.177 
39 1 -8.160 3.556 7.958 
40 1 0.518 3.971 -13.675 
41 1 -1.467 -7.900 -2.829 
42 1 13.875 13.242 -9.028 
43 1 -12.863 -2.119 2.069 
44 1 3.487 -1.379 -9.636 
45 1 4.214 -13.263 -1.937 
46 1 -7.000 13.210 9.007 
47 1 -8.719 -9.574 6.231 
48 1 3.747 -12.330 1.929 
49 1 4.774 1.102 8.003 
50 1 5.286 8.738 -9.691 
51 1 -3.911 8.447 5.176 
52 1 1.795 5.891 9.122 
53 1 6.808 -10.198 -9.364 
54 1 9.957 12.240 1.346 
55 1 3.775 -4.905 -10.991 
56 1 -7.381 0.086 12.319 
57 1 6.237 9.484 5.975 
58 1 13.168 -1.696 -8.620 
59 1 4.084 -8.625 -11.543 
60 1 -0.380 2.016 -0.190 
61 1 12.002 10.452 4.023 
62 1 -10.131 -5.103 -10.242 
63 1 6.209 13.217 6.966 
64 1 -6.936 -9.167 2.890 
65 1 -6.367 6.345 9.767 
66 1 -8.672 11.479 -4.380 
67 1 9.555 2.258 5.401 
68 1 12.362 3.083 -6.125 
69 1 0.566 -6.667 -11.979 
70 1 -5.582 9.600 7.752 
71 1 12.283 -0.314 4.180 
72 1 8.787 -12.420 3.199 
73 1 -6.068 -12.929 2.232 
74 1 -9.032 0.732 -12.027 
75 1 -0.145 -10.988 1.115 
76 1 9.777 13.079 13.827 
77 1 -4.032 -6.724 0.759 
78 1 2.022 -7.635 -8.594 
79 1 6.159 -10.060 13.478 
80 1 -12.154 -1.859 5.774 
81 1 -1.870 -4.560 -9.698 
82 1 -5.762 11.845 4.794 
83 1 -4.774 -11.507 -3.856 
84 1 -6.437 0.386 8.612 
85 1 -12.894 10.233 -11.245 
86 1 -3.585 -8.702 -6.091 
87 1 -6.071 8.916 -8.364 
88 1 0.354 2.952 -3.844 
89 1 -2.306 -2.735 -6.446 
90 1 2.801 3.942 -0.869 
91 1 12.040 -10.021 3.534 
92 1 -0.101 13.550 6.591 
93 1 -8.530 5.125 -8.277 
94 1 11.934 6.173 -8.342 
95 1 0.699 13.674 3.038 
96 1 -9.371 5.132 -4.511 
97 1 -5.258 5.229 6.311 
98 1 -11.852 3.703 -7.123 
99 1 -5.718 10.538 -1.969 
100 1 1.225 -1.407 -5.454 
101 1 -1.235 10.052 7.141 
102 1 -9.703 -6.616 3.815 
103 1 -13.707 -5.388 -8.386 
104 1 -9.343 9.129 -10.321 
105 1 -6.212 -10.706 9.259 
106 1 7.192 -6.547 -10.563 
107 1 -1.843 -1.385 0.611 
108 1 7.401 10.975 -11.941 
109 1 -5.603 6.148 2.458 
110 1 -1.228 4.038 10.501 
111 1 0.866 -3.511 11.533 
112 1 8.267 12.676 10.101 
113 1 -11.149 3.887 -10.844 
114 1 6.820 4.183 8.372 
115 1 -7.621 -7.694 -11.862 
116 1 0.629 -2.949 -1.937 
117 1 9.082 -2.400 4.350 
118 1 -6.337 -3.898 -2.083 
119 1 10.228 -11.463 -10.797 
120 1 -4.140 -1.665 6.613 
121 1 4.362 3.236 -13.329 
122 1 -7.105 8.105 -4.787 
123 1 -4.721 9.930 1.631 
124 1 3.558 4.273 6.188 
125 1 1.406 -4.031 -8.175 
126 1 -9.413 -6.103 7.536 
127 1 -3.159 2.301 7.588 
128 1 13.531 11.518 -5.231 
129 1 -0.483 10.840 13.285 
130 1 10.697 -4.283 -10.218 
131 1 -2.234 0.404 4.129 
132 1 -8.971 10.955 6.673 
133 1 7.010 -2.766 -10.286 
134 1 11.839 13.669 10.591 
135 1 12.780 -4.134 4.504 
136 1 -2.416 -0.762 9.721 
137 1 0.652 4.760 2.241 
138 1 -2.678 13.150 -3.117 
139 1 -4.668 -9.780 -10.749 
140 1 -0.816 12.692 10.070 
141 1 -5.145 -1.258 -4.559 
142 1 -9.046 0.323 5.910 
143 1 -5.159 -7.403 -2.865 
144 1 -3.652 12.797 7.633 
145 1 -8.380 7.194 6.746 
146 1 -6.069 -4.704 -5.873 
147 1 -10.451 -4.281 -6.533 
148 1 -0.081 6.734 5.691 
149 1 -7.079 -2.635 -12.744 
150 1 -5.119 -8.540 6.186 
151 1 4.980 1.343 0.856 
152 1 -8.513 4.101 4.320 
153 1 2.155 -1.588 8.120 
154 1 -2.444 -10.913 -13.667 
155 1 -3.853 6.914 12.434 
156 1 -0.454 5.772 -1.325 
157 1 11.181 9.834 -12.228 
158 1 -3.935 -1.911 12.978 
159 1 -12.223 7.088 -8.955 
160 1 -6.445 -2.963 10.247 
161 1 -6.221 -10.970 13.693 
162 1 4.311 -9.249 4.962 
163 1 -0.882 -6.160 -6.175 
164 1 5.192 10.451 9.464 
165 1 -4.335 10.579 -5.410 
166 1 -4.523 -5.501 -12.165 
167 1 -2.700 4.137 3.883 
168 1 -1.769 7.398 2.034 
169 1 -5.732 -1.720 3.273 
170 1 -7.793 8.966 3.569 
171 1 2.455 0.353 -2.094 
172 1 2.525 10.423 6.704 
173 1 -3.867 7.311 -1.004 
174 1 -13.462 -3.633 -11.692 
175 1 9.718 -3.578 11.621 
176 1 2.446 2.550 11.135 
177 1 10.188 12.632 -10.004 
178 1 2.266 1.633 3.530 
179 1 -6.029 -12.301 5.902 
180 1 -2.750 -4.276 -3.072 
181 1 9.572 -11.999 8.257 
182 1 -6.171 -5.485 3.898 
183 1 5.968 1.933 4.480 
184 1 -2.087 9.213 -8.065 
185 1 12.152 -0.067 0.429 
186 1 -1.857 13.082 -6.882 
187 1 -3.966 -13.224 10.997 
188 1 7.148 5.510 4.933 
189 1 9.739 9.441 8.808 
190 1 3.123 -12.690 5.718 
191 1 -2.863 -13.543 4.192 
192 1 -5.285 -3.009 -9.254 
193 1 -8.157 -11.087 -10.149 
194 1 4.302 11.196 -3.768 
195 1 -11.726 2.256 7.558 
196 1 -3.634 10.440 10.856 
197 1 -4.417 2.166 11.213 
198 1 -1.020 0.828 12.758 
199 1 8.686 0.587 2.100 
200 1 5.563 -12.416 -6.107 
ITEM: TIMESTEP
80
ITEM: NUMBER OF ATOMS
200
ITEM: BOX BOUNDS pp pp pp
-13.898096441678897 13.898096441678897
-13.898096441678897 13.898096441678897
-13.898096441678897 13.898096441678897
ITEM: ATOMS id type x y z
1 1 4.406 4.710 2.456 
2 1 2.713 11.907 0.337 
3 1 1.644 1.665 -11.085 
4 1 -2.750 6.946 8.504 
5 1 -9.289 -2.819 3.334 
6 1 2.851 13.257 9.065 
7 1 5.043 -1.489 5.222 
8 1 1.201 9.603 10.070 
9 1 4.229 12.015 3.786 
10 1 -7.598 7.452 -0.760 
11 1 0.008 -10.955 4.876 
12 1 9.910 12.518 6.601 
13 1 -7.736 -6.273 0.539 
14 1 -12.966 -7.382 5.380 
15 1 6.110 1.931 11.305 
16 1 -0.113 13.409 -10.240 
17 1 -3.604 -10.302 -0.536 
18 1 -1.215 -11.324 -4.591 
19 1 -5.645 1.708 4.980 
20 1 -1.662 -0.327 -3.144 
21 1 0.792 -2.823 -12.032 
22 1 -1.598 -8.233 -9.220 
23 1 9.086 8.879 -9.221 
24 1 12.604 9.769 -8.468 
25 1 -8.438 9.550 10.231 
26 1 6.999 -13.134 -11.916 
27 1 -11.888 1.290 3.757 
28 1 -11.422 10.555 -7.582 
29 1 -1.312 6.495 -4.943 
30 1 -7.466 -2.973 6.568 
31 1 -8.368 0.813 2.300 
32 1 0.325 9.997 3.715 
33 1 -0.349 -0.837 -9.034 
34 1 -10.119 6.095 9.878 
35 1 -2.732 -11.448 7.472 
36 1 -9.789 2.473 11.021 
37 1 3.363 -6.203 13.385 
38 1 -3.290 -10.044 3.235 
39 1 -8.073 3.528 7.901 
40 1 0.495 4.079 -13.887 
41 1 -1.553 -7.944 -2.801 
42 1 13.859 13.203 -9.025 
43 1 -12.802 -2.038 2.131 
44 1 3.470 -1.321 -9.682 
45 1 4.153 -13.120 -1.846 
46 1 -6.961 13.150 8.973 
47 1 -8.702 -9.595 6.176 
48 1 3.742 -12.314 1.974 
49 1 4.524 1.179 7.921 
50 1 5.306 8.789 -9.699 
51 1 -3.748 8.424 5.110 
52 1 1.605 5.969 8.989 
53 1 6.759 -10.269 -9.427 
54 1 9.842 12.290 1.512 
55 1 3.783 -4.920 -10.870 
56 1 -7.246 -0.010 12.313 
57 1 6.320 9.466 5.959 
58 1 13.182 -1.715 -8.617 
59 1 3.977 -8.627 -11.517 
60 1 -0.462 1.974 -0.014 
61 1 11.894 10.460 4.144 
62 1 -10.050 -4.977 -10.362 
63 1 6.200 13.142 6.933 
64 1 -6.860 -9.134 2.862 
65 1 -6.280 6.290 9.780 
66 1 -8.510 11.362 -4.606 
67 1 9.515 2.242 5.524 
68 1 12.362 3.069 -6.188 
69 1 0.552 -6.608 -11.868 
70 1 -5.501 9.509 7.642 
71 1 12.367 -0.236 4.337 
72 1 8.724 -12.566 3.695 
73 1 -5.780 -12.794 2.109 
74 1 -9.011 0.711 -12.135 
75 1 -0.211 -11.072 1.092 
76 1 9.885 13.136 13.891 
77 1 -4.035 -6.781 0.804 
78 1 2.028 -7.597 -8.493 
79 1 6.297 -10.039 13.694 
80 1 -12.040 -1.882 5.838 
81 1 -1.800 -4.518 -9.714 
82 1 -5.682 11.820 4.740 
83 1 -4.888 -11.424 -3.866 
84 1 -6.310 0.405 8.596 
85 1 -12.774 10.212 -11.215 
86 1 -3.670 -8.569 -6.041 
87 1 -6.092 8.782 -8.217 
88 1 0.260 2.946 -3.734 
89 1 -2.285 -2.709 -6.469 
90 1 2.730 3.846 -0.819 
91 1 11.984 -10.043 3.721 
92 1 -0.025 13.459 6.556 
93 1 -8.677 5.732 -8.263 
94 1 11.912 6.117 -8.447 
95 1 0.724 13.618 3.026 
96 1 -9.436 5.213 -4.537 
97 1 -5.258 5.305 6.258 
98 1 -11.853 3.826 -7.139 
99 1 -5.759 10.606 -1.925 
100 1 1.133 -1.329 -5.441 
101 1 -1.240 9.982 7.237 
102 1 -9.662 -6.623 3.753 
103 1 -13.593 -5.382 -8.408 
104 1 -9.286 8.923 -10.264 
105 1 -6.202 -10.747 9.210 
106 1 7.195 -6.661 -10.688 
107 1 -2.012 -1.469 0.497 
108 1 7.490 10.901 -12.017 
109 1 -5.466 6.095 2.395 
110 1 -1.228 4.026 10.507 
111 1 0.763 -3.185 11.815 
112 1 8.085 12.710 10.201 
113 1 -11.023 3.967 -10.828 
114 1 6.721 4.146 8.250 
115 1 -7.640 -7.596 -11.930 
116 1 0.554 -3.098 -2.016 
117 1 9.102 -2.220 4.490 
118 1 -6.282 -3.906 -1.949 
119 1 10.202 -11.511 -10.883 
120 1 -4.021 -1.579 6.509 
121 1 4.167 3.182 -13.494 
122 1 -6.906 7.969 -4.591 
123 1 -4.633 9.910 1.584 
124 1 3.425 4.366 6.090 
125 1 1.430 -3.976 -8.109 
126 1 -9.413 -6.067 7.415 
127 1 -3.095 2.406 7.569 
128 1 13.526 11.659 -5.371 
129 1 -0.673 10.721 13.217 
130 1 10.720 -4.314 -10.204 
131 1 -2.164 0.485 3.949 
132 1 -8.894 10.935 6.593 
133 1 6.976 -2.873 -10.321 
134 1 11.700 13.561 10.413 
135 1 12.819 -4.046 4.524 
136 1 -2.489 -0.700 9.733 
137 1 0.686 4.727 2.365 
138 1 -2.831 13.230 -3.020 
139 1 -4.633 -9.599 -10.847 
140 1 -0.769 12.818 10.122 
141 1 -5.084 -1.364 -4.453 
142 1 -8.953 0.335 5.912 
143 1 -5.241 -7.458 -2.760 
144 1 -3.627 12.770 7.628 
145 1 -8.402 7.179 6.773 
146 1 -5.517 -4.939 -5.742 
147 1 -10.311 -4.266 -6.630 
148 1 -0.202 6.693 5.624 
149 1 -7.083 -2.728 -12.654 
150 1 -5.102 -8.570 6.190 
151 1 4.901 1.243 0.926 
152 1 -8.444 4.144 4.266 
153 1 1.932 -1.492 8.263 
154 1 -2.464 -10.987 -13.712 
155 1 -3.443 6.798 12.216 
156 1 -0.534 5.677 -1.182 
157 1 11.283 9.870 -12.164 
158 1 -3.927 -1.739 13.069 
159 1 -12.281 7.125 -8.913 
160 1 -6.154 -2.956 10.163 
161 1 -6.242 -10.872 13.667 
162 1 4.161 -9.416 4.685 
163 1 -0.885 -6.120 -6.126 
164 1 5.194 10.343 9.435 
165 1 -4.443 10.698 -5.389 
166 1 -4.457 -5.553 -12.125 
167 1 -2.610 4.205 4.010 
168 1 -1.729 7.333 1.873 
169 1 -5.676 -1.696 3.205 
170 1 -7.648 8.863 3.574 
171 1 2.280 0.266 -2.010 
172 1 2.546 10.420 6.678 
173 1 -3.904 7.342 -1.173 
174 1 -13.452 -3.617 -11.713 
175 1 9.682 -3.572 11.710 
176 1 2.299 2.492 10.886 
177 1 10.149 12.615 -9.935 
178 1 2.265 1.562 3.641 
179 1 -5.982 -12.336 5.838 
180 1 -2.791 -4.347 -3.151 
181 1 9.308 -12.023 8.228 
182 1 -6.120 -5.469 3.955 
183 1 5.953 2.032 4.530 
184 1 -2.116 9.276 -7.950 
185 1 12.097 -0.074 0.592 
186 1 -1.891 13.163 -6.778 
187 1 -3.981 -13.235 10.990 
188 1 7.100 5.636 4.898 
189 1 9.286 9.463 8.672 
190 1 3.157 -12.829 5.721 
191 1 -2.770 -13.616 4.208 
192 1 -5.248 -3.116 -9.160 
193 1 -8.087 -11.061 -10.358 
194 1 4.208 11.328 -3.631 
195 1 -11.644 2.318 7.515 
196 1 -3.480 10.371 10.680 
197 1 -4.403 2.248 11.226 
198 1 -0.893 0.772 12.752 
199 1 8.632 0.686 2.160 
200 1 5.518 -12.448 -6.131 
ITEM: TIMESTEP
90
ITEM: NUMBER OF ATOMS
200
ITEM: BOX BOUNDS pp pp pp
-13.898096441678897 13.898096441678897
-13.898096441678897 13.898096441678897
-13.898096441678897 13.898096441678897
ITEM: ATOMS id type x y z
1 1 4.430 4.705 2.400 
2 1 2.716 11.930 0.267 
3 1 1.452 1.473 -11.409 
4 1 -2.695 6.802 8.413 
5 1 -9.224 -2.832 3.357 
6 1 2.878 13.202 9.080 
7 1 5.000 -1.400 5.152 
8 1 1.253 9.668 10.081 
9 1 4.263 11.976 3.721 
10 1 -7.534 7.568 -0.524 
11 1 0.084 -11.004 4.860 
12 1 9.822 12.465 6.593 
13 1 -7.708 -6.252 0.551 
14 1 -12.928 -7.276 5.410 
15 1 5.998 1.892 11.177 
16 1 -0.257 13.377 -10.211 
17 1 -3.677 -10.362 -0.468 
18 1 -1.303 -11.307 -4.603 
19 1 -5.595 1.741 4.933 
20 1 -1.685 -0.361 -3.099 
21 1 0.834 -2.802 -12.019 
22 1 -1.609 -8.192 -9.138 
23 1 9.113 8.867 -9.224 
24 1 12.640 9.738 -8.470 
25 1 -8.366 9.463 10.077 
26 1 6.976 -13.261 -11.885 
27 1 -11.821 1.317 3.791 
28 1 -11.373 10.561 -7.585 
29 1 -1.512 6.576 -4.742 
30 1 -7.353 -2.941 6.579 
31 1 -8.328 0.816 2.298 
32 1 0.102 10.027 3.789 
33 1 -0.378 -0.841 -9.048 
34 1 -10.062 5.971 9.913 
35 1 -2.697 -11.470 7.429 
36 1 -9.661 2.343 10.952 
37 1 3.300 -6.050 13.465 
38 1 -3.220 -10.053 3.301 
39 1 -7.980 3.523 7.853 
40 1 0.429 4.164 13.787 
41 1 -1.625 -7.988 -2.748 
42 1 13.850 13.183 -9.073 
43 1 -12.749 -1.993 2.175 
44 1 3.461 -1.279 -9.706 
45 1 4.099 -12.990 -1.812 
46 1 -6.946 13.097 8.933 
47 1 -8.669 -9.586 6.129 
48 1 3.745 -12.353 1.968 
49 1 4.299 1.234 7.817 
50 1 5.334 8.845 -9.713 
51 1 -3.513 8.362 4.793 
52 1 1.481 6.043 8.939 
53 1 6.715 -10.309 -9.522 
54 1 9.709 12.350 1.708 
55 1 3.775 -4.927 -10.771 
56 1 -7.159 -0.111 12.299 
57 1 6.296 9.468 5.862 
58 1 13.191 -1.729 -8.622 
59 1 3.877 -8.616 -11.508 
60 1 -0.538 1.909 0.139 
61 1 11.832 10.417 4.201 
62 1 -9.980 -4.838 -10.458 
63 1 6.163 13.086 6.938 
64 1 -6.775 -9.122 2.832 
65 1 -6.187 6.247 9.765 
66 1 -8.363 11.213 -4.833 
67 1 9.498 2.194 5.607 
68 1 12.368 3.053 -6.246 
69 1 0.531 -6.586 -11.799 
70 1 -5.599 9.486 7.749 
71 1 12.463 -0.173 4.463 
72 1 8.606 -12.693 4.158 
73 1 -5.628 -12.749 2.013 
74 1 -9.005 0.689 -12.215 
75 1 -0.253 -11.160 1.084 
76 1 9.956 13.182 -13.864 
77 1 -4.022 -6.832 0.868 
78 1 2.021 -7.560 -8.420 
79 1 6.484 -9.992 -13.817 
80 1 -11.955 -1.884 5.869 
81 1 -1.765 -4.478 -9.682 
82 1 -5.610 11.808 4.666 
83 1 -4.972 -11.341 -3.843 
84 1 -6.238 0.409 8.583 
85 1 -12.723 10.232 -11.217 
86 1 -3.704 -8.518 -5.993 
87 1 -6.146 8.754 -8.072 
88 1 0.189 2.905 -3.669 
89 1 -2.251 -2.692 -6.430 
90 1 2.671 3.754 -0.775 
91 1 11.920 -10.085 3.892 
92 1 -0.015 13.360 6.586 
93 1 -8.745 5.901 -8.153 
94 1 11.879 6.086 -8.529 
95 1 0.771 13.566 3.004 
96 1 -9.484 5.313 -4.497 
97 1 -5.295 5.372 6.175 
98 1 -11.855 3.883 -7.144 
99 1 -5.796 10.682 -1.895 
100 1 1.109 -1.245 -5.426 
101 1 -1.216 9.966 7.326 
102 1 -9.641 -6.652 3.705 
103 1 -13.506 -5.373 -8.446 
104 1 -9.265 8.941 -10.297 
105 1 -6.196 -10.793 9.151 
106 1 7.171 -6.732 -10.827 
107 1 -2.142 -1.585 0.446 
108 1 7.578 10.822 -12.093 
109 1 -5.357 6.049 2.336 
110 1 -1.227 3.939 10.430 
111 1 0.616 -2.865 11.936 
112 1 7.932 12.743 10.267 
113 1 -10.901 4.061 -10.809 
114 1 6.648 4.086 8.126 
115 1 -7.659 -7.510 -12.008 
116 1 0.561 -3.175 -2.070 
117 1 9.128 -2.043 4.602 
118 1 -6.213 -3.906 -1.875 
119 1 10.163 -11.552 -10.982 
120 1 -3.916 -1.485 6.440 
121 1 4.049 3.119 -13.626 
122 1 -6.687 7.853 -4.380 
123 1 -4.571 9.854 1.555 
124 1 3.318 4.478 6.008 
125 1 1.443 -3.928 -8.034 
126 1 -9.398 -6.018 7.334 
127 1 -3.112 2.484 7.546 
128 1 13.533 11.754 -5.451 
129 1 -0.757 10.636 13.191 
130 1 10.744 -4.342 -10.206 
131 1 -2.102 0.528 3.788 
132 1 -8.822 10.918 6.514 
133 1 6.978 -2.934 -10.338 
134 1 11.562 13.503 10.265 
135 1 12.840 -3.974 4.555 
136 1 -2.540 -0.628 9.762 
137 1 0.746 4.675 2.429 
138 1 -2.952 13.314 -2.943 
139 1 -4.596 -9.437 -10.944 
140 1 -0.752 12.869 10.127 
141 1 -5.078 -1.438 -4.427 
142 1 -8.885 0.342 5.916 
143 1 -5.304 -7.496 -2.666 
144 1 -3.581 12.753 7.606 
145 1 -8.442 7.163 6.813 
146 1 -5.273 -5.050 -5.742 
147 1 -10.221 -4.248 -6.708 
148 1 -0.158 6.699 5.573 
149 1 -7.051 -2.795 -12.598 
150 1 -5.079 -8.567 6.198 
151 1 4.838 1.168 1.009 
152 1 -8.404 4.177 4.228 
153 1 1.666 -1.332 8.458 
154 1 -2.494 -11.062 -13.746 
155 1 -3.220 6.743 12.127 
156 1 -0.573 5.566 -1.138 
157 1 11.358 9.902 -12.130 
158 1 -3.829 -1.699 13.165 
159 1 -12.314 7.163 -8.932 
160 1 -5.868 -2.940 10.112 
161 1 -6.260 -10.793 13.637 
162 1 3.999 -9.497 4.514 
163 1 -0.884 -6.097 -6.055 
164 1 5.178 10.247 9.386 
165 1 -4.527 10.801 -5.360 
166 1 -4.390 -5.605 -12.077 
167 1 -2.569 4.217 4.048 
168 1 -1.769 7.334 1.882 
169 1 -5.614 -1.689 3.152 
170 1 -7.502 8.755 3.621 
171 1 2.160 0.205 -1.923 
172 1 2.540 10.406 6.627 
173 1 -3.892 7.383 -1.328 
174 1 -13.454 -3.599 -11.744 
175 1 9.654 -3.570 11.800 
176 1 2.207 2.445 10.782 
177 1 10.116 12.602 -9.895 
178 1 2.256 1.526 3.751 
179 1 -5.935 -12.345 5.757 
180 1 -2.761 -4.374 -3.089 
181 1 9.090 -12.064 8.134 
182 1 -6.105 -5.462 3.974 
183 1 5.944 2.127 4.581 
184 1 -2.158 9.325 -7.836 
185 1 12.055 -0.092 0.731 
186 1 -1.924 13.206 -6.697 
187 1 -3.996 -13.250 10.975 
188 1 7.069 5.740 4.864 
189 1 8.944 9.481 8.612 
190 1 3.190 -12.903 5.711 
191 1 -2.712 -13.648 4.189 
192 1 -5.247 -3.204 -9.107 
193 1 -8.008 -11.035 -10.539 
194 1 4.122 11.425 -3.509 
195 1 -11.568 2.371 7.505 
196 1 -3.401 10.255 10.518 
197 1 -4.449 2.334 11.233 
198 1 -0.758 0.727 12.755 
199 1 8.575 0.774 2.192 
200 1 5.483 -12.466 -6.162 
ITEM: TIMESTEP
100
ITEM: NUMBER OF ATOMS
200
ITEM: BOX BOUNDS pp pp pp
-13.898096441678897 13.898096441678897
-13.898096441678897 13.898096441678897
-13.898096441678897 13.898096441678897
ITEM: ATOMS id type x y z
1 1 4.462 4.726 2.335 
2 1 2.737 11.980 0.209 
3 1 1.277 1.166 -11.801 
4 1 -2.637 6.663 8.287 
5 1 -9.144 -2.861 3.405 
6 1 2.884 13.158 9.061 
7 1 5.010 -1.287 4.964 
8 1 1.329 9.711 10.092 
9 1 4.322 11.966 3.657 
10 1 -7.432 7.709 -0.298 
11 1 0.140 -11.055 4.847 
12 1 9.825 12.398 6.666 
13 1 -7.665 -6.286 0.535 
14 1 -12.873 -7.138 5.465 
15 1 5.880 1.815 11.012 
16 1 -0.421 13.339 -10.175 
17 1 -3.710 -10.376 -0.425 
18 1 -1.378 -11.295 -4.565 
19 1 -5.564 1.780 4.848 
20 1 -1.717 -0.446 -3.056 
21 1 0.842 -2.802 -11.988 
22 1 -1.642 -8.147 -9.067 
23 1 9.147 8.856 -9.239 
24 1 12.671 9.731 -8.469 
25 1 -8.370 9.391 10.040 
26 1 6.933 -13.420 -11.833 
27 1 -11.737 1.362 3.819 
28 1 -11.355 10.567 -7.605 
29 1 -1.806 6.711 -4.590 
30 1 -7.193 -2.896 6.594 
31 1 -8.283 0.792 2.286 
32 1 -0.138 10.136 3.827 
33 1 -0.388 -0.817 -9.031 
34 1 -9.963 5.832 9.988 
35 1 -2.668 -11.503 7.381 
36 1 -9.469 2.178 10.857 
37 1 3.229 -5.860 13.559 
38 1 -3.165 -10.077 3.347 
39 1 -7.869 3.504 7.804 
40 1 0.379 4.280 13.686 
41 1 -1.674 -8.007 -2.670 
42 1 13.826 13.182 -9.150 
43 1 -12.676 -1.946 2.226 
44 1 3.442 -1.241 -9.714 
45 1 4.024 -12.856 -1.838 
46 1 -6.923 13.045 8.881 
47 1 -8.629 -9.563 6.089 
48 1 3.796 -12.396 1.944 
49 1 4.042 1.277 7.646 
50 1 5.373 8.927 -9.732 
51 1 -3.562 8.435 4.988 
52 1 1.361 6.089 8.935 
53 1 6.663 -10.345 -9.599 
54 1 9.515 12.399 1.994 
55 1 3.750 -4.931 -10.652 
56 1 -7.006 -0.239 12.297 
57 1 6.231 9.448 5.778 
58 1 13.202 -1.742 -8.634 
59 1 3.772 -8.601 -11.519 
60 1 -0.608 1.815 0.239 
61 1 11.778 10.333 4.237 
62 1 -9.913 -4.680 -10.555 
63 1 6.156 12.997 6.946 
64 1 -6.697 -9.141 2.807 
65 1 -6.082 6.193 9.742 
66 1 -8.297 10.949 -5.073 
67 1 9.484 2.085 5.678 
68 1 12.367 3.040 -6.325 
69 1 0.485 -6.564 -11.739 
70 1 -5.458 9.364 7.497 
71 1 12.598 -0.100 4.616 
72 1 8.327 -12.730 4.404 
73 1 -5.534 -12.777 1.949 
74 1 -8.983 0.648 -12.310 
75 1 -0.295 -11.259 1.073 
76 1 10.000 13.221 -13.836 
77 1 -3.983 -6.853 0.914 
78 1 1.993 -7.518 -8.357 
79 1 6.779 -9.926 -13.409 
80 1 -11.869 -1.882 5.906 
81 1 -1.741 -4.434 -9.610 
82 1 -5.544 11.779 4.604 
83 1 -5.065 -11.282 -3.785 
84 1 -6.207 0.385 8.583 
85 1 -12.674 10.252 -11.228 
86 1 -3.701 -8.533 -5.929 
87 1 -6.247 8.822 -7.873 
88 1 0.141 2.783 -3.652 
89 1 -2.192 -2.672 -6.351 
90 1 2.622 3.661 -0.743 
91 1 11.812 -10.163 4.099 
92 1 0.009 13.304 6.572 
93 1 -8.775 5.992 -8.071 
94 1 11.886 6.076 -8.616 
95 1 0.834 13.527 3.005 
96 1 -9.519 5.485 -4.433 
97 1 -5.306 5.508 6.043 
98 1 -11.849 3.945 -7.125 
99 1 -5.857 10.780 -1.853 
100 1 1.121 -1.110 -5.394 
101 1 -1.204 9.891 7.391 
102 1 -9.628 -6.704 3.636 
103 1 -13.405 -5.359 -8.499 
104 1 -9.227 8.960 -10.308 
105 1 -6.192 -10.841 9.081 
106 1 7.119 -6.789 -11.011 
107 1 -2.284 -1.742 0.408 
108 1 7.673 10.716 -12.199 
109 1 -5.232 5.946 2.255 
110 1 -1.236 3.801 10.360 
111 1 0.393 -2.706 12.030 
112 1 7.759 12.721 10.348 
113 1 -10.782 4.133 -10.788 
114 1 6.568 4.007 7.993 
115 1 -7.641 -7.401 -12.092 
116 1 0.609 -3.258 -2.148 
117 1 9.171 -1.814 4.716 
118 1 -6.150 -3.852 -1.756 
119 1 10.080 -11.573 -11.130 
120 1 -3.784 -1.347 6.413 
121 1 3.940 3.033 -13.750 
122 1 -6.458 7.757 -4.193 
123 1 -4.531 9.831 1.488 
124 1 3.239 4.618 5.927 
125 1 1.445 -3.869 -7.920 
126 1 -9.349 -5.934 7.225 
127 1 -3.209 2.570 7.521 
128 1 13.547 11.849 -5.517 
129 1 -0.816 10.530 13.144 
130 1 10.778 -4.366 -10.224 
131 1 -2.068 0.555 3.634 
132 1 -8.776 10.895 6.421 
133 1 6.984 -2.997 -10.359 
134 1 11.399 13.439 10.134 
135 1 12.863 -3.888 4.592 
136 1 -2.529 -0.463 9.805 
137 1 0.766 4.619 2.454 
138 1 -3.046 13.416 -2.840 
139 1 -4.551 -9.328 -11.055 
140 1 -0.764 12.850 10.131 
141 1 -5.099 -1.484 -4.427 
142 1 -8.816 0.344 5.912 
143 1 -5.347 -7.481 -2.602 
144 1 -3.561 12.708 7.564 
145 1 -8.531 7.124 6.860 
146 1 -5.166 -5.083 -5.720 
147 1 -10.105 -4.223 -6.791 
148 1 -0.054 6.743 5.508 
149 1 -6.983 -2.849 -12.573 
150 1 -5.044 -8.553 6.200 
151 1 4.743 1.094 1.131 
152 1 -8.401 4.197 4.178 
153 1 1.249 -0.973 8.720 
154 1 -2.524 -11.159 -13.784 
155 1 -3.015 6.695 12.040 
156 1 -0.664 5.443 -1.103 
157 1 11.431 9.938 -12.109 
158 1 -3.651 -1.734 13.243 
159 1 -12.311 7.188 -8.970 
160 1 -5.548 -2.943 10.062 
161 1 -6.260 -10.697 13.545 
162 1 3.787 -9.523 4.413 
163 1 -0.885 -6.093 -5.967 
164 1 5.092 10.154 9.323 
165 1 -4.497 10.847 -5.263 
166 1 -4.297 -5.595 -12.055 
167 1 -2.505 4.236 4.122 
168 1 -1.623 7.233 1.701 
169 1 -5.529 -1.694 3.129 
170 1 -7.296 8.601 3.727 
171 1 2.083 0.136 -1.818 
172 1 2.502 10.385 6.532 
173 1 -3.844 7.453 -1.380 
174 1 -13.453 -3.569 -11.788 
175 1 9.620 -3.574 11.928 
176 1 2.134 2.363 10.725 
177 1 10.070 12.599 -9.887 
178 1 2.243 1.496 3.924 
179 1 -5.885 -12.343 5.672 
180 1 -2.751 -4.384 -3.009 
181 1 8.869 -12.129 8.137 
182 1 -6.108 -5.469 3.978 
183 1 5.939 2.247 4.605 
184 1 -2.197 9.350 -7.740 
185 1 11.999 -0.138 0.916 
186 1 -1.947 13.248 -6.612 
187 1 -4.012 -13.277 10.936 
188 1 7.043 5.841 4.822 
189 1 8.751 9.449 8.637 
190 1 3.230 -12.959 5.700 
191 1 -2.643 -13.688 4.147 
192 1 -5.262 -3.270 -9.066 
193 1 -7.933 -10.987 -10.709 
194 1 4.046 11.512 -3.437 
195 1 -11.464 2.439 7.501 
196 1 -3.389 10.178 10.463 
197 1 -4.583 2.498 11.182 
198 1 -0.733 0.803 12.787 
199 1 8.493 0.873 2.195 
200 1 5.442 -12.475 -6.211 
