ITEM: TIMESTEP
0
ITEM: NUMBER OF ATOMS
5
ITEM: BOX BOUNDS pp pp pp
-10.0 10.0
-10.0 10.0
-10.0 10.0
ITEM: ATOMS id type x y z
1 1 2.952 0.578 -0.875 
2 1 -8.333 5.677 8.846 
3 2 9.595 5.191 5.959 
4 2 -6.632 9.613 6.395 
5 2 -8.350 2.469 8.449 
ITEM: TIMESTEP
25
ITEM: NUMBER OF ATOMS
5
ITEM: BOX BOUNDS pp pp pp
-10.0 10.0
-10.0 10.0
-10.0 10.0
ITEM: ATOMS id type x y z
1 1 2.952 0.578 -0.875 
2 1 -8.116 6.179 9.129 
3 2 9.824 5.584 5.815 
4 2 -7.124 8.817 6.405 
5 2 -8.305 2.370 8.301 
ITEM: TIMESTEP
50
ITEM: NUMBER OF ATOMS
5
ITEM: BOX BOUNDS pp pp pp
-10.0 10.0
-10.0 10.0
-10.0 10.0
ITEM: ATOMS id type x y z
1 1 2.952 0.578 -0.875 
2 1 -8.362 6.249 9.240 
3 2 9.670 5.626 5.879 
4 2 -6.961 8.540 6.381 
5 2 -8.068 2.535 8.150 
ITEM: TIMESTEP
75
ITEM: NUMBER OF ATOMS
5
ITEM: BOX BOUNDS pp pp pp
-10.0 10.0
-10.0 10.0
-10.0 10.0
ITEM: ATOMS id type x y z
1 1 2.952 0.578 -0.875 
2 1 -8.963 6.445 9.487 
3 2 9.220 5.754 6.006 
4 2 -6.603 7.483 6.459 
5 2 -7.375 3.268 7.698 
ITEM: TIMESTEP
100
ITEM: NUMBER OF ATOMS
5
ITEM: BOX BOUNDS pp pp pp
-10.0 10.0
-10.0 10.0
-10.0 10.0
ITEM: ATOMS id type x y z
1 1 2.952 0.578 -0.875 
2 1 -8.944 6.431 9.451 
3 2 9.260 5.752 6.024 
4 2 -6.630 7.505 6.464 
5 2 -7.407 3.262 7.711 
