ITEM: TIMESTEP
0
ITEM: NUMBER OF ATOMS
51
ITEM: BOX BOUNDS pp pp pp
-10.0 10.0
-10.0 10.0
-10.0 10.0
ITEM: ATOMS id type x y z
1 1 -0.177 -1.231 3.771 
2 1 -1.114 -7.352 -7.833 
3 1 -3.986 -3.930 3.860 
4 1 4.399 7.933 0.571 
5 1 3.853 -3.370 1.645 
6 1 0.851 1.690 -3.037 
7 1 9.994 -3.107 5.009 
8 1 4.610 -8.552 -8.750 
9 1 -6.578 1.237 9.338 
10 1 -2.481 -1.651 -5.927 
11 1 3.293 3.419 2.871 
12 1 9.165 -4.940 -7.968 
13 1 3.791 8.676 -6.763 
14 1 -6.083 -9.890 4.257 
15 1 2.924 -6.718 0.177 
16 1 -5.230 5.106 -2.689 
17 1 -3.392 -5.136 9.225 
18 1 -6.599 -5.168 -7.970 
19 1 -2.599 4.147 8.806 
20 1 -5.851 8.383 6.705 
21 1 2.119 -5.101 -1.566 
22 1 -1.177 -0.848 -8.830 
23 1 -3.466 -2.896 2.080 
24 1 -8.045 0.963 9.818 
25 1 -9.021 -5.547 -5.382 
26 1 -1.146 -3.549 -2.212 
27 1 -1.502 7.806 -7.851 
28 1 -1.817 7.375 6.797 
29 1 -9.394 -0.353 4.026 
30 1 -9.472 5.053 7.120 
31 1 -6.069 -3.661 -6.341 
32 1 -5.181 -5.255 -4.588 
33 1 2.838 7.041 3.011 
34 1 6.935 -2.774 -1.099 
35 1 2.103 -8.319 0.287 
36 1 -0.464 6.647 -7.201 
37 1 5.848 -5.547 1.469 
38 1 -1.346 -9.128 -7.177 
39 1 -6.887 6.615 9.800 
40 1 5.593 4.888 8.764 
41 1 7.085 5.209 -8.614 
42 1 2.878 7.334 -5.636 
43 1 -7.848 -9.982 4.324 
44 1 -2.951 4.364 7.184 
45 1 8.574 9.400 -0.311 
46 1 -3.985 9.239 0.655 
47 1 -5.046 3.839 -3.063 
48 1 4.425 5.887 5.924 
49 1 6.413 1.420 2.954 
50 1 -8.228 2.030 5.727 
51 1 5.293 -2.341 2.841 
ITEM: TIMESTEP
10
ITEM: NUMBER OF ATOMS
53
ITEM: BOX BOUNDS pp pp pp
-10.0 10.0
-10.0 10.0
-10.0 10.0
ITEM: ATOMS id type x y z
1 1 4.271 -0.182 2.190 
2 1 2.565 9.686 6.104 
3 1 -9.509 8.689 6.921 
4 1 -3.470 -8.949 2.960 
5 1 7.754 -9.232 -4.737 
6 1 -0.177 -1.231 3.771 
7 1 -1.114 -7.352 -7.833 
8 1 -3.986 -3.930 3.860 
9 1 4.399 7.933 0.571 
10 1 3.853 -3.370 1.645 
11 1 0.851 1.690 -3.037 
12 1 9.994 -3.107 5.009 
13 1 4.610 -8.552 -8.750 
14 1 -6.578 1.237 9.338 
15 1 -2.481 -1.651 -5.927 
16 1 3.293 3.419 2.871 
17 1 9.165 -4.940 -7.968 
18 1 3.791 8.676 -6.763 
19 1 -6.083 -9.890 4.257 
20 1 2.924 -6.718 0.177 
21 1 -5.230 5.106 -2.689 
22 1 -3.392 -5.136 9.225 
23 1 -2.599 4.147 8.806 
24 1 -5.851 8.383 6.705 
25 1 2.119 -5.101 -1.566 
26 1 -1.177 -0.848 -8.830 
27 1 -3.466 -2.896 2.080 
28 1 -9.021 -5.547 -5.382 
29 1 -1.146 -3.549 -2.212 
30 1 -1.502 7.806 -7.851 
31 1 -1.817 7.375 6.797 
32 1 -9.394 -0.353 4.026 
33 1 -9.472 5.053 7.120 
34 1 -6.069 -3.661 -6.341 
35 1 -5.181 -5.255 -4.588 
36 1 2.838 7.041 3.011 
37 1 6.935 -2.774 -1.099 
38 1 2.103 -8.319 0.287 
39 1 -0.464 6.647 -7.201 
40 1 5.848 -5.547 1.469 
41 1 -1.346 -9.128 -7.177 
42 1 -6.887 6.615 9.800 
43 1 5.593 4.888 8.764 
44 1 7.085 5.209 -8.614 
45 1 2.878 7.334 -5.636 
46 1 -7.848 -9.982 4.324 
47 1 -2.951 4.364 7.184 
48 1 8.574 9.400 -0.311 
49 1 -3.985 9.239 0.655 
50 1 -5.046 3.839 -3.063 
51 1 4.425 5.887 5.924 
52 1 6.413 1.420 2.954 
53 1 -8.228 2.030 5.727 
ITEM: TIMESTEP
20
ITEM: NUMBER OF ATOMS
53
ITEM: BOX BOUNDS pp pp pp
-10.0 10.0
-10.0 10.0
-10.0 10.0
ITEM: ATOMS id type x y z
1 1 7.029 6.084 -1.462 
2 1 -0.865 4.380 4.764 
3 1 4.271 -0.182 2.190 
4 1 2.565 9.686 6.104 
5 1 -9.509 8.689 6.921 
6 1 -3.470 -8.949 2.960 
7 1 7.754 -9.232 -4.737 
8 1 -0.177 -1.231 3.771 
9 1 -1.114 -7.352 -7.833 
10 1 -3.986 -3.930 3.860 
11 1 4.399 7.933 0.571 
12 1 3.853 -3.370 1.645 
13 1 0.851 1.690 -3.037 
14 1 9.994 -3.107 5.009 
15 1 4.610 -8.552 -8.750 
16 1 -6.578 1.237 9.338 
17 1 -2.481 -1.651 -5.927 
18 1 3.293 3.419 2.871 
19 1 9.165 -4.940 -7.968 
20 1 3.791 8.676 -6.763 
21 1 -6.083 -9.890 4.257 
22 1 2.924 -6.718 0.177 
23 1 -5.230 5.106 -2.689 
24 1 -3.392 -5.136 9.225 
25 1 -2.599 4.147 8.806 
26 1 -5.851 8.383 6.705 
27 1 2.119 -5.101 -1.566 
28 1 -1.177 -0.848 -8.830 
29 1 -3.466 -2.896 2.080 
30 1 -9.021 -5.547 -5.382 
31 1 -1.146 -3.549 -2.212 
32 1 -1.502 7.806 -7.851 
33 1 -1.817 7.375 6.797 
34 1 -9.394 -0.353 4.026 
35 1 -9.472 5.053 7.120 
36 1 -6.069 -3.661 -6.341 
37 1 -5.181 -5.255 -4.588 
38 1 2.838 7.041 3.011 
39 1 6.935 -2.774 -1.099 
40 1 2.103 -8.319 0.287 
41 1 5.848 -5.547 1.469 
42 1 -6.887 6.615 9.800 
43 1 5.593 4.888 8.764 
44 1 7.085 5.209 -8.614 
45 1 2.878 7.334 -5.636 
46 1 -7.848 -9.982 4.324 
47 1 -2.951 4.364 7.184 
48 1 8.574 9.400 -0.311 
49 1 -3.985 9.239 0.655 
50 1 -5.046 3.839 -3.063 
51 1 4.425 5.887 5.924 
52 1 6.413 1.420 2.954 
ITEM: TIMESTEP
30
ITEM: NUMBER OF ATOMS
54
ITEM: BOX BOUNDS pp pp pp
-10.0 10.0
-10.0 10.0
-10.0 10.0
ITEM: ATOMS id type x y z
1 1 3.116 -3.755 5.163 
2 1 -9.276 -6.816 5.044 
3 1 6.475 2.386 -1.801 
4 1 7.029 6.084 -1.462 
5 1 -0.865 4.380 4.764 
6 1 4.271 -0.182 2.190 
7 1 2.565 9.686 6.104 
8 1 -9.509 8.689 6.921 
9 1 -3.470 -8.949 2.960 
10 1 7.754 -9.232 -4.737 
11 1 -0.177 -1.231 3.771 
12 1 -1.114 -7.352 -7.833 
13 1 -3.986 -3.930 3.860 
14 1 4.399 7.933 0.571 
15 1 3.853 -3.370 1.645 
16 1 0.851 1.690 -3.037 
17 1 9.994 -3.107 5.009 
18 1 4.610 -8.552 -8.750 
19 1 -6.578 1.237 9.338 
20 1 -2.481 -1.651 -5.927 
21 1 3.293 3.419 2.871 
22 1 9.165 -4.940 -7.968 
23 1 3.791 8.676 -6.763 
24 1 2.924 -6.718 0.177 
25 1 -5.230 5.106 -2.689 
26 1 -3.392 -5.136 9.225 
27 1 -2.599 4.147 8.806 
28 1 -5.851 8.383 6.705 
29 1 -1.177 -0.848 -8.830 
30 1 -3.466 -2.896 2.080 
31 1 -9.021 -5.547 -5.382 
32 1 -1.146 -3.549 -2.212 
33 1 -1.502 7.806 -7.851 
34 1 -1.817 7.375 6.797 
35 1 -9.394 -0.353 4.026 
36 1 -9.472 5.053 7.120 
37 1 -6.069 -3.661 -6.341 
38 1 -5.181 -5.255 -4.588 
39 1 2.838 7.041 3.011 
40 1 6.935 -2.774 -1.099 
41 1 2.103 -8.319 0.287 
42 1 5.848 -5.547 1.469 
43 1 -6.887 6.615 9.800 
44 1 5.593 4.888 8.764 
45 1 7.085 5.209 -8.614 
46 1 2.878 7.334 -5.636 
47 1 -7.848 -9.982 4.324 
48 1 -2.951 4.364 7.184 
49 1 8.574 9.400 -0.311 
50 1 -3.985 9.239 0.655 
51 1 -5.046 3.839 -3.063 
52 1 4.425 5.887 5.924 
53 1 6.413 1.420 2.954 
54 1 -8.228 2.030 5.727 
ITEM: TIMESTEP
40
ITEM: NUMBER OF ATOMS
57
ITEM: BOX BOUNDS pp pp pp
-10.0 10.0
-10.0 10.0
-10.0 10.0
ITEM: ATOMS id type x y z
1 1 7.111 -0.700 1.166 
2 1 5.782 -1.720 -9.397 
3 1 -3.716 9.230 -2.844 
4 1 3.116 -3.755 5.163 
5 1 -9.276 -6.816 5.044 
6 1 6.475 2.386 -1.801 
7 1 7.029 6.084 -1.462 
8 1 -0.865 4.380 4.764 
9 1 4.271 -0.182 2.190 
10 1 2.565 9.686 6.104 
11 1 -9.509 8.689 6.921 
12 1 -3.470 -8.949 2.960 
13 1 7.754 -9.232 -4.737 
14 1 -0.177 -1.231 3.771 
15 1 -1.114 -7.352 -7.833 
16 1 -3.986 -3.930 3.860 
17 1 4.399 7.933 0.571 
18 1 3.853 -3.370 1.645 
19 1 0.851 1.690 -3.037 
20 1 9.994 -3.107 5.009 
21 1 4.610 -8.552 -8.750 
22 1 -6.578 1.237 9.338 
23 1 -2.481 -1.651 -5.927 
24 1 3.293 3.419 2.871 
25 1 9.165 -4.940 -7.968 
26 1 3.791 8.676 -6.763 
27 1 2.924 -6.718 0.177 
28 1 -5.230 5.106 -2.689 
29 1 -3.392 -5.136 9.225 
30 1 -2.599 4.147 8.806 
31 1 -5.851 8.383 6.705 
32 1 -1.177 -0.848 -8.830 
33 1 -3.466 -2.896 2.080 
34 1 -9.021 -5.547 -5.382 
35 1 -1.146 -3.549 -2.212 
36 1 -1.502 7.806 -7.851 
37 1 -1.817 7.375 6.797 
38 1 -9.394 -0.353 4.026 
39 1 -9.472 5.053 7.120 
40 1 -6.069 -3.661 -6.341 
41 1 -5.181 -5.255 -4.588 
42 1 2.838 7.041 3.011 
43 1 6.935 -2.774 -1.099 
44 1 2.103 -8.319 0.287 
45 1 5.848 -5.547 1.469 
46 1 -6.887 6.615 9.800 
47 1 5.593 4.888 8.764 
48 1 7.085 5.209 -8.614 
49 1 2.878 7.334 -5.636 
50 1 -7.848 -9.982 4.324 
51 1 -2.951 4.364 7.184 
52 1 8.574 9.400 -0.311 
53 1 -3.985 9.239 0.655 
54 1 -5.046 3.839 -3.063 
55 1 4.425 5.887 5.924 
56 1 6.413 1.420 2.954 
57 1 -8.228 2.030 5.727 
ITEM: TIMESTEP
50
ITEM: NUMBER OF ATOMS
59
ITEM: BOX BOUNDS pp pp pp
-10.0 10.0
-10.0 10.0
-10.0 10.0
ITEM: ATOMS id type x y z
1 1 -6.787 -5.379 9.517 
2 1 -4.456 -2.556 9.718 
3 1 -2.659 3.382 -4.520 
4 1 7.111 -0.700 1.166 
5 1 5.782 -1.720 -9.397 
6 1 -3.716 9.230 -2.844 
7 1 3.116 -3.755 5.163 
8 1 -9.276 -6.816 5.044 
9 1 6.475 2.386 -1.801 
10 1 7.029 6.084 -1.462 
11 1 -0.865 4.380 4.764 
12 1 4.271 -0.182 2.190 
13 1 2.565 9.686 6.104 
14 1 -9.509 8.689 6.921 
15 1 -3.470 -8.949 2.960 
16 1 7.754 -9.232 -4.737 
17 1 -0.177 -1.231 3.771 
18 1 -1.114 -7.352 -7.833 
19 1 -3.986 -3.930 3.860 
20 1 4.399 7.933 0.571 
21 1 3.853 -3.370 1.645 
22 1 0.851 1.690 -3.037 
23 1 9.994 -3.107 5.009 
24 1 4.610 -8.552 -8.750 
25 1 -6.578 1.237 9.338 
26 1 -2.481 -1.651 -5.927 
27 1 3.293 3.419 2.871 
28 1 9.165 -4.940 -7.968 
29 1 3.791 8.676 -6.763 
30 1 2.924 -6.718 0.177 
31 1 -5.230 5.106 -2.689 
32 1 -3.392 -5.136 9.225 
33 1 -2.599 4.147 8.806 
34 1 -5.851 8.383 6.705 
35 1 -1.177 -0.848 -8.830 
36 1 -3.466 -2.896 2.080 
37 1 -9.021 -5.547 -5.382 
38 1 -1.146 -3.549 -2.212 
39 1 -1.502 7.806 -7.851 
40 1 -1.817 7.375 6.797 
41 1 -9.394 -0.353 4.026 
42 1 -9.472 5.053 7.120 
43 1 -6.069 -3.661 -6.341 
44 1 -5.181 -5.255 -4.588 
45 1 2.838 7.041 3.011 
46 1 6.935 -2.774 -1.099 
47 1 2.103 -8.319 0.287 
48 1 5.848 -5.547 1.469 
49 1 -6.887 6.615 9.800 
50 1 5.593 4.888 8.764 
51 1 7.085 5.209 -8.614 
52 1 -7.848 -9.982 4.324 
53 1 -2.951 4.364 7.184 
54 1 8.574 9.400 -0.311 
55 1 -3.985 9.239 0.655 
56 1 -5.046 3.839 -3.063 
57 1 4.425 5.887 5.924 
58 1 6.413 1.420 2.954 
59 1 -8.228 2.030 5.727 
ITEM: TIMESTEP
60
ITEM: NUMBER OF ATOMS
59
ITEM: BOX BOUNDS pp pp pp
-10.0 10.0
-10.0 10.0
-10.0 10.0
ITEM: ATOMS id type x y z
1 1 -3.876 6.696 -4.216 
2 1 4.716 -2.576 -2.609 
3 1 -6.787 -5.379 9.517 
4 1 -4.456 -2.556 9.718 
5 1 -2.659 3.382 -4.520 
6 1 7.111 -0.700 1.166 
7 1 5.782 -1.720 -9.397 
8 1 -3.716 9.230 -2.844 
9 1 3.116 -3.755 5.163 
10 1 -9.276 -6.816 5.044 
11 1 6.475 2.386 -1.801 
12 1 7.029 6.084 -1.462 
13 1 -0.865 4.380 4.764 
14 1 4.271 -0.182 2.190 
15 1 2.565 9.686 6.104 
16 1 -9.509 8.689 6.921 
17 1 -3.470 -8.949 2.960 
18 1 7.754 -9.232 -4.737 
19 1 -0.177 -1.231 3.771 
20 1 -1.114 -7.352 -7.833 
21 1 -3.986 -3.930 3.860 
22 1 4.399 7.933 0.571 
23 1 3.853 -3.370 1.645 
24 1 0.851 1.690 -3.037 
25 1 9.994 -3.107 5.009 
26 1 4.610 -8.552 -8.750 
27 1 -6.578 1.237 9.338 
28 1 -2.481 -1.651 -5.927 
29 1 3.293 3.419 2.871 
30 1 9.165 -4.940 -7.968 
31 1 3.791 8.676 -6.763 
32 1 2.924 -6.718 0.177 
33 1 -5.230 5.106 -2.689 
34 1 -3.392 -5.136 9.225 
35 1 -2.599 4.147 8.806 
36 1 -5.851 8.383 6.705 
37 1 -1.177 -0.848 -8.830 
38 1 -3.466 -2.896 2.080 
39 1 -9.021 -5.547 -5.382 
40 1 -1.146 -3.549 -2.212 
41 1 -1.817 7.375 6.797 
42 1 -9.394 -0.353 4.026 
43 1 -9.472 5.053 7.120 
44 1 -6.069 -3.661 -6.341 
45 1 -5.181 -5.255 -4.588 
46 1 2.838 7.041 3.011 
47 1 6.935 -2.774 -1.099 
48 1 2.103 -8.319 0.287 
49 1 5.848 -5.547 1.469 
50 1 -6.887 6.615 9.800 
51 1 5.593 4.888 8.764 
52 1 7.085 5.209 -8.614 
53 1 -7.848 -9.982 4.324 
54 1 -2.951 4.364 7.184 
55 1 -3.985 9.239 0.655 
56 1 -5.046 3.839 -3.063 
57 1 4.425 5.887 5.924 
58 1 6.413 1.420 2.954 
59 1 -8.228 2.030 5.727 
ITEM: TIMESTEP
70
ITEM: NUMBER OF ATOMS
62
ITEM: BOX BOUNDS pp pp pp
-10.0 10.0
-10.0 10.0
-10.0 10.0
ITEM: ATOMS id type x y z
1 1 -4.622 -4.058 -0.300 
2 1 2.844 -7.170 4.434 
3 1 1.838 6.453 9.330 
4 1 -4.449 -0.343 5.176 
5 1 -3.876 6.696 -4.216 
6 1 -6.787 -5.379 9.517 
7 1 -4.456 -2.556 9.718 
8 1 -2.659 3.382 -4.520 
9 1 7.111 -0.700 1.166 
10 1 5.782 -1.720 -9.397 
11 1 -3.716 9.230 -2.844 
12 1 3.116 -3.755 5.163 
13 1 -9.276 -6.816 5.044 
14 1 6.475 2.386 -1.801 
15 1 7.029 6.084 -1.462 
16 1 -0.865 4.380 4.764 
17 1 4.271 -0.182 2.190 
18 1 2.565 9.686 6.104 
19 1 -9.509 8.689 6.921 
20 1 -3.470 -8.949 2.960 
21 1 7.754 -9.232 -4.737 
22 1 -0.177 -1.231 3.771 
23 1 -1.114 -7.352 -7.833 
24 1 -3.986 -3.930 3.860 
25 1 4.399 7.933 0.571 
26 1 3.853 -3.370 1.645 
27 1 0.851 1.690 -3.037 
28 1 9.994 -3.107 5.009 
29 1 4.610 -8.552 -8.750 
30 1 -6.578 1.237 9.338 
31 1 -2.481 -1.651 -5.927 
32 1 3.293 3.419 2.871 
33 1 9.165 -4.940 -7.968 
34 1 3.791 8.676 -6.763 
35 1 2.924 -6.718 0.177 
36 1 -5.230 5.106 -2.689 
37 1 -3.392 -5.136 9.225 
38 1 -2.599 4.147 8.806 
39 1 -5.851 8.383 6.705 
40 1 -1.177 -0.848 -8.830 
41 1 -3.466 -2.896 2.080 
42 1 -9.021 -5.547 -5.382 
43 1 -1.146 -3.549 -2.212 
44 1 -1.817 7.375 6.797 
45 1 -9.394 -0.353 4.026 
46 1 -9.472 5.053 7.120 
47 1 -6.069 -3.661 -6.341 
48 1 -5.181 -5.255 -4.588 
49 1 2.838 7.041 3.011 
50 1 6.935 -2.774 -1.099 
51 1 2.103 -8.319 0.287 
52 1 5.848 -5.547 1.469 
53 1 -6.887 6.615 9.800 
54 1 5.593 4.888 8.764 
55 1 7.085 5.209 -8.614 
56 1 -7.848 -9.982 4.324 
57 1 -2.951 4.364 7.184 
58 1 -3.985 9.239 0.655 
59 1 -5.046 3.839 -3.063 
60 1 4.425 5.887 5.924 
61 1 6.413 1.420 2.954 
62 1 -8.228 2.030 5.727 
ITEM: TIMESTEP
80
ITEM: NUMBER OF ATOMS
62
ITEM: BOX BOUNDS pp pp pp
-10.0 10.0
-10.0 10.0
-10.0 10.0
ITEM: ATOMS id type x y z
1 1 -0.819 -5.555 1.553 
2 1 -4.622 -4.058 -0.300 
3 1 2.844 -7.170 4.434 
4 1 1.838 6.453 9.330 
5 1 -4.449 -0.343 5.176 
6 1 -3.876 6.696 -4.216 
7 1 -6.787 -5.379 9.517 
8 1 -4.456 -2.556 9.718 
9 1 -2.659 3.382 -4.520 
10 1 7.111 -0.700 1.166 
11 1 5.782 -1.720 -9.397 
12 1 -3.716 9.230 -2.844 
13 1 3.116 -3.755 5.163 
14 1 -9.276 -6.816 5.044 
15 1 6.475 2.386 -1.801 
16 1 7.029 6.084 -1.462 
17 1 -0.865 4.380 4.764 
18 1 4.271 -0.182 2.190 
19 1 2.565 9.686 6.104 
20 1 -9.509 8.689 6.921 
21 1 -3.470 -8.949 2.960 
22 1 7.754 -9.232 -4.737 
23 1 -0.177 -1.231 3.771 
24 1 -1.114 -7.352 -7.833 
25 1 -3.986 -3.930 3.860 
26 1 4.399 7.933 0.571 
27 1 3.853 -3.370 1.645 
28 1 0.851 1.690 -3.037 
29 1 9.994 -3.107 5.009 
30 1 4.610 -8.552 -8.750 
31 1 -6.578 1.237 9.338 
32 1 -2.481 -1.651 -5.927 
33 1 3.293 3.419 2.871 
34 1 9.165 -4.940 -7.968 
35 1 3.791 8.676 -6.763 
36 1 2.924 -6.718 0.177 
37 1 -5.230 5.106 -2.689 
38 1 -3.392 -5.136 9.225 
39 1 -2.599 4.147 8.806 
40 1 -5.851 8.383 6.705 
41 1 -1.177 -0.848 -8.830 
42 1 -3.466 -2.896 2.080 
43 1 -9.021 -5.547 -5.382 
44 1 -1.146 -3.549 -2.212 
45 1 -1.817 7.375 6.797 
46 1 -9.394 -0.353 4.026 
47 1 -9.472 5.053 7.120 
48 1 -6.069 -3.661 -6.341 
49 1 2.838 7.041 3.011 
50 1 6.935 -2.774 -1.099 
51 1 2.103 -8.319 0.287 
52 1 5.848 -5.547 1.469 
53 1 -6.887 6.615 9.800 
54 1 5.593 4.888 8.764 
55 1 7.085 5.209 -8.614 
56 1 -7.848 -9.982 4.324 
57 1 -2.951 4.364 7.184 
58 1 -3.985 9.239 0.655 
59 1 -5.046 3.839 -3.063 
60 1 4.425 5.887 5.924 
61 1 6.413 1.420 2.954 
62 1 -8.228 2.030 5.727 
ITEM: TIMESTEP
90
ITEM: NUMBER OF ATOMS
66
ITEM: BOX BOUNDS pp pp pp
-10.0 10.0
-10.0 10.0
-10.0 10.0
ITEM: ATOMS id type x y z
1 1 -4.534 -7.497 -8.987 
2 1 0.629 -7.475 -5.220 
3 1 -4.435 0.015 -0.231 
4 1 -1.366 0.208 5.549 
5 1 -0.819 -5.555 1.553 
6 1 -4.622 -4.058 -0.300 
7 1 2.844 -7.170 4.434 
8 1 1.838 6.453 9.330 
9 1 -4.449 -0.343 5.176 
10 1 -3.876 6.696 -4.216 
11 1 -6.787 -5.379 9.517 
12 1 -4.456 -2.556 9.718 
13 1 -2.659 3.382 -4.520 
14 1 7.111 -0.700 1.166 
15 1 5.782 -1.720 -9.397 
16 1 -3.716 9.230 -2.844 
17 1 3.116 -3.755 5.163 
18 1 -9.276 -6.816 5.044 
19 1 6.475 2.386 -1.801 
20 1 7.029 6.084 -1.462 
21 1 -0.865 4.380 4.764 
22 1 4.271 -0.182 2.190 
23 1 2.565 9.686 6.104 
24 1 -9.509 8.689 6.921 
25 1 -3.470 -8.949 2.960 
26 1 7.754 -9.232 -4.737 
27 1 -0.177 -1.231 3.771 
28 1 -1.114 -7.352 -7.833 
29 1 -3.986 -3.930 3.860 
30 1 4.399 7.933 0.571 
31 1 3.853 -3.370 1.645 
32 1 0.851 1.690 -3.037 
33 1 9.994 -3.107 5.009 
34 1 4.610 -8.552 -8.750 
35 1 -6.578 1.237 9.338 
36 1 -2.481 -1.651 -5.927 
37 1 3.293 3.419 2.871 
38 1 9.165 -4.940 -7.968 
39 1 3.791 8.676 -6.763 
40 1 2.924 -6.718 0.177 
41 1 -5.230 5.106 -2.689 
42 1 -3.392 -5.136 9.225 
43 1 -2.599 4.147 8.806 
44 1 -5.851 8.383 6.705 
45 1 -1.177 -0.848 -8.830 
46 1 -3.466 -2.896 2.080 
47 1 -9.021 -5.547 -5.382 
48 1 -1.146 -3.549 -2.212 
49 1 -1.817 7.375 6.797 
50 1 -9.394 -0.353 4.026 
51 1 -9.472 5.053 7.120 
52 1 -6.069 -3.661 -6.341 
53 1 2.838 7.041 3.011 
54 1 6.935 -2.774 -1.099 
55 1 2.103 -8.319 0.287 
56 1 5.848 -5.547 1.469 
57 1 -6.887 6.615 9.800 
58 1 5.593 4.888 8.764 
59 1 7.085 5.209 -8.614 
60 1 -7.848 -9.982 4.324 
61 1 -2.951 4.364 7.184 
62 1 -3.985 9.239 0.655 
63 1 -5.046 3.839 -3.063 
64 1 4.425 5.887 5.924 
65 1 6.413 1.420 2.954 
66 1 -8.228 2.030 5.727 
ITEM: TIMESTEP
100
ITEM: NUMBER OF ATOMS
68
ITEM: BOX BOUNDS pp pp pp
-10.0 10.0
-10.0 10.0
-10.0 10.0
ITEM: ATOMS id type x y z
1 1 -9.663 2.922 -8.577 
2 1 5.083 2.610 -9.136 
3 1 -7.474 1.643 -4.164 
4 1 -8.475 6.063 -3.988 
5 1 -4.534 -7.497 -8.987 
6 1 0.629 -7.475 -5.220 
7 1 -4.435 0.015 -0.231 
8 1 -1.366 0.208 5.549 
9 1 -0.819 -5.555 1.553 
10 1 -4.622 -4.058 -0.300 
11 1 2.844 -7.170 4.434 
12 1 1.838 6.453 9.330 
13 1 -4.449 -0.343 5.176 
14 1 -3.876 6.696 -4.216 
15 1 -6.787 -5.379 9.517 
16 1 -4.456 -2.556 9.718 
17 1 -2.659 3.382 -4.520 
18 1 7.111 -0.700 1.166 
19 1 5.782 -1.720 -9.397 
20 1 -3.716 9.230 -2.844 
21 1 3.116 -3.755 5.163 
22 1 -9.276 -6.816 5.044 
23 1 6.475 2.386 -1.801 
24 1 7.029 6.084 -1.462 
25 1 -0.865 4.380 4.764 
26 1 4.271 -0.182 2.190 
27 1 2.565 9.686 6.104 
28 1 -9.509 8.689 6.921 
29 1 -3.470 -8.949 2.960 
30 1 7.754 -9.232 -4.737 
31 1 -0.177 -1.231 3.771 
32 1 -1.114 -7.352 -7.833 
33 1 -3.986 -3.930 3.860 
34 1 4.399 7.933 0.571 
35 1 3.853 -3.370 1.645 
36 1 0.851 1.690 -3.037 
37 1 9.994 -3.107 5.009 
38 1 4.610 -8.552 -8.750 
39 1 -6.578 1.237 9.338 
40 1 -2.481 -1.651 -5.927 
41 1 3.293 3.419 2.871 
42 1 9.165 -4.940 -7.968 
43 1 3.791 8.676 -6.763 
44 1 -5.230 5.106 -2.689 
45 1 -3.392 -5.136 9.225 
46 1 -5.851 8.383 6.705 
47 1 -1.177 -0.848 -8.830 
48 1 -3.466 -2.896 2.080 
49 1 -9.021 -5.547 -5.382 
50 1 -1.146 -3.549 -2.212 
51 1 -1.817 7.375 6.797 
52 1 -9.394 -0.353 4.026 
53 1 -9.472 5.053 7.120 
54 1 -6.069 -3.661 -6.341 
55 1 2.838 7.041 3.011 
56 1 6.935 -2.774 -1.099 
57 1 2.103 -8.319 0.287 
58 1 5.848 -5.547 1.469 
59 1 -6.887 6.615 9.800 
60 1 5.593 4.888 8.764 
61 1 7.085 5.209 -8.614 
62 1 -7.848 -9.982 4.324 
63 1 -2.951 4.364 7.184 
64 1 -3.985 9.239 0.655 
65 1 -5.046 3.839 -3.063 
66 1 4.425 5.887 5.924 
67 1 6.413 1.420 2.954 
68 1 -8.228 2.030 5.727 
